1 131:1 246:1 300:1 406:1 407:1 460:1 541:1 559:1 621:1 634:1 681:1 701:1 895:1 907:1 978:1 981:1 1152:1 1225:1 1231:1 1235:1 1236:1 1237:1 1239:1 1241:1 1265:1 1292:1 1300:1 1313:1 1329:1 1334:1 1348:1 1350:1 1356:1 1357:1 1374:1
1 246:1 300:1 406:1 407:1 460:1 559:1 634:1 681:1 701:1 895:1 907:1 981:1 1152:1 1231:1 1235:1 1236:1 1239:1 1241:1 1265:1 1292:1 1313:1 1329:1 1334:1 1350:1 1356:1 1357:1 1374:2
1 246:1 559:1 634:1 907:1 1292:1 1313:1 1356:1 1357:1 1374:3
1 246:1 559:1 634:1 907:1 1292:1 1313:1 1356:1 1357:1 1374:3
1 131:1 246:1 300:1 406:1 407:1 460:1 541:1 559:1 621:1 634:1 681:1 701:1 895:1 907:1 978:1 981:1 1152:1 1225:1 1231:1 1235:1 1236:1 1237:1 1239:1 1241:1 1265:1 1292:1 1300:1 1313:1 1329:1 1334:1 1348:1 1350:1 1356:1 1357:1 1374:2
1 131:1 559:1 621:1 681:1 907:1 981:1 1225:1 1231:1 1239:1 1313:1 1348:1 1356:1 1374:1
1 131:1 246:1 300:1 406:1 407:1 460:1 541:1 559:1 621:1 634:1 681:1 701:1 895:1 907:1 978:1 981:1 1152:1 1225:1 1231:1 1235:1 1236:1 1237:1 1239:1 1241:1 1265:1 1292:1 1300:1 1313:1 1329:1 1334:1 1348:1 1350:1 1356:1 1357:1 1374:2
1 246:1 559:1 681:1 907:1 1231:1 1292:1 1313:1 1356:1 1374:4
1 246:1 460:1 541:1 559:1 681:1 907:1 981:1 1231:1 1239:1 1265:1 1292:1 1300:1 1313:1 1356:1 1374:3
1 246:1 559:1 634:1 907:1 1292:1 1313:1 1356:1 1357:1 1374:3
1 246:1 559:1 634:1 907:1 1292:1 1313:1 1356:1 1357:1 1374:3
1 246:1 267:1 349:1 541:1 559:1 606:1 681:1 741:1 981:1 1231:1 1239:1 1258:1 1292:1 1300:1 1301:1 1313:1 1343:1 1354:1 1374:4
1 246:1 559:1 634:1 907:1 1292:1 1313:1 1356:1 1357:1 1374:3
1 246:1 460:1 541:1 559:1 681:1 701:1 907:1 981:1 1231:1 1239:1 1241:1 1265:1 1292:1 1300:1 1313:1 1356:1 1374:2
1 246:1 460:1 541:1 559:1 681:1 701:1 907:1 978:1 1231:1 1237:1 1241:1 1265:1 1292:1 1300:1 1313:1 1356:1 1374:4
1 1374:3
1 1374:3
1 246:1 559:1 1292:1 1313:1 1374:2
1 246:1 559:1 634:1 907:1 1292:1 1313:1 1356:1 1357:1 1374:3
1 701:1 1241:1 1374:3
1 1374:3
1 246:1 559:1 634:1 907:1 1292:1 1313:1 1356:1 1357:1 1374:3
1 246:1 460:1 541:1 559:1 681:1 701:1 907:1 981:1 1231:1 1239:1 1241:1 1265:1 1292:1 1300:1 1313:1 1356:1 1374:2
1 246:1 559:1 634:1 907:1 1292:1 1313:1 1356:1 1357:1 1374:3
1 701:1 1241:1 1374:3
1 246:1 300:1 406:1 407:1 460:1 559:1 634:1 681:1 701:1 895:1 907:1 981:1 1152:1 1231:1 1235:1 1236:1 1239:1 1241:1 1265:1 1292:1 1313:1 1329:1 1334:1 1350:1 1356:1 1357:1 1374:2
1 246:1 559:1 634:1 907:1 1292:1 1313:1 1356:1 1357:1 1374:3
1 246:1 559:1 634:1 907:1 1292:1 1313:1 1356:1 1357:1 1374:3
1 246:1 559:1 634:1 907:1 1292:1 1313:1 1356:1 1357:1 1374:3
1 246:1 559:1 634:1 907:1 1292:1 1313:1 1356:1 1357:1 1374:3
1 246:1 559:1 634:1 907:1 1292:1 1313:1 1356:1 1357:1 1374:3
1 246:1 460:1 541:1 559:1 681:1 907:1 1231:1 1265:1 1292:1 1300:1 1313:1 1356:1 1374:2
1 246:1 559:1 634:1 907:1 1292:1 1313:1 1356:1 1357:1 1374:3
1 246:1 559:1 634:1 907:1 1292:1 1313:1 1356:1 1357:1 1374:3
1 246:1 559:1 634:1 907:1 1292:1 1313:1 1356:1 1357:1 1374:3
1 246:1 559:1 634:1 907:1 1292:1 1313:1 1356:1 1357:1 1374:3
1 246:1 559:1 1292:1 1313:1 1374:2
1 131:1 246:1 406:1 407:1 541:1 559:1 895:1 1152:1 1225:1 1235:1 1236:1 1292:1 1300:1 1313:1 1334:1 1350:1 1374:3
1 131:1 246:1 300:1 406:1 407:1 460:1 541:1 559:1 621:1 634:1 681:1 701:1 895:1 907:1 978:1 981:1 1152:1 1225:1 1231:1 1235:1 1236:1 1237:1 1239:1 1241:1 1265:1 1292:1 1300:1 1313:1 1329:1 1334:1 1348:1 1350:1 1356:1 1357:1 1374:2
1 701:1 1241:1 1374:3
1 246:1 559:1 634:1 907:1 1292:1 1313:1 1356:1 1357:1 1374:3
1 701:1 1241:1 1374:3
1 131:1 246:1 406:1 407:1 541:1 559:1 895:1 1152:1 1225:1 1235:1 1236:1 1292:1 1300:1 1313:1 1334:1 1350:1 1374:3
1 246:1 559:1 634:1 907:1 1292:1 1313:1 1356:1 1357:1 1374:3
1 1374:3
1 1374:3
1 1374:3
1 246:1 559:1 681:1 907:1 1231:1 1292:1 1313:1 1356:1 1374:2
1 246:1 300:1 406:1 407:1 460:1 559:1 634:1 681:1 701:1 895:1 907:1 981:1 1152:1 1231:1 1235:1 1236:1 1239:1 1241:1 1265:1 1292:1 1313:1 1329:1 1334:1 1350:1 1356:1 1357:1 1374:2
1 246:1 300:1 406:1 407:1 460:1 559:1 621:1 634:1 681:1 701:1 895:1 907:1 981:1 1152:1 1231:1 1235:1 1236:1 1239:1 1241:1 1265:1 1292:1 1313:1 1329:1 1334:1 1348:1 1350:1 1356:1 1357:1 1374:1
1 246:1 559:1 634:1 907:1 1292:1 1313:1 1356:1 1357:1 1374:3
1 246:1 559:1 634:1 907:1 1292:1 1313:1 1356:1 1357:1 1374:3
1 246:1 541:1 559:1 681:1 701:1 907:1 1231:1 1241:1 1292:1 1300:1 1313:1 1356:1 1374:2
1 246:1 559:1 634:1 907:1 1292:1 1313:1 1356:1 1357:1 1374:3
1 131:1 246:1 300:1 406:1 407:1 460:1 541:1 559:1 621:1 634:1 681:1 701:1 895:1 907:1 978:1 981:1 1152:1 1225:1 1231:1 1235:1 1236:1 1237:1 1239:1 1241:1 1265:1 1292:1 1300:1 1313:1 1329:1 1334:1 1348:1 1350:1 1356:1 1357:1 1374:1
1 701:1 1241:1 1374:2
1 246:1 559:1 634:1 907:1 1292:1 1313:1 1356:1 1357:1 1374:3
1 1374:3
1 246:1 559:1 634:1 907:1 1292:1 1313:1 1356:1 1357:1 1374:3
1 246:1 559:1 634:1 907:1 1292:1 1313:1 1356:1 1357:1 1374:3
1 246:1 559:1 634:1 907:1 1292:1 1313:1 1356:1 1357:1 1374:3
1 246:1 559:1 634:1 907:1 1292:1 1313:1 1356:1 1357:1 1374:3
1 246:1 460:1 541:1 559:1 681:1 701:1 907:1 978:1 981:1 1231:1 1237:1 1239:1 1241:1 1265:1 1292:1 1300:1 1313:1 1356:1 1374:4
1 246:1 559:1 634:1 907:1 1292:1 1313:1 1356:1 1357:1 1374:3
1 246:1 559:1 634:1 907:1 1292:1 1313:1 1356:1 1357:1 1374:3
1 701:1 1241:1 1374:3
1 121:1 229:1 536:1 537:1 559:1 574:1 605:1 907:1 970:1 994:1 1214:1 1217:1 1220:1 1221:1 1230:1 1233:1 1238:1 1245:1 1247:1 1255:1 1259:1 1268:1 1271:1 1274:1 1276:1 1280:1 1284:1 1289:1 1293:1 1296:1 1297:1 1313:1 1315:1 1319:1 1323:1 1340:1 1341:1 1342:1 1345:1 1352:1 1355:1 1356:1 1366:1 1374:2 1376:12
1 246:1 559:1 907:1 1292:1 1313:1 1356:1 1374:3
1 246:1 559:1 634:1 907:1 1292:1 1313:1 1356:1 1357:1 1374:3
1 246:1 559:1 634:1 907:1 1292:1 1313:1 1356:1 1357:1 1374:3
1 246:1 559:1 634:1 907:1 1292:1 1313:1 1356:1 1357:1 1374:3
1 131:1 246:1 300:1 406:1 407:1 460:1 541:1 559:1 621:1 634:1 681:1 701:1 895:1 907:1 978:1 981:1 1152:1 1225:1 1231:1 1235:1 1236:1 1237:1 1239:1 1241:1 1265:1 1292:1 1300:1 1313:1 1329:1 1334:1 1348:1 1350:1 1356:1 1357:1 1374:2
1 246:1 559:1 634:1 907:1 1292:1 1313:1 1356:1 1357:1 1374:3
1 246:1 559:1 634:1 907:1 1292:1 1313:1 1356:1 1357:1 1374:3
1 246:1 559:1 634:1 907:1 1292:1 1313:1 1356:1 1357:1 1374:3
1 246:1 559:1 634:1 907:1 1292:1 1313:1 1356:1 1357:1 1374:3
1 131:1 246:1 300:1 406:1 407:1 460:1 541:1 559:1 621:1 634:1 681:1 701:1 895:1 907:1 978:1 981:1 1152:1 1225:1 1231:1 1235:1 1236:1 1237:1 1239:1 1241:1 1265:1 1292:1 1300:1 1313:1 1329:1 1334:1 1348:1 1350:1 1356:1 1357:1 1374:2
1 1374:3
1 246:1 559:1 634:1 907:1 1292:1 1313:1 1356:1 1357:1 1374:3
1 246:1 559:1 634:1 907:1 1292:1 1313:1 1356:1 1357:1 1374:3
1 246:1 559:1 634:1 907:1 1292:1 1313:1 1356:1 1357:1 1374:3
1 1374:3
1 246:1 559:1 634:1 907:1 1292:1 1313:1 1356:1 1357:1 1374:3
1 246:1 559:1 634:1 907:1 1292:1 1313:1 1356:1 1357:1 1374:3
1 246:1 559:1 634:1 907:1 1292:1 1313:1 1356:1 1357:1 1374:3
1 246:1 559:1 634:1 907:1 1292:1 1313:1 1356:1 1357:1 1374:3
1 1374:3
1 246:1 559:1 681:1 907:1 1231:1 1292:1 1313:1 1356:1 1374:2
1 246:1 349:1 365:1 460:1 541:1 559:1 681:1 907:1 978:1 981:1 1231:1 1237:1 1239:1 1265:1 1292:1 1300:1 1313:1 1354:1 1356:1 1370:1 1374:2
1 701:1 1241:1 1374:3
1 246:1 559:1 681:1 907:1 1231:1 1292:1 1313:1 1356:1 1374:2
1 131:1 246:1 300:1 406:1 407:1 460:1 541:1 559:1 621:1 634:1 681:1 701:1 895:1 907:1 978:1 981:1 1152:1 1225:1 1231:1 1235:1 1236:1 1237:1 1239:1 1241:1 1265:1 1292:1 1300:1 1313:1 1329:1 1334:1 1348:1 1350:1 1356:1 1357:1 1374:2
1 246:1 559:1 634:1 907:1 1292:1 1313:1 1356:1 1357:1 1374:3
1 246:1 349:1 406:1 559:1 634:1 681:1 701:1 907:1 978:1 981:1 1231:1 1236:1 1237:1 1239:1 1241:1 1292:1 1313:1 1354:1 1356:1 1357:1 1374:5
1 246:1 559:1 681:1 907:1 1231:1 1292:1 1313:1 1356:1 1374:5
1 131:1 246:1 300:1 407:1 541:1 559:1 634:1 681:1 701:1 895:1 981:1 1225:1 1231:1 1235:1 1239:1 1241:1 1292:1 1300:1 1313:1 1329:1 1350:1 1357:1 1374:2
1 246:1 460:1 541:1 559:1 681:1 701:1 907:1 981:1 1231:1 1239:1 1241:1 1265:1 1292:1 1300:1 1313:1 1356:1 1374:2
1 246:1 559:1 634:1 907:1 1292:1 1313:1 1356:1 1357:1 1374:3
1 1374:3
1 131:1 246:1 300:1 406:1 407:1 460:1 541:1 559:1 621:1 634:1 681:1 701:1 895:1 907:1 978:1 981:1 1152:1 1225:1 1231:1 1235:1 1236:1 1237:1 1239:1 1241:1 1265:1 1292:1 1300:1 1313:1 1329:1 1334:1 1348:1 1350:1 1356:1 1357:1 1374:2
1 246:1 559:1 634:1 907:1 1292:1 1313:1 1356:1 1357:1 1374:3
1 1374:3
1 1374:3
1 246:1 559:1 634:1 907:1 1292:1 1313:1 1356:1 1357:1 1374:3
1 246:1 460:1 541:1 559:1 681:1 701:1 907:1 978:1 1231:1 1237:1 1241:1 1265:1 1292:1 1300:1 1313:1 1356:1 1374:4
1 131:1 246:1 300:1 406:1 407:1 460:1 541:1 559:1 621:1 634:1 681:1 701:1 895:1 907:1 978:1 981:1 1152:1 1225:1 1231:1 1235:1 1236:1 1237:1 1239:1 1241:1 1265:1 1292:1 1300:1 1313:1 1329:1 1334:1 1348:1 1350:1 1356:1 1357:1 1374:2
1 131:1 246:1 541:1 559:1 681:1 981:1 1152:1 1225:1 1231:1 1239:1 1292:1 1300:1 1313:1 1334:1 1374:1
1 246:1 559:1 634:1 907:1 1292:1 1313:1 1356:1 1357:1 1374:3
1 246:1 559:1 634:1 907:1 1292:1 1313:1 1356:1 1357:1 1374:3
1 246:1 559:1 634:1 907:1 1292:1 1313:1 1356:1 1357:1 1374:3
1 246:1 559:1 634:1 907:1 1292:1 1313:1 1356:1 1357:1 1374:3
1 246:1 559:1 634:1 907:1 1292:1 1313:1 1356:1 1357:1 1374:3
1 131:1 246:1 300:1 406:1 407:1 460:1 541:1 559:1 621:1 634:1 681:1 701:1 895:1 907:1 978:1 981:1 1152:1 1225:1 1231:1 1235:1 1236:1 1237:1 1239:1 1241:1 1265:1 1292:1 1300:1 1313:1 1329:1 1334:1 1348:1 1350:1 1356:1 1357:1 1374:2
1 246:1 559:1 634:1 907:1 1292:1 1313:1 1356:1 1357:1 1374:3
1 131:1 246:1 300:1 406:1 407:1 460:1 541:1 559:1 621:1 634:1 681:1 701:1 895:1 907:1 978:1 981:1 1152:1 1225:1 1231:1 1235:1 1236:1 1237:1 1239:1 1241:1 1265:1 1292:1 1300:1 1313:1 1329:1 1334:1 1348:1 1350:1 1356:1 1357:1 1374:2
1 246:1 300:1 406:1 407:1 460:1 559:1 634:1 681:1 701:1 895:1 907:1 981:1 1152:1 1231:1 1235:1 1236:1 1239:1 1241:1 1265:1 1292:1 1313:1 1329:1 1334:1 1350:1 1356:1 1357:1 1374:2
1 246:1 559:1 681:1 907:1 1231:1 1292:1 1313:1 1356:1 1374:2
1 246:1 460:1 541:1 559:1 681:1 701:1 907:1 978:1 981:1 1231:1 1237:1 1239:1 1241:1 1265:1 1292:1 1300:1 1313:1 1356:1 1374:2
1 246:1 559:1 681:1 907:1 1231:1 1292:1 1313:1 1356:1 1374:2
1 246:1 559:1 681:1 907:1 1231:1 1292:1 1313:1 1356:1 1374:3
1 246:1 365:1 460:1 541:1 559:1 681:1 978:1 1231:1 1237:1 1265:1 1292:1 1300:1 1313:1 1370:1 1374:2
1 1374:3
1 246:1 559:1 634:1 907:1 1292:1 1313:1 1356:1 1357:1 1374:3
1 246:1 559:1 681:1 1231:1 1292:1 1313:1 1374:2
1 246:1 559:1 681:1 907:1 1231:1 1292:1 1313:1 1356:1 1374:5
1 246:1 559:1 634:1 907:1 1292:1 1313:1 1356:1 1357:1 1374:3
1 131:1 246:1 300:1 406:1 407:1 541:1 559:1 681:1 895:1 978:1 981:1 1152:1 1225:1 1231:1 1235:1 1236:1 1237:1 1239:1 1292:1 1300:1 1313:1 1329:1 1334:1 1350:1 1374:2
1 131:1 559:1 621:1 681:1 907:1 981:1 1225:1 1231:1 1239:1 1313:1 1348:1 1356:1 1374:1
1 246:1 559:1 634:1 907:1 1292:1 1313:1 1356:1 1357:1 1374:3
1 246:1 460:1 541:1 559:1 681:1 907:1 981:1 1231:1 1239:1 1265:1 1292:1 1300:1 1313:1 1356:1 1374:4
1 246:1 559:1 634:1 907:1 1292:1 1313:1 1356:1 1357:1 1374:3
1 246:1 559:1 634:1 907:1 1292:1 1313:1 1356:1 1357:1 1374:3
1 246:1 559:1 634:1 907:1 1292:1 1313:1 1356:1 1357:1 1374:3
1 246:1 559:1 681:1 907:1 1231:1 1292:1 1313:1 1356:1 1374:3
1 246:1 300:1 406:1 407:1 460:1 559:1 634:1 681:1 701:1 895:1 907:1 981:1 1152:1 1231:1 1235:1 1236:1 1239:1 1241:1 1265:1 1292:1 1313:1 1329:1 1334:1 1350:1 1356:1 1357:1 1374:2
1 246:1 559:1 681:1 907:1 1231:1 1292:1 1313:1 1356:1 1374:3
1 246:1 559:1 634:1 907:1 1292:1 1313:1 1356:1 1357:1 1374:3
1 131:1 246:1 406:1 407:1 541:1 559:1 895:1 1152:1 1225:1 1235:1 1236:1 1292:1 1300:1 1313:1 1334:1 1350:1 1374:3
1 131:1 246:1 349:1 498:1 541:1 559:1 681:1 755:1 837:1 907:1 978:1 1225:1 1231:1 1237:1 1266:1 1281:1 1292:1 1300:1 1302:1 1313:1 1354:1 1356:1 1374:3
1 131:1 246:1 300:1 406:1 407:1 460:1 541:1 559:1 621:1 634:1 681:1 701:1 895:1 907:1 978:1 981:1 1152:1 1225:1 1231:1 1235:1 1236:1 1237:1 1239:1 1241:1 1265:1 1292:1 1300:1 1313:1 1329:1 1334:1 1348:1 1350:1 1356:1 1357:1 1374:2
1 131:1 559:1 621:1 681:1 907:1 981:1 1225:1 1231:1 1239:1 1313:1 1348:1 1356:1 1374:2
1 246:1 559:1 634:1 907:1 1292:1 1313:1 1356:1 1357:1 1374:3
1 246:1 559:1 634:1 907:1 1292:1 1313:1 1356:1 1357:1 1374:3
1 1374:3
1 246:1 559:1 634:1 907:1 1292:1 1313:1 1356:1 1357:1 1374:3
1 246:1 460:1 541:1 559:1 681:1 907:1 981:1 1231:1 1239:1 1265:1 1292:1 1300:1 1313:1 1356:1 1374:2
1 131:1 246:1 300:1 406:1 407:1 460:1 541:1 559:1 621:1 634:1 681:1 701:1 895:1 907:1 978:1 981:1 1152:1 1225:1 1231:1 1235:1 1236:1 1237:1 1239:1 1241:1 1265:1 1292:1 1300:1 1313:1 1329:1 1334:1 1348:1 1350:1 1356:1 1357:1 1374:2
1 246:1 559:1 634:1 907:1 1292:1 1313:1 1356:1 1357:1 1374:3
1 246:1 460:1 541:1 559:1 681:1 701:1 907:1 978:1 1231:1 1237:1 1241:1 1265:1 1292:1 1300:1 1313:1 1356:1 1374:4
1 246:1 559:1 634:1 907:1 1292:1 1313:1 1356:1 1357:1 1374:3
1 131:1 246:1 300:1 407:1 541:1 559:1 634:1 681:1 701:1 895:1 981:1 1225:1 1231:1 1235:1 1239:1 1241:1 1292:1 1300:1 1313:1 1329:1 1350:1 1357:1 1374:2
1 246:1 559:1 634:1 907:1 1292:1 1313:1 1356:1 1357:1 1374:3
1 246:1 559:1 681:1 907:1 1231:1 1292:1 1313:1 1356:1 1374:6
1 246:1 460:1 541:1 559:1 681:1 701:1 907:1 978:1 1231:1 1237:1 1241:1 1265:1 1292:1 1300:1 1313:1 1356:1 1374:4
1 246:1 460:1 541:1 559:1 681:1 701:1 907:1 978:1 981:1 1231:1 1237:1 1239:1 1241:1 1265:1 1292:1 1300:1 1313:1 1356:1 1374:2
1 246:1 559:1 634:1 907:1 1292:1 1313:1 1356:1 1357:1 1374:3
1 246:1 559:1 634:1 907:1 1292:1 1313:1 1356:1 1357:1 1374:3
1 246:1 559:1 634:1 907:1 1292:1 1313:1 1356:1 1357:1 1374:3
1 246:1 541:1 559:1 681:1 907:1 1231:1 1292:1 1300:1 1313:1 1356:1 1374:3
1 701:1 1241:1 1374:3
1 246:1 559:1 634:1 907:1 1292:1 1313:1 1356:1 1357:1 1374:3
1 246:1 559:1 634:1 907:1 1292:1 1313:1 1356:1 1357:1 1374:3
1 246:1 559:1 1292:1 1313:1 1374:2
1 246:1 559:1 634:1 907:1 1292:1 1313:1 1356:1 1357:1 1374:3
1 246:1 559:1 634:1 907:1 1292:1 1313:1 1356:1 1357:1 1374:3
1 246:1 300:1 406:1 407:1 460:1 559:1 634:1 681:1 701:1 895:1 907:1 981:1 1152:1 1231:1 1235:1 1236:1 1239:1 1241:1 1265:1 1292:1 1313:1 1329:1 1334:1 1350:1 1356:1 1357:1 1374:2
1 246:1 559:1 634:1 907:1 1292:1 1313:1 1356:1 1357:1 1374:3
1 246:1 406:1 407:1 559:1 681:1 701:1 895:1 907:1 981:1 1231:1 1235:1 1236:1 1239:1 1241:1 1292:1 1313:1 1350:1 1356:1 1374:1
1 246:2 349:1 511:1 541:1 559:2 681:1 1231:1 1286:1 1292:2 1300:1 1313:2 1354:1 1374:9 1376:1
1 246:1 559:1 907:1 1292:1 1313:1 1356:1 1374:3
1 246:1 349:1 406:1 559:1 634:1 681:1 701:1 907:1 978:1 981:1 1231:1 1236:1 1237:1 1239:1 1241:1 1292:1 1313:1 1354:1 1356:1 1357:1 1374:5
1 246:1 300:1 406:1 407:1 460:1 559:1 634:1 681:1 701:1 895:1 907:1 981:1 1152:1 1231:1 1235:1 1236:1 1239:1 1241:1 1265:1 1292:1 1313:1 1329:1 1334:1 1350:1 1356:1 1357:1 1374:2
1 246:1 460:1 541:1 559:1 681:1 701:1 907:1 1231:1 1241:1 1265:1 1292:1 1300:1 1313:1 1356:1 1374:6
1 246:1 365:1 460:1 541:1 559:1 681:1 978:1 1231:1 1237:1 1265:1 1292:1 1300:1 1313:1 1370:1 1374:2
1 701:1 1241:1 1374:3
1 246:1 559:1 634:1 907:1 1292:1 1313:1 1356:1 1357:1 1374:3
1 1374:2
1 246:1 300:1 406:1 407:1 460:1 559:1 634:1 681:1 701:1 895:1 907:1 981:1 1152:1 1231:1 1235:1 1236:1 1239:1 1241:1 1265:1 1292:1 1313:1 1329:1 1334:1 1350:1 1356:1 1357:1 1374:2
1 246:1 559:1 907:1 1292:1 1313:1 1356:1 1374:3
1 246:1 559:1 634:1 907:1 1292:1 1313:1 1356:1 1357:1 1374:3
1 246:1 559:1 634:1 907:1 1292:1 1313:1 1356:1 1357:1 1374:3
1 246:1 559:1 634:1 907:1 1292:1 1313:1 1356:1 1357:1 1374:3
1 246:1 559:1 1292:1 1313:1 1374:2
1 246:1 559:1 634:1 907:1 1292:1 1313:1 1356:1 1357:1 1374:3
1 559:1 681:1 907:1 1231:1 1313:1 1356:1 1374:3
1 175:1 246:1 349:1 460:1 486:1 525:1 541:1 559:1 681:1 699:1 907:1 981:1 1231:1 1239:1 1240:1 1251:1 1261:1 1265:1 1275:1 1292:1 1294:1 1300:1 1313:1 1354:1 1356:1 1374:2 1376:1
1 1374:4
1 246:1 559:1 634:1 907:1 1292:1 1313:1 1356:1 1357:1 1374:3
1 246:1 300:1 406:1 407:1 460:1 559:1 634:1 681:1 701:1 895:1 907:1 981:1 1152:1 1231:1 1235:1 1236:1 1239:1 1241:1 1265:1 1292:1 1313:1 1329:1 1334:1 1350:1 1356:1 1357:1 1374:2
1 246:1 559:1 907:1 1292:1 1313:1 1356:1 1374:3
1 701:1 1241:1 1374:3
1 246:1 559:1 634:1 907:1 1292:1 1313:1 1356:1 1357:1 1374:3
1 246:1 559:1 681:1 907:1 1231:1 1292:1 1313:1 1356:1 1374:2
1 246:1 559:1 634:1 907:1 1292:1 1313:1 1356:1 1357:1 1374:3
1 246:1 559:1 634:1 907:1 1292:1 1313:1 1356:1 1357:1 1374:3
1 131:1 246:1 300:1 406:1 407:1 460:1 541:1 559:1 621:1 634:1 681:1 701:1 895:1 907:1 978:1 981:1 1152:1 1225:1 1231:1 1235:1 1236:1 1237:1 1239:1 1241:1 1265:1 1292:1 1300:1 1313:1 1329:1 1334:1 1348:1 1350:1 1356:1 1357:1 1374:2
1 246:1 559:1 634:1 907:1 1292:1 1313:1 1356:1 1357:1 1374:3
1 246:1 559:1 681:1 907:1 1231:1 1292:1 1313:1 1356:1 1374:6
1 246:1 559:1 634:1 907:1 1292:1 1313:1 1356:1 1357:1 1374:3
1 246:1 559:1 634:1 907:1 1292:1 1313:1 1356:1 1357:1 1374:3
1 246:1 559:1 634:1 907:1 1292:1 1313:1 1356:1 1357:1 1374:3
1 246:1 559:1 634:1 907:1 1292:1 1313:1 1356:1 1357:1 1374:3
1 246:1 559:1 907:1 1292:1 1313:1 1356:1 1374:2
1 131:1 246:1 406:1 407:1 541:1 559:1 895:1 1152:1 1225:1 1235:1 1236:1 1292:1 1300:1 1313:1 1334:1 1350:1 1374:3
1 246:1 460:1 541:1 559:1 681:1 701:1 907:1 978:1 981:1 1231:1 1237:1 1239:1 1241:1 1265:1 1292:1 1300:1 1313:1 1356:1 1374:4
1 246:1 300:1 406:1 407:1 460:1 559:1 634:1 681:1 701:1 895:1 907:1 981:1 1152:1 1231:1 1235:1 1236:1 1239:1 1241:1 1265:1 1292:1 1313:1 1329:1 1334:1 1350:1 1356:1 1357:1 1374:2
1 246:1 365:1 460:1 541:1 559:1 681:1 701:1 907:1 978:1 981:1 1231:1 1237:1 1239:1 1241:1 1265:1 1292:1 1300:1 1313:1 1356:1 1370:1 1374:2
1 246:1 300:1 406:1 407:1 460:1 559:1 621:1 634:1 681:1 701:1 895:1 907:1 981:1 1152:1 1231:1 1235:1 1236:1 1239:1 1241:1 1265:1 1292:1 1313:1 1329:1 1334:1 1348:1 1350:1 1356:1 1357:1 1374:1
1 246:1 559:1 1292:1 1313:1 1374:2
1 246:1 559:1 634:1 907:1 1292:1 1313:1 1356:1 1357:1 1374:3
1 131:1 246:1 300:1 406:1 407:1 460:1 541:1 559:1 621:1 634:1 681:1 701:1 895:1 907:1 978:1 981:1 1152:1 1225:1 1231:1 1235:1 1236:1 1237:1 1239:1 1241:1 1265:1 1292:1 1300:1 1313:1 1329:1 1334:1 1348:1 1350:1 1356:1 1357:1 1374:2
1 131:1 246:1 300:1 406:1 407:1 460:1 541:1 559:1 621:1 634:1 681:1 701:1 895:1 907:1 978:1 981:1 1152:1 1225:1 1231:1 1235:1 1236:1 1237:1 1239:1 1241:1 1265:1 1292:1 1300:1 1313:1 1329:1 1334:1 1348:1 1350:1 1356:1 1357:1 1374:2
1 246:1 559:1 634:1 907:1 1292:1 1313:1 1356:1 1357:1 1374:3
1 246:1 300:1 406:1 407:1 460:1 559:1 634:1 681:1 701:1 895:1 907:1 981:1 1152:1 1231:1 1235:1 1236:1 1239:1 1241:1 1265:1 1292:1 1313:1 1329:1 1334:1 1350:1 1356:1 1357:1 1374:2
1 246:1 559:1 634:1 907:1 1292:1 1313:1 1356:1 1357:1 1374:3
1 246:1 559:1 634:1 907:1 1292:1 1313:1 1356:1 1357:1 1374:3
1 246:1 559:1 907:1 1292:1 1313:1 1356:1 1374:4 1376:71
1 246:1 559:1 634:1 907:1 1292:1 1313:1 1356:1 1357:1 1374:3
1 246:1 559:1 634:1 907:1 1292:1 1313:1 1356:1 1357:1 1374:3
1 131:1 246:1 300:1 406:1 407:1 460:1 541:1 559:1 621:1 634:1 681:1 701:1 895:1 907:1 978:1 981:1 1152:1 1225:1 1231:1 1235:1 1236:1 1237:1 1239:1 1241:1 1265:1 1292:1 1300:1 1313:1 1329:1 1334:1 1348:1 1350:1 1356:1 1357:1 1374:2
1 131:1 246:1 300:1 406:1 407:1 460:1 541:1 559:1 621:1 634:1 681:1 701:1 895:1 907:1 978:1 981:1 1152:1 1225:1 1231:1 1235:1 1236:1 1237:1 1239:1 1241:1 1265:1 1292:1 1300:1 1313:1 1329:1 1334:1 1348:1 1350:1 1356:1 1357:1 1374:1
1 131:1 246:1 406:1 407:1 541:1 559:1 895:1 1152:1 1225:1 1235:1 1236:1 1292:1 1300:1 1313:1 1334:1 1350:1 1374:3
1 1374:3
1 246:1 559:1 621:1 681:1 701:1 907:1 978:1 1231:1 1237:1 1241:1 1292:1 1313:1 1348:1 1356:1 1374:1
1 131:1 246:1 300:1 406:1 407:1 460:1 541:1 559:1 621:1 634:1 681:1 701:1 895:1 907:1 978:1 981:1 1152:1 1225:1 1231:1 1235:1 1236:1 1237:1 1239:1 1241:1 1265:1 1292:1 1300:1 1313:1 1329:1 1334:1 1348:1 1350:1 1356:1 1357:1 1374:2
1 246:1 559:1 634:1 907:1 1292:1 1313:1 1356:1 1357:1 1374:3
1 246:1 559:1 634:1 907:1 1292:1 1313:1 1356:1 1357:1 1374:3
1 131:1 246:1 300:1 406:1 407:1 460:1 541:1 559:1 621:1 634:1 681:1 701:1 895:1 907:1 978:1 981:1 1152:1 1225:1 1231:1 1235:1 1236:1 1237:1 1239:1 1241:1 1265:1 1292:1 1300:1 1313:1 1329:1 1334:1 1348:1 1350:1 1356:1 1357:1 1374:2
1 246:1 559:1 1292:1 1313:1 1374:2
1 246:1 300:1 406:1 460:1 559:1 634:1 681:1 701:1 1231:1 1236:1 1241:1 1265:1 1292:1 1313:1 1329:1 1357:1 1374:2
1 246:1 559:1 634:1 907:1 1292:1 1313:1 1356:1 1357:1 1374:3
1 131:1 559:1 621:1 681:1 907:1 981:1 1225:1 1231:1 1239:1 1313:1 1348:1 1356:1 1374:2
1 246:1 559:1 634:1 907:1 1292:1 1313:1 1356:1 1357:1 1374:3
1 246:1 559:1 634:1 907:1 1292:1 1313:1 1356:1 1357:1 1374:3
1 246:1 559:1 634:1 907:1 1292:1 1313:1 1356:1 1357:1 1374:3
1 246:1 559:1 634:1 907:1 1292:1 1313:1 1356:1 1357:1 1374:3
1 246:1 300:1 406:1 407:1 460:1 559:1 634:1 681:1 701:1 895:1 907:1 981:1 1152:1 1231:1 1235:1 1236:1 1239:1 1241:1 1265:1 1292:1 1313:1 1329:1 1334:1 1350:1 1356:1 1357:1 1374:2
1 246:1 559:1 634:1 907:1 1292:1 1313:1 1356:1 1357:1 1374:3
1 131:1 246:1 406:1 407:1 541:1 559:1 895:1 1152:1 1225:1 1235:1 1236:1 1292:1 1300:1 1313:1 1334:1 1350:1 1374:3
1 246:1 559:1 634:1 907:1 1292:1 1313:1 1356:1 1357:1 1374:3
1 246:1 559:1 634:1 907:1 1292:1 1313:1 1356:1 1357:1 1374:3
1 246:1 559:1 634:1 907:1 1292:1 1313:1 1356:1 1357:1 1374:3
1 246:1 300:1 406:1 407:1 460:1 559:1 634:1 681:1 701:1 895:1 907:1 981:1 1152:1 1231:1 1235:1 1236:1 1239:1 1241:1 1265:1 1292:1 1313:1 1329:1 1334:1 1350:1 1356:1 1357:1 1374:1
1 246:1 460:1 541:1 559:1 681:1 907:1 1231:1 1265:1 1292:1 1300:1 1313:1 1356:1 1374:2
1 246:1 349:1 541:1 559:1 634:1 656:1 681:1 701:1 907:1 978:1 1231:1 1237:1 1241:1 1252:1 1292:1 1300:1 1313:1 1354:1 1356:1 1357:1 1373:1 1374:4 1376:1
1 246:1 559:1 681:1 907:1 1231:1 1292:1 1313:1 1356:1 1374:6
1 246:1 460:1 541:1 559:1 681:1 701:1 907:1 978:1 981:1 1231:1 1237:1 1239:1 1241:1 1265:1 1292:1 1300:1 1313:1 1356:1 1374:2
1 246:1 559:1 681:1 907:1 1231:1 1292:1 1313:1 1356:1 1374:2
1 246:1 559:1 634:1 907:1 1292:1 1313:1 1356:1 1357:1 1374:3
1 246:1 559:1 681:1 1231:1 1292:1 1313:1 1374:2
1 1374:4
1 701:1 1241:1 1374:3
1 246:1 559:1 1292:1 1313:1 1374:2
1 1374:3
1 246:1 559:1 634:1 907:1 1292:1 1313:1 1356:1 1357:1 1374:3
1 246:1 559:1 634:1 907:1 1292:1 1313:1 1356:1 1357:1 1374:3
1 1374:3
1 246:1 559:1 681:1 907:1 1231:1 1292:1 1313:1 1356:1 1374:5
1 701:1 1241:1 1374:3
1 246:1 559:1 634:1 907:1 1292:1 1313:1 1356:1 1357:1 1374:3
1 131:1 246:1 406:1 541:1 559:1 681:1 837:1 907:1 981:1 1225:1 1231:1 1236:1 1239:1 1292:1 1300:1 1302:1 1313:1 1356:1 1374:3 1376:14
1 246:1 559:1 634:1 907:1 1292:1 1313:1 1356:1 1357:1 1374:3
1 701:1 1241:1 1374:3
1 701:1 1241:1 1374:3
1 246:1 559:1 634:1 907:1 1292:1 1313:1 1356:1 1357:1 1374:3
1 246:1 460:1 541:1 559:1 681:1 701:1 907:1 981:1 1231:1 1239:1 1241:1 1265:1 1292:1 1300:1 1313:1 1356:1 1374:2
1 1374:3
1 131:1 246:1 300:1 406:1 407:1 460:1 541:1 559:1 621:1 634:1 681:1 701:1 895:1 907:1 978:1 981:1 1152:1 1225:1 1231:1 1235:1 1236:1 1237:1 1239:1 1241:1 1265:1 1292:1 1300:1 1313:1 1329:1 1334:1 1348:1 1350:1 1356:1 1357:1 1374:2
1 246:1 559:1 634:1 907:1 1292:1 1313:1 1356:1 1357:1 1374:2
1 246:1 559:1 1292:1 1313:1 1374:2
1 246:1 559:1 634:1 907:1 1292:1 1313:1 1356:1 1357:1 1374:3
1 246:1 559:1 634:1 907:1 1292:1 1313:1 1356:1 1357:1 1374:3
1 1374:3
1 246:1 300:1 406:1 407:1 460:1 559:1 634:1 681:1 701:1 895:1 907:1 981:1 1152:1 1231:1 1235:1 1236:1 1239:1 1241:1 1265:1 1292:1 1313:1 1329:1 1334:1 1350:1 1356:1 1357:1 1374:2
1 131:1 246:1 300:1 406:1 407:1 460:1 541:1 559:1 621:1 634:1 681:1 701:1 895:1 907:1 978:1 981:1 1152:1 1225:1 1231:1 1235:1 1236:1 1237:1 1239:1 1241:1 1265:1 1292:1 1300:1 1313:1 1329:1 1334:1 1348:1 1350:1 1356:1 1357:1 1374:2
1 246:1 559:1 634:1 907:1 1292:1 1313:1 1356:1 1357:1 1374:3
1 246:1 559:1 634:1 907:1 1292:1 1313:1 1356:1 1357:1 1374:3
1 246:1 559:1 634:1 907:1 1292:1 1313:1 1356:1 1357:1 1374:3
1 131:1 246:1 300:1 407:1 541:1 559:1 634:1 681:1 701:1 895:1 981:1 1225:1 1231:1 1235:1 1239:1 1241:1 1292:1 1300:1 1313:1 1329:1 1350:1 1357:1 1374:2
1 246:1 559:1 634:1 907:1 1292:1 1313:1 1356:1 1357:1 1374:3
1 246:1 559:1 634:1 907:1 1292:1 1313:1 1356:1 1357:1 1374:3
1 246:1 559:1 634:1 907:1 1292:1 1313:1 1356:1 1357:1 1374:3
1 246:1 559:1 1292:1 1313:1 1374:2
1 246:1 559:1 634:1 907:1 1292:1 1313:1 1356:1 1357:1 1374:3
1 246:1 460:1 541:1 559:1 681:1 907:1 1231:1 1265:1 1292:1 1300:1 1313:1 1356:1 1374:2
1 681:1 1231:1 1374:3
1 246:1 559:1 634:1 907:1 1292:1 1313:1 1356:1 1357:1 1374:3
1 246:1 559:1 634:1 907:1 1292:1 1313:1 1356:1 1357:1 1374:3
1 246:1 559:1 681:1 907:1 1231:1 1292:1 1313:1 1356:1 1374:3
1 131:1 559:1 621:1 681:1 907:1 981:1 1225:1 1231:1 1239:1 1313:1 1348:1 1356:1 1374:2
1 131:1 246:2 406:3 559:4 681:2 701:1 907:1 981:2 1225:1 1231:2 1236:3 1239:2 1241:1 1292:2 1313:4 1356:1 1374:7
1 701:1 1241:1 1374:3
1 246:1 559:1 634:1 907:1 1292:1 1313:1 1356:1 1357:1 1374:3
1 246:1 559:1 634:1 907:1 1292:1 1313:1 1356:1 1357:1 1374:3
1 246:1 559:1 634:1 907:1 1292:1 1313:1 1356:1 1357:1 1374:3
1 246:1 559:1 634:1 907:1 1292:1 1313:1 1356:1 1357:1 1374:3
1 131:1 246:1 300:1 406:1 407:1 460:1 541:1 559:1 621:1 634:1 681:1 701:1 895:1 907:1 978:1 981:1 1152:1 1225:1 1231:1 1235:1 1236:1 1237:1 1239:1 1241:1 1265:1 1292:1 1300:1 1313:1 1329:1 1334:1 1348:1 1350:1 1356:1 1357:1 1374:2
1 246:1 559:1 634:1 907:1 1292:1 1313:1 1356:1 1357:1 1374:3
1 246:1 559:1 634:1 907:1 1292:1 1313:1 1356:1 1357:1 1374:3
1 131:1 246:1 300:1 406:1 407:1 460:1 541:1 559:1 621:1 634:1 681:1 701:1 895:1 907:1 978:1 981:1 1152:1 1225:1 1231:1 1235:1 1236:1 1237:1 1239:1 1241:1 1265:1 1292:1 1300:1 1313:1 1329:1 1334:1 1348:1 1350:1 1356:1 1357:1 1374:2
1 131:1 246:1 300:1 406:1 407:1 460:1 541:1 559:1 621:1 634:1 681:1 701:1 895:1 907:1 978:1 981:1 1152:1 1225:1 1231:1 1235:1 1236:1 1237:1 1239:1 1241:1 1265:1 1292:1 1300:1 1313:1 1329:1 1334:1 1348:1 1350:1 1356:1 1357:1 1374:2
1 246:1 559:1 681:1 907:1 1231:1 1292:1 1313:1 1356:1 1374:3
1 246:1 559:1 634:1 907:1 1292:1 1313:1 1356:1 1357:1 1374:3
1 131:1 559:1 621:1 681:1 907:1 981:1 1225:1 1231:1 1239:1 1313:1 1348:1 1356:1 1374:2
1 246:1 300:1 406:1 407:1 460:1 559:1 634:1 681:1 701:1 895:1 907:1 981:1 1152:1 1231:1 1235:1 1236:1 1239:1 1241:1 1265:1 1292:1 1313:1 1329:1 1334:1 1350:1 1356:1 1357:1 1374:2
1 246:1 559:1 634:1 907:1 1292:1 1313:1 1356:1 1357:1 1374:3
1 1374:3
1 246:1 559:1 634:1 907:1 1292:1 1313:1 1356:1 1357:1 1374:3
1 246:1 559:1 634:1 907:1 1292:1 1313:1 1356:1 1357:1 1374:3
1 131:1 246:1 300:1 406:1 407:1 460:1 541:1 559:1 621:1 634:1 681:1 701:1 895:1 907:1 978:1 981:1 1152:1 1225:1 1231:1 1235:1 1236:1 1237:1 1239:1 1241:1 1265:1 1292:1 1300:1 1313:1 1329:1 1334:1 1348:1 1350:1 1356:1 1357:1 1374:2
1 246:1 349:1 406:1 559:1 634:1 681:1 701:1 907:1 978:1 981:1 1231:1 1236:1 1237:1 1239:1 1241:1 1292:1 1313:1 1354:1 1356:1 1357:1 1374:5
1 246:1 559:1 634:1 907:1 1292:1 1313:1 1356:1 1357:1 1374:3
1 246:1 559:1 634:1 907:1 1292:1 1313:1 1356:1 1357:1 1374:3
1 559:1 681:1 907:1 1231:1 1313:1 1356:1 1374:3
1 131:1 246:1 300:1 406:1 407:1 460:1 541:1 559:1 621:1 634:1 681:1 701:1 895:1 907:1 978:1 981:1 1152:1 1225:1 1231:1 1235:1 1236:1 1237:1 1239:1 1241:1 1265:1 1292:1 1300:1 1313:1 1329:1 1334:1 1348:1 1350:1 1356:1 1357:1 1374:2
1 246:1 559:1 634:1 907:1 1292:1 1313:1 1356:1 1357:1 1374:3
1 246:1 559:1 634:1 907:1 1292:1 1313:1 1356:1 1357:1 1374:3
1 246:1 349:1 460:1 541:1 559:1 681:1 907:1 1231:1 1265:1 1292:1 1300:1 1313:1 1354:1 1356:1 1374:2
1 246:1 559:1 634:1 907:1 1292:1 1313:1 1356:1 1357:1 1374:3
1 131:1 246:1 406:1 407:1 541:1 559:1 895:1 1152:1 1225:1 1235:1 1236:1 1292:1 1300:1 1313:1 1334:1 1350:1 1374:3
1 701:1 1241:1 1374:2
1 131:1 559:1 621:1 681:1 907:1 981:1 1225:1 1231:1 1239:1 1313:1 1348:1 1356:1 1374:2
1 246:1 460:1 541:1 559:1 681:1 701:1 907:1 978:1 981:1 1231:1 1237:1 1239:1 1241:1 1265:1 1292:1 1300:1 1313:1 1356:1 1374:2
1 131:1 246:1 300:1 406:1 407:1 460:1 541:1 559:1 621:1 634:1 681:1 701:1 895:1 907:1 978:1 981:1 1152:1 1225:1 1231:1 1235:1 1236:1 1237:1 1239:1 1241:1 1265:1 1292:1 1300:1 1313:1 1329:1 1334:1 1348:1 1350:1 1356:1 1357:1 1374:2
1 701:1 1241:1 1374:3
1 246:1 559:1 634:1 907:1 1292:1 1313:1 1356:1 1357:1 1374:3
1 229:1 246:1 460:1 498:1 559:1 699:1 741:1 907:1 978:1 981:1 1207:1 1237:1 1239:1 1240:1 1253:1 1258:1 1265:1 1280:1 1281:1 1292:1 1313:1 1356:1 1369:1 1374:4
1 246:1 559:1 634:1 907:1 1292:1 1313:1 1356:1 1357:1 1374:3
1 131:1 559:1 621:1 681:1 907:1 981:1 1225:1 1231:1 1239:1 1313:1 1348:1 1356:1 1374:2
1 1374:2
1 246:1 559:1 634:1 907:1 1292:1 1313:1 1356:1 1357:1 1374:3
1 246:1 559:1 634:1 907:1 1292:1 1313:1 1356:1 1357:1 1374:3
1 246:1 559:1 634:1 907:1 1292:1 1313:1 1356:1 1357:1 1374:3
1 246:1 300:1 406:1 407:1 460:1 559:1 634:1 681:1 701:1 895:1 907:1 981:1 1152:1 1231:1 1235:1 1236:1 1239:1 1241:1 1265:1 1292:1 1313:1 1329:1 1334:1 1350:1 1356:1 1357:1 1374:2
1 131:1 246:1 300:1 406:1 407:1 460:1 541:1 559:1 621:1 634:1 681:1 701:1 895:1 907:1 978:1 981:1 1152:1 1225:1 1231:1 1235:1 1236:1 1237:1 1239:1 1241:1 1265:1 1292:1 1300:1 1313:1 1329:1 1334:1 1348:1 1350:1 1356:1 1357:1 1374:2
1 246:1 349:1 541:1 559:1 681:1 907:1 1231:1 1292:1 1300:1 1313:1 1354:1 1356:1 1374:4
1 1374:3
1 246:1 460:1 541:1 559:1 681:1 701:1 907:1 978:1 981:1 1231:1 1237:1 1239:1 1241:1 1265:1 1292:1 1300:1 1313:1 1356:1 1374:2
1 131:1 559:1 621:1 681:1 907:1 981:1 1225:1 1231:1 1239:1 1313:1 1348:1 1356:1 1374:2
1 246:1 559:1 634:1 907:1 1292:1 1313:1 1356:1 1357:1 1374:3
1 246:1 559:1 634:1 907:1 1292:1 1313:1 1356:1 1357:1 1374:3
1 246:1 559:1 634:1 907:1 1292:1 1313:1 1356:1 1357:1 1374:3
1 246:1 559:1 1292:1 1313:1 1374:2
1 246:1 559:1 634:1 907:1 1292:1 1313:1 1356:1 1357:1 1374:3
1 701:1 1241:1 1374:3
1 131:1 246:1 300:1 406:1 407:1 460:1 541:1 559:1 621:1 634:1 681:1 701:1 895:1 907:1 978:1 981:1 1152:1 1225:1 1231:1 1235:1 1236:1 1237:1 1239:1 1241:1 1265:1 1292:1 1300:1 1313:1 1329:1 1334:1 1348:1 1350:1 1356:1 1357:1 1374:2
1 246:1 559:1 681:1 907:1 1231:1 1292:1 1313:1 1356:1 1374:6
1 246:1 300:1 406:1 407:1 460:1 559:1 634:1 681:1 701:1 895:1 907:1 981:1 1152:1 1231:1 1235:1 1236:1 1239:1 1241:1 1265:1 1292:1 1313:1 1329:1 1334:1 1350:1 1356:1 1357:1 1374:2
1 246:1 559:1 1292:1 1313:1 1374:2
1 246:1 559:1 681:1 907:1 1231:1 1292:1 1313:1 1356:1 1374:2
1 246:1 349:1 541:1 559:1 681:1 741:1 907:1 1231:1 1258:1 1292:1 1300:1 1313:1 1354:1 1356:1 1374:3 1376:1
1 701:1 1241:1 1374:3
1 1374:3
1 246:1 559:1 634:1 907:1 1292:1 1313:1 1356:1 1357:1 1374:3
1 131:1 246:1 300:1 406:1 407:1 460:1 541:1 559:1 621:1 634:1 681:1 701:1 895:1 907:1 978:1 981:1 1152:1 1225:1 1231:1 1235:1 1236:1 1237:1 1239:1 1241:1 1265:1 1292:1 1300:1 1313:1 1329:1 1334:1 1348:1 1350:1 1356:1 1357:1 1374:2
1 131:1 246:1 300:1 406:1 407:1 460:1 541:1 559:1 621:1 634:1 681:1 701:1 895:1 907:1 978:1 981:1 1152:1 1225:1 1231:1 1235:1 1236:1 1237:1 1239:1 1241:1 1265:1 1292:1 1300:1 1313:1 1329:1 1334:1 1348:1 1350:1 1356:1 1357:1 1374:2
1 126:1 246:1 460:1 541:1 559:1 596:1 621:1 681:1 701:1 907:1 1158:1 1214:1 1222:1 1231:1 1241:1 1255:1 1257:1 1265:1 1285:1 1292:1 1300:1 1304:1 1311:1 1313:1 1337:1 1338:1 1348:1 1356:1 1364:1 1372:1 1374:2 1376:29
1 131:1 246:1 300:1 406:1 407:1 460:1 541:1 559:1 621:1 634:1 681:1 701:1 895:1 907:1 978:1 981:1 1152:1 1225:1 1231:1 1235:1 1236:1 1237:1 1239:1 1241:1 1265:1 1292:1 1300:1 1313:1 1329:1 1334:1 1348:1 1350:1 1356:1 1357:1 1374:2
1 131:1 246:1 300:1 406:1 407:1 460:1 541:1 559:1 621:1 634:1 681:1 701:1 895:1 907:1 978:1 981:1 1152:1 1225:1 1231:1 1235:1 1236:1 1237:1 1239:1 1241:1 1265:1 1292:1 1300:1 1313:1 1329:1 1334:1 1348:1 1350:1 1356:1 1357:1 1374:2
1 246:1 559:1 634:1 907:1 1292:1 1313:1 1356:1 1357:1 1374:3
1 246:1 460:1 541:1 559:1 681:1 701:1 907:1 981:1 1231:1 1239:1 1241:1 1265:1 1292:1 1300:1 1313:1 1356:1 1374:2
1 1374:3
1 246:1 559:1 681:1 907:1 1231:1 1292:1 1313:1 1356:1 1374:2
1 246:1 559:1 634:1 907:1 1292:1 1313:1 1356:1 1357:1 1374:3
1 246:1 559:1 634:1 907:1 1292:1 1313:1 1356:1 1357:1 1374:3
1 131:1 246:1 300:1 406:1 407:1 460:1 541:1 559:1 621:1 634:1 681:1 701:1 895:1 907:1 978:1 981:1 1152:1 1225:1 1231:1 1235:1 1236:1 1237:1 1239:1 1241:1 1265:1 1292:1 1300:1 1313:1 1329:1 1334:1 1348:1 1350:1 1356:1 1357:1 1374:1
1 246:1 460:1 559:1 1265:1 1292:1 1313:1 1374:4
1 246:1 559:1 634:1 907:1 1292:1 1313:1 1356:1 1357:1 1374:3
1 131:1 246:1 300:1 406:1 407:1 460:1 541:1 559:1 621:1 634:1 681:1 701:1 895:1 907:1 978:1 981:1 1152:1 1225:1 1231:1 1235:1 1236:1 1237:1 1239:1 1241:1 1265:1 1292:1 1300:1 1313:1 1329:1 1334:1 1348:1 1350:1 1356:1 1357:1 1374:2
1 131:1 246:1 300:1 406:1 407:1 460:1 541:1 559:1 621:1 634:1 681:1 701:1 895:1 907:1 978:1 981:1 1152:1 1225:1 1231:1 1235:1 1236:1 1237:1 1239:1 1241:1 1265:1 1292:1 1300:1 1313:1 1329:1 1334:1 1348:1 1350:1 1356:1 1357:1 1374:2
1 246:1 559:1 634:1 907:1 1292:1 1313:1 1356:1 1357:1 1374:3
1 131:1 246:1 300:1 406:1 407:1 460:1 541:1 559:1 621:1 634:1 681:1 701:1 895:1 907:1 978:1 981:1 1152:1 1225:1 1231:1 1235:1 1236:1 1237:1 1239:1 1241:1 1265:1 1292:1 1300:1 1313:1 1329:1 1334:1 1348:1 1350:1 1356:1 1357:1 1374:2
1 246:1 559:1 634:1 907:1 1292:1 1313:1 1356:1 1357:1 1374:3
1 701:1 1241:1 1374:3
1 246:1 559:1 634:1 907:1 1292:1 1313:1 1356:1 1357:1 1374:3
1 246:1 300:1 406:1 407:1 460:1 559:1 634:1 681:1 701:1 895:1 907:1 981:1 1152:1 1231:1 1235:1 1236:1 1239:1 1241:1 1265:1 1292:1 1313:1 1329:1 1334:1 1350:1 1356:1 1357:1 1374:1
1 246:1 559:1 634:1 907:1 1292:1 1313:1 1356:1 1357:1 1374:3
1 246:1 559:1 634:1 907:1 1292:1 1313:1 1356:1 1357:1 1374:3
1 246:1 559:1 634:1 907:1 1292:1 1313:1 1356:1 1357:1 1374:3
1 701:1 1241:1 1374:3
1 1374:3
1 246:1 559:1 634:1 907:1 1292:1 1313:1 1356:1 1357:1 1374:3
1 246:1 559:1 634:1 907:1 1292:1 1313:1 1356:1 1357:1 1374:2
1 246:1 559:1 634:1 907:1 1292:1 1313:1 1356:1 1357:1 1374:3
1 246:1 300:1 406:1 407:1 460:1 559:1 634:1 681:1 701:1 895:1 907:1 981:1 1152:1 1231:1 1235:1 1236:1 1239:1 1241:1 1265:1 1292:1 1313:1 1329:1 1334:1 1350:1 1356:1 1357:1 1374:2
1 246:1 559:1 634:1 907:1 1292:1 1313:1 1356:1 1357:1 1374:3
1 246:1 559:1 634:1 907:1 1292:1 1313:1 1356:1 1357:1 1374:3
1 131:1 246:1 406:1 407:1 541:1 559:1 895:1 1152:1 1225:1 1235:1 1236:1 1292:1 1300:1 1313:1 1334:1 1350:1 1374:3
1 246:1 559:1 634:1 907:1 1292:1 1313:1 1356:1 1357:1 1374:3
1 246:1 541:1 559:1 681:1 907:1 1231:1 1292:1 1300:1 1313:1 1356:1 1374:2
1 246:1 559:1 634:1 907:1 1292:1 1313:1 1356:1 1357:1 1374:3
1 246:1 559:1 681:1 907:1 1231:1 1292:1 1313:1 1356:1 1374:2
1 701:1 1241:1 1374:3
1 246:1 559:1 634:1 907:1 1292:1 1313:1 1356:1 1357:1 1374:3
1 246:1 559:1 681:1 701:1 907:1 1231:1 1241:1 1292:1 1313:1 1356:1 1374:2
1 246:1 300:1 406:1 407:1 460:1 559:1 621:1 634:1 681:1 701:1 895:1 907:1 981:1 1152:1 1231:1 1235:1 1236:1 1239:1 1241:1 1265:1 1292:1 1313:1 1329:1 1334:1 1348:1 1350:1 1356:1 1357:1 1374:1
1 246:1 559:1 634:1 907:1 1292:1 1313:1 1356:1 1357:1 1374:3
1 246:1 559:1 681:1 907:1 1231:1 1292:1 1313:1 1356:1 1374:4
1 246:1 559:1 634:1 907:1 1292:1 1313:1 1356:1 1357:1 1374:3
1 131:1 246:1 460:1 486:1 525:1 541:1 559:1 576:1 606:1 621:1 681:1 701:1 837:1 907:1 981:1 1225:1 1231:1 1239:1 1241:1 1265:1 1275:1 1292:1 1294:1 1300:1 1302:1 1313:1 1325:1 1343:1 1348:1 1356:1 1374:3 1376:1
1 246:1 300:1 406:1 407:1 460:1 559:1 634:1 681:1 701:1 895:1 907:1 981:1 1152:1 1231:1 1235:1 1236:1 1239:1 1241:1 1265:1 1292:1 1313:1 1329:1 1334:1 1350:1 1356:1 1357:1 1374:1
1 246:1 460:1 541:1 559:1 681:1 701:1 907:1 978:1 981:1 1231:1 1237:1 1239:1 1241:1 1265:1 1292:1 1300:1 1313:1 1356:1 1374:2
1 246:1 559:1 681:1 907:1 1231:1 1292:1 1313:1 1356:1 1374:3
1 246:1 559:1 634:1 907:1 1292:1 1313:1 1356:1 1357:1 1374:3
1 246:1 559:1 634:1 907:1 1292:1 1313:1 1356:1 1357:1 1374:3
1 246:1 559:1 634:1 907:1 1292:1 1313:1 1356:1 1357:1 1374:3
1 246:1 559:1 681:1 907:1 1231:1 1292:1 1313:1 1356:1 1374:4
1 246:1 559:1 634:1 907:1 1292:1 1313:1 1356:1 1357:1 1374:3
1 246:1 559:1 634:1 907:1 1292:1 1313:1 1356:1 1357:1 1374:3
1 1374:3
1 246:1 559:1 634:1 907:1 1292:1 1313:1 1356:1 1357:1 1374:3
1 1374:3
1 246:1 559:1 681:1 907:1 1231:1 1292:1 1313:1 1356:1 1374:6
1 246:1 559:1 634:1 907:1 1292:1 1313:1 1356:1 1357:1 1374:3
1 1374:3
1 246:1 559:1 634:1 907:1 1292:1 1313:1 1356:1 1357:1 1374:3
1 246:1 559:1 681:1 907:1 1231:1 1292:1 1313:1 1356:1 1374:6
1 246:1 559:1 681:1 701:1 907:1 1231:1 1241:1 1292:1 1313:1 1356:1 1374:3
1 246:1 300:1 406:1 407:1 460:1 559:1 621:1 634:1 681:1 701:1 895:1 907:1 981:1 1152:1 1231:1 1235:1 1236:1 1239:1 1241:1 1265:1 1292:1 1313:1 1329:1 1334:1 1348:1 1350:1 1356:1 1357:1 1374:1
1 246:1 559:1 634:1 907:1 1292:1 1313:1 1356:1 1357:1 1374:3
1 131:1 246:1 300:1 407:1 541:1 559:1 634:1 681:1 701:1 895:1 981:1 1225:1 1231:1 1235:1 1239:1 1241:1 1292:1 1300:1 1313:1 1329:1 1350:1 1357:1 1374:1
1 246:1 559:1 681:1 907:1 1231:1 1292:1 1313:1 1356:1 1374:5
1 246:1 559:1 634:1 907:1 1292:1 1313:1 1356:1 1357:1 1374:3
1 131:1 246:1 300:1 406:1 407:1 460:1 541:1 559:1 621:1 634:1 681:1 701:1 895:1 907:1 978:1 981:1 1152:1 1225:1 1231:1 1235:1 1236:1 1237:1 1239:1 1241:1 1265:1 1292:1 1300:1 1313:1 1329:1 1334:1 1348:1 1350:1 1356:1 1357:1 1374:1
1 1374:4
1 246:1 559:1 634:1 907:1 1292:1 1313:1 1356:1 1357:1 1374:3
1 246:1 559:1 634:1 907:1 1292:1 1313:1 1356:1 1357:1 1374:3
1 246:1 460:1 541:1 559:1 681:1 701:1 907:1 981:1 1231:1 1239:1 1241:1 1265:1 1292:1 1300:1 1313:1 1356:1 1374:2
1 246:1 559:1 634:1 907:1 1292:1 1313:1 1356:1 1357:1 1374:3
1 246:1 559:1 907:1 1292:1 1313:1 1356:1 1374:3
1 246:1 559:1 634:1 907:1 1292:1 1313:1 1356:1 1357:1 1374:3
1 246:1 349:1 406:1 559:1 634:1 681:1 701:1 907:1 978:1 981:1 1231:1 1236:1 1237:1 1239:1 1241:1 1292:1 1313:1 1354:1 1356:1 1357:1 1374:5
1 246:1 559:1 1292:1 1313:1 1374:2
1 246:1 559:1 634:1 907:1 1292:1 1313:1 1356:1 1357:1 1374:3
1 246:1 559:1 681:1 907:1 1231:1 1292:1 1313:1 1356:1 1374:6
1 246:1 559:1 681:1 1231:1 1292:1 1313:1 1374:3
1 131:1 246:1 300:1 406:1 407:1 460:1 541:1 559:1 621:1 634:1 681:1 701:1 895:1 907:1 978:1 981:1 1152:1 1225:1 1231:1 1235:1 1236:1 1237:1 1239:1 1241:1 1265:1 1292:1 1300:1 1313:1 1329:1 1334:1 1348:1 1350:1 1356:1 1357:1 1374:2
1 246:1 460:1 541:1 559:1 681:1 701:1 907:1 978:1 981:1 1231:1 1237:1 1239:1 1241:1 1265:1 1292:1 1300:1 1313:1 1356:1 1374:4
1 701:1 1241:1 1374:3
1 246:1 559:1 634:1 907:1 1292:1 1313:1 1356:1 1357:1 1374:3
1 246:1 559:1 634:1 907:1 1292:1 1313:1 1356:1 1357:1 1374:3
1 246:1 559:1 634:1 907:1 1292:1 1313:1 1356:1 1357:1 1374:3
1 131:1 246:1 300:1 406:1 407:1 460:1 541:1 559:1 621:1 634:1 681:1 701:1 895:1 907:1 978:1 981:1 1152:1 1225:1 1231:1 1235:1 1236:1 1237:1 1239:1 1241:1 1265:1 1292:1 1300:1 1313:1 1329:1 1334:1 1348:1 1350:1 1356:1 1357:1 1374:1
1 246:1 460:1 541:1 559:1 681:1 907:1 1231:1 1265:1 1292:1 1300:1 1313:1 1356:1 1374:2
1 246:1 300:1 406:1 407:1 460:1 559:1 634:1 681:1 701:1 895:1 907:1 981:1 1152:1 1231:1 1235:1 1236:1 1239:1 1241:1 1265:1 1292:1 1313:1 1329:1 1334:1 1350:1 1356:1 1357:1 1374:1
1 382:1 1219:1 1374:3
1 246:1 559:1 634:1 907:1 1292:1 1313:1 1356:1 1357:1 1374:3
1 246:1 559:1 634:1 907:1 1292:1 1313:1 1356:1 1357:1 1374:3
1 246:1 300:1 406:1 407:1 460:1 559:1 634:1 681:1 701:1 895:1 907:1 981:1 1152:1 1231:1 1235:1 1236:1 1239:1 1241:1 1265:1 1292:1 1313:1 1329:1 1334:1 1350:1 1356:1 1357:1 1374:2
1 246:1 559:1 634:1 907:1 1292:1 1313:1 1356:1 1357:1 1374:3
1 246:1 559:1 634:1 907:1 1292:1 1313:1 1356:1 1357:1 1374:3
1 246:1 559:1 634:1 907:1 1292:1 1313:1 1356:1 1357:1 1374:3
1 1374:2
1 246:1 559:1 634:1 907:1 1292:1 1313:1 1356:1 1357:1 1374:3
1 246:1 559:1 634:1 907:1 1292:1 1313:1 1356:1 1357:1 1374:3
1 246:1 559:1 634:1 907:1 1292:1 1313:1 1356:1 1357:1 1374:3
1 246:1 460:1 541:1 559:1 681:1 907:1 981:1 1231:1 1239:1 1265:1 1292:1 1300:1 1313:1 1356:1 1374:2
1 246:1 559:1 634:1 907:1 1292:1 1313:1 1356:1 1357:1 1374:3
1 246:1 559:1 634:1 907:1 1292:1 1313:1 1356:1 1357:1 1374:3
1 246:1 559:1 634:1 907:1 1292:1 1313:1 1356:1 1357:1 1374:3
1 246:1 541:1 559:1 681:1 701:1 907:1 978:1 981:1 1231:1 1237:1 1239:1 1241:1 1292:1 1300:1 1313:1 1356:1 1374:2
1 246:1 559:1 634:1 907:1 1292:1 1313:1 1356:1 1357:1 1374:3
1 246:1 559:1 634:1 907:1 1292:1 1313:1 1356:1 1357:1 1374:3
1 131:1 246:1 300:1 407:1 541:1 559:1 634:1 681:1 701:1 895:1 981:1 1225:1 1231:1 1235:1 1239:1 1241:1 1292:1 1300:1 1313:1 1329:1 1350:1 1357:1 1374:2
1 246:1 460:1 541:1 559:1 681:1 907:1 981:1 1231:1 1239:1 1265:1 1292:1 1300:1 1313:1 1356:1 1374:2
1 1374:3
1 131:1 246:1 406:1 407:1 541:1 559:1 895:1 1152:1 1225:1 1235:1 1236:1 1292:1 1300:1 1313:1 1334:1 1350:1 1374:3
1 246:1 559:1 634:1 907:1 1292:1 1313:1 1356:1 1357:1 1374:3
1 246:1 559:1 634:1 907:1 1292:1 1313:1 1356:1 1357:1 1374:3
1 246:1 559:1 634:1 907:1 1292:1 1313:1 1356:1 1357:1 1374:3
1 701:1 1241:1 1374:3
1 246:1 559:1 634:1 907:1 1292:1 1313:1 1356:1 1357:1 1374:3
1 246:1 559:1 1292:1 1313:1 1374:2
1 246:1 300:1 406:1 407:1 460:1 559:1 634:1 681:1 701:1 895:1 907:1 981:1 1152:1 1231:1 1235:1 1236:1 1239:1 1241:1 1265:1 1292:1 1313:1 1329:1 1334:1 1350:1 1356:1 1357:1 1374:2
1 246:1 460:1 541:1 559:1 681:1 701:1 907:1 978:1 981:1 1231:1 1237:1 1239:1 1241:1 1265:1 1292:1 1300:1 1313:1 1356:1 1374:2
1 1374:3
1 246:1 300:1 406:1 407:1 460:1 559:1 634:1 681:1 701:1 895:1 907:1 981:1 1152:1 1231:1 1235:1 1236:1 1239:1 1241:1 1265:1 1292:1 1313:1 1329:1 1334:1 1350:1 1356:1 1357:1 1374:2
1 246:1 559:1 681:1 907:1 1231:1 1292:1 1313:1 1356:1 1374:3
1 246:1 559:1 634:1 907:1 1292:1 1313:1 1356:1 1357:1 1374:3
1 246:1 559:1 681:1 701:1 907:1 1231:1 1241:1 1292:1 1313:1 1356:1 1374:3
1 246:1 559:1 634:1 907:1 1292:1 1313:1 1356:1 1357:1 1374:3
1 131:1 246:1 406:1 407:1 541:1 559:1 895:1 1152:1 1225:1 1235:1 1236:1 1292:1 1300:1 1313:1 1334:1 1350:1 1374:3
1 246:1 559:1 634:1 907:1 1292:1 1313:1 1356:1 1357:1 1374:3
1 246:1 559:1 634:1 907:1 1292:1 1313:1 1356:1 1357:1 1374:3
1 246:1 559:1 634:1 907:1 1292:1 1313:1 1356:1 1357:1 1374:3
1 246:1 349:1 406:1 559:1 634:1 681:1 701:1 907:1 978:1 981:1 1231:1 1236:1 1237:1 1239:1 1241:1 1292:1 1313:1 1354:1 1356:1 1357:1 1374:5
1 246:1 559:1 634:1 907:1 1292:1 1313:1 1356:1 1357:1 1374:3
1 246:1 559:1 634:1 907:1 1292:1 1313:1 1356:1 1357:1 1374:3
1 246:1 559:1 634:1 907:1 1292:1 1313:1 1356:1 1357:1 1374:3
1 246:1 460:1 541:1 559:1 681:1 701:1 907:1 981:1 1231:1 1239:1 1241:1 1265:1 1292:1 1300:1 1313:1 1356:1 1374:2
1 131:1 246:1 300:1 406:1 407:1 460:1 541:1 559:1 621:1 634:1 681:1 701:1 895:1 907:1 978:1 981:1 1152:1 1225:1 1231:1 1235:1 1236:1 1237:1 1239:1 1241:1 1265:1 1292:1 1300:1 1313:1 1329:1 1334:1 1348:1 1350:1 1356:1 1357:1 1374:2
1 246:2 349:1 511:1 541:1 559:2 681:1 1231:1 1286:1 1292:2 1300:1 1313:2 1354:1 1374:8 1376:1
1 246:1 559:1 634:1 907:1 1292:1 1313:1 1356:1 1357:1 1374:3
1 246:1 300:1 406:1 407:1 460:1 559:1 634:1 681:1 701:1 895:1 907:1 981:1 1152:1 1231:1 1235:1 1236:1 1239:1 1241:1 1265:1 1292:1 1313:1 1329:1 1334:1 1350:1 1356:1 1357:1 1374:2
1 246:1 460:1 541:1 559:1 681:1 907:1 1231:1 1265:1 1292:1 1300:1 1313:1 1356:1 1374:3
1 246:1 559:1 634:1 907:1 1292:1 1313:1 1356:1 1357:1 1374:3
1 1374:3
1 246:1 559:1 634:1 907:1 1292:1 1313:1 1356:1 1357:1 1374:3
1 131:1 246:1 300:1 406:1 407:1 460:1 541:1 559:1 621:1 634:1 681:1 701:1 895:1 907:1 978:1 981:1 1152:1 1225:1 1231:1 1235:1 1236:1 1237:1 1239:1 1241:1 1265:1 1292:1 1300:1 1313:1 1329:1 1334:1 1348:1 1350:1 1356:1 1357:1 1374:2
1 131:1 246:1 300:1 406:1 407:1 460:1 541:1 559:1 621:1 634:1 681:1 701:1 895:1 907:1 978:1 981:1 1152:1 1225:1 1231:1 1235:1 1236:1 1237:1 1239:1 1241:1 1265:1 1292:1 1300:1 1313:1 1329:1 1334:1 1348:1 1350:1 1356:1 1357:1 1374:2
1 1374:3
1 246:1 559:1 634:1 907:1 1292:1 1313:1 1356:1 1357:1 1374:3
1 246:1 559:1 634:1 907:1 1292:1 1313:1 1356:1 1357:1 1374:3
1 131:1 246:1 300:1 406:1 407:1 460:1 541:1 559:1 621:1 634:1 681:1 701:1 895:1 907:1 978:1 981:1 1152:1 1225:1 1231:1 1235:1 1236:1 1237:1 1239:1 1241:1 1265:1 1292:1 1300:1 1313:1 1329:1 1334:1 1348:1 1350:1 1356:1 1357:1 1374:2
1 131:1 246:1 300:1 407:1 541:1 559:1 634:1 681:1 701:1 895:1 981:1 1225:1 1231:1 1235:1 1239:1 1241:1 1292:1 1300:1 1313:1 1329:1 1350:1 1357:1 1374:2
1 246:1 559:1 634:1 907:1 1292:1 1313:1 1356:1 1357:1 1374:3
1 701:1 1241:1 1374:3
1 246:1 559:1 907:1 1292:1 1313:1 1356:1 1374:3
1 246:1 559:1 634:1 907:1 1292:1 1313:1 1356:1 1357:1 1374:3
1 246:1 559:1 634:1 907:1 1292:1 1313:1 1356:1 1357:1 1374:3
1 246:1 559:1 634:1 907:1 1292:1 1313:1 1356:1 1357:1 1374:3
1 246:1 559:1 634:1 907:1 1292:1 1313:1 1356:1 1357:1 1374:3
1 131:1 246:1 300:1 406:1 407:1 460:1 541:1 559:1 621:1 634:1 681:1 701:1 895:1 907:1 978:1 981:1 1152:1 1225:1 1231:1 1235:1 1236:1 1237:1 1239:1 1241:1 1265:1 1292:1 1300:1 1313:1 1329:1 1334:1 1348:1 1350:1 1356:1 1357:1 1374:2
1 246:1 559:1 634:1 907:1 1292:1 1313:1 1356:1 1357:1 1374:3
1 246:1 559:1 634:1 907:1 1292:1 1313:1 1356:1 1357:1 1374:3
1 131:1 246:1 406:1 407:1 541:1 559:1 895:1 1152:1 1225:1 1235:1 1236:1 1292:1 1300:1 1313:1 1334:1 1350:1 1374:3
1 246:1 559:1 634:1 907:1 1292:1 1313:1 1356:1 1357:1 1374:3
1 701:1 1241:1 1374:3
1 246:1 559:1 634:1 907:1 1292:1 1313:1 1356:1 1357:1 1374:3
1 701:1 1241:1 1374:3
1 246:1 559:1 634:1 907:1 1292:1 1313:1 1356:1 1357:1 1374:3
1 131:1 246:1 541:1 559:1 681:1 981:1 1152:1 1225:1 1231:1 1239:1 1292:1 1300:1 1313:1 1334:1 1374:2
1 246:1 559:1 681:1 907:1 1231:1 1292:1 1313:1 1356:1 1374:5
1 246:1 559:1 681:1 741:1 907:1 981:1 1215:1 1227:1 1231:1 1239:1 1258:1 1292:1 1313:1 1320:1 1332:1 1339:1 1356:1 1374:7 1376:71
1 246:1 559:1 634:1 907:1 1292:1 1313:1 1356:1 1357:1 1374:3
1 701:1 1241:1 1374:3
1 131:1 246:1 300:1 406:1 407:1 460:1 541:1 559:1 621:1 634:1 681:1 701:1 895:1 907:1 978:1 981:1 1152:1 1225:1 1231:1 1235:1 1236:1 1237:1 1239:1 1241:1 1265:1 1292:1 1300:1 1313:1 1329:1 1334:1 1348:1 1350:1 1356:1 1357:1 1374:2
1 246:1 559:1 634:1 907:1 1292:1 1313:1 1356:1 1357:1 1374:3
1 246:1 460:1 541:1 559:1 681:1 701:1 907:1 981:1 1231:1 1239:1 1241:1 1265:1 1292:1 1300:1 1313:1 1356:1 1374:2
1 131:1 246:1 300:1 406:1 407:1 460:1 541:1 559:1 621:1 634:1 681:1 701:1 895:1 907:1 978:1 981:1 1152:1 1225:1 1231:1 1235:1 1236:1 1237:1 1239:1 1241:1 1265:1 1292:1 1300:1 1313:1 1329:1 1334:1 1348:1 1350:1 1356:1 1357:1 1374:2
1 246:1 559:1 681:1 701:1 907:1 1231:1 1241:1 1292:1 1313:1 1356:1 1374:2
1 246:1 559:1 681:1 1231:1 1292:1 1313:1 1374:2
1 246:1 559:1 681:1 701:1 907:1 1231:1 1241:1 1292:1 1313:1 1356:1 1374:2
1 246:1 559:1 634:1 907:1 1292:1 1313:1 1356:1 1357:1 1374:3
1 246:1 559:1 634:1 907:1 1292:1 1313:1 1356:1 1357:1 1374:3
1 246:1 300:1 406:1 407:1 460:1 559:1 621:1 634:1 681:1 701:1 895:1 907:1 981:1 1152:1 1231:1 1235:1 1236:1 1239:1 1241:1 1265:1 1292:1 1313:1 1329:1 1334:1 1348:1 1350:1 1356:1 1357:1 1374:1
1 246:1 460:1 541:1 559:1 681:1 701:1 907:1 978:1 981:1 1231:1 1237:1 1239:1 1241:1 1265:1 1292:1 1300:1 1313:1 1356:1 1374:2
1 246:1 460:1 541:1 559:1 681:1 907:1 1231:1 1265:1 1292:1 1300:1 1313:1 1356:1 1374:3
1 246:1 559:1 634:1 907:1 1292:1 1313:1 1356:1 1357:1 1374:3
1 246:1 300:1 406:1 407:1 460:1 559:1 634:1 681:1 701:1 895:1 907:1 981:1 1152:1 1231:1 1235:1 1236:1 1239:1 1241:1 1265:1 1292:1 1313:1 1329:1 1334:1 1350:1 1356:1 1357:1 1374:2
1 246:1 559:1 634:1 907:1 1292:1 1313:1 1356:1 1357:1 1374:3
1 246:1 559:1 634:1 907:1 1292:1 1313:1 1356:1 1357:1 1374:3
1 246:1 559:1 634:1 907:1 1292:1 1313:1 1356:1 1357:1 1374:3
1 246:1 559:1 634:1 907:1 1292:1 1313:1 1356:1 1357:1 1374:3
1 246:1 559:1 634:1 907:1 1292:1 1313:1 1356:1 1357:1 1374:3
1 1374:3
1 246:1 349:1 406:1 559:1 634:1 681:1 701:1 907:1 978:1 981:1 1231:1 1236:1 1237:1 1239:1 1241:1 1292:1 1313:1 1354:1 1356:1 1357:1 1374:5
1 246:1 559:1 634:1 907:1 1292:1 1313:1 1356:1 1357:1 1374:3
1 246:1 559:1 1292:1 1313:1 1374:2
1 131:1 246:1 300:1 406:1 407:1 460:1 541:1 559:1 621:1 634:1 681:1 701:1 895:1 907:1 978:1 981:1 1152:1 1225:1 1231:1 1235:1 1236:1 1237:1 1239:1 1241:1 1265:1 1292:1 1300:1 1313:1 1329:1 1334:1 1348:1 1350:1 1356:1 1357:1 1374:2
1 131:1 246:1 300:1 406:1 407:1 460:1 541:1 559:1 621:1 634:1 681:1 701:1 895:1 907:1 978:1 981:1 1152:1 1225:1 1231:1 1235:1 1236:1 1237:1 1239:1 1241:1 1265:1 1292:1 1300:1 1313:1 1329:1 1334:1 1348:1 1350:1 1356:1 1357:1 1374:2
1 1374:3
1 131:1 246:1 300:1 406:1 407:1 460:1 541:1 559:1 621:1 634:1 681:1 701:1 895:1 907:1 978:1 981:1 1152:1 1225:1 1231:1 1235:1 1236:1 1237:1 1239:1 1241:1 1265:1 1292:1 1300:1 1313:1 1329:1 1334:1 1348:1 1350:1 1356:1 1357:1 1374:2
1 246:1 559:1 634:1 907:1 1292:1 1313:1 1356:1 1357:1 1374:3
1 246:1 559:1 634:1 907:1 1292:1 1313:1 1356:1 1357:1 1374:3
1 246:1 559:1 681:1 907:1 1231:1 1292:1 1313:1 1356:1 1374:3
1 246:1 541:1 559:1 681:1 701:1 907:1 1231:1 1241:1 1292:1 1300:1 1313:1 1356:1 1374:2
1 1374:3
1 246:1 559:1 634:1 907:1 1292:1 1313:1 1356:1 1357:1 1374:3
1 1374:3
1 131:1 246:1 300:1 406:1 407:1 460:1 541:1 559:1 621:1 634:1 681:1 701:1 895:1 907:1 978:1 981:1 1152:1 1225:1 1231:1 1235:1 1236:1 1237:1 1239:1 1241:1 1265:1 1292:1 1300:1 1313:1 1329:1 1334:1 1348:1 1350:1 1356:1 1357:1 1374:1
1 131:1 246:1 300:1 406:1 407:1 460:1 541:1 559:1 621:1 634:1 681:1 701:1 895:1 907:1 978:1 981:1 1152:1 1225:1 1231:1 1235:1 1236:1 1237:1 1239:1 1241:1 1265:1 1292:1 1300:1 1313:1 1329:1 1334:1 1348:1 1350:1 1356:1 1357:1 1374:2
1 246:1 559:1 634:1 907:1 1292:1 1313:1 1356:1 1357:1 1374:3
1 246:1 460:1 541:1 559:1 681:1 701:1 907:1 1231:1 1241:1 1265:1 1292:1 1300:1 1313:1 1356:1 1374:5
1 246:1 559:1 634:1 907:1 1292:1 1313:1 1356:1 1357:1 1374:3
1 701:1 1241:1 1374:3
1 246:1 559:1 634:1 907:1 1292:1 1313:1 1356:1 1357:1 1374:3
1 131:1 559:1 621:1 681:1 907:1 981:1 1225:1 1231:1 1239:1 1313:1 1348:1 1356:1 1374:2
1 246:1 559:1 907:1 1292:1 1313:1 1356:1 1374:2
1 131:1 559:1 621:1 681:1 907:1 981:1 1225:1 1231:1 1239:1 1313:1 1348:1 1356:1 1374:2
1 246:1 559:1 681:1 907:1 1231:1 1292:1 1313:1 1356:1 1374:3
1 246:1 460:1 541:1 559:1 681:1 907:1 1231:1 1265:1 1292:1 1300:1 1313:1 1356:1 1374:2
1 246:1 559:1 634:1 907:1 1292:1 1313:1 1356:1 1357:1 1374:3
1 246:1 559:1 907:1 1292:1 1313:1 1356:1 1374:5
1 1374:3
1 246:1 559:1 634:1 907:1 1292:1 1313:1 1356:1 1357:1 1374:3
1 246:1 559:1 681:1 907:1 1231:1 1292:1 1313:1 1356:1 1374:7
1 131:1 246:1 300:1 406:1 407:1 460:1 541:1 559:1 621:1 634:1 681:1 701:1 895:1 907:1 978:1 981:1 1152:1 1225:1 1231:1 1235:1 1236:1 1237:1 1239:1 1241:1 1265:1 1292:1 1300:1 1313:1 1329:1 1334:1 1348:1 1350:1 1356:1 1357:1 1374:2
1 246:1 559:1 1292:1 1313:1 1374:2
1 246:1 559:1 634:1 907:1 1292:1 1313:1 1356:1 1357:1 1374:3
1 246:1 406:1 407:1 559:1 681:1 701:1 895:1 907:1 981:1 1231:1 1235:1 1236:1 1239:1 1241:1 1292:1 1313:1 1350:1 1356:1 1374:1
1 246:1 559:1 634:1 907:1 1292:1 1313:1 1356:1 1357:1 1374:3
1 246:1 559:1 634:1 907:1 1292:1 1313:1 1356:1 1357:1 1374:3
1 559:1 755:1 1266:1 1313:1 1374:3
1 131:1 246:1 300:1 406:1 407:1 460:1 541:1 559:1 621:1 634:1 681:1 701:1 895:1 907:1 978:1 981:1 1152:1 1225:1 1231:1 1235:1 1236:1 1237:1 1239:1 1241:1 1265:1 1292:1 1300:1 1313:1 1329:1 1334:1 1348:1 1350:1 1356:1 1357:1 1374:2
1 701:1 1241:1 1374:3
1 246:1 559:1 634:1 907:1 1292:1 1313:1 1356:1 1357:1 1374:3
1 1374:3
1 246:1 541:1 559:1 681:1 907:1 1231:1 1292:1 1300:1 1313:1 1356:1 1374:2
1 246:1 559:1 634:1 907:1 1292:1 1313:1 1356:1 1357:1 1374:3
1 246:1 559:1 634:1 907:1 1292:1 1313:1 1356:1 1357:1 1374:3
1 701:1 1241:1 1374:3
1 246:1 559:1 634:1 907:1 1292:1 1313:1 1356:1 1357:1 1374:3
1 1374:2
1 131:1 246:1 406:1 407:1 541:1 559:1 895:1 1152:1 1225:1 1235:1 1236:1 1292:1 1300:1 1313:1 1334:1 1350:1 1374:3
1 246:1 559:1 634:1 907:1 1292:1 1313:1 1356:1 1357:1 1374:3
1 246:1 559:1 1292:1 1313:1 1374:2
1 701:1 1241:1 1374:3
1 246:1 541:1 559:1 681:1 701:1 907:1 981:1 1231:1 1239:1 1241:1 1292:1 1300:1 1313:1 1356:1 1374:2
1 246:1 559:1 681:1 907:1 1231:1 1292:1 1313:1 1356:1 1374:3
1 1374:3
1 246:1 559:1 634:1 907:1 1292:1 1313:1 1356:1 1357:1 1374:3
1 131:1 246:1 406:1 407:1 541:1 559:1 895:1 1152:1 1225:1 1235:1 1236:1 1292:1 1300:1 1313:1 1334:1 1350:1 1374:3
1 246:1 559:1 634:1 907:1 1292:1 1313:1 1356:1 1357:1 1374:3
1 246:1 559:1 634:1 907:1 1292:1 1313:1 1356:1 1357:1 1374:3
1 246:1 559:1 634:1 907:1 1292:1 1313:1 1356:1 1357:1 1374:3
1 246:1 559:1 681:1 907:1 1231:1 1292:1 1313:1 1356:1 1374:2
1 246:1 559:1 681:1 907:1 981:1 1231:1 1239:1 1292:1 1313:1 1356:1 1374:4
1 246:1 559:1 634:1 907:1 1292:1 1313:1 1356:1 1357:1 1374:3
1 131:1 246:1 300:1 406:1 407:1 460:1 541:1 559:1 621:1 634:1 681:1 701:1 895:1 907:1 978:1 981:1 1152:1 1225:1 1231:1 1235:1 1236:1 1237:1 1239:1 1241:1 1265:1 1292:1 1300:1 1313:1 1329:1 1334:1 1348:1 1350:1 1356:1 1357:1 1374:2
1 246:1 559:1 634:1 907:1 1292:1 1313:1 1356:1 1357:1 1374:3
1 246:1 559:1 634:1 907:1 1292:1 1313:1 1356:1 1357:1 1374:3
1 246:1 559:1 681:1 907:1 1231:1 1292:1 1313:1 1356:1 1374:2
1 246:1 559:1 634:1 907:1 1292:1 1313:1 1356:1 1357:1 1374:3
1 246:1 559:1 634:1 907:1 1292:1 1313:1 1356:1 1357:1 1374:3
1 1374:3
1 701:1 1241:1 1374:3
1 246:1 300:1 406:1 407:1 460:1 559:1 634:1 681:1 701:1 895:1 907:1 981:1 1152:1 1231:1 1235:1 1236:1 1239:1 1241:1 1265:1 1292:1 1313:1 1329:1 1334:1 1350:1 1356:1 1357:1 1374:2
1 246:1 349:1 406:1 559:1 634:1 681:1 701:1 907:1 978:1 981:1 1231:1 1236:1 1237:1 1239:1 1241:1 1292:1 1313:1 1354:1 1356:1 1357:1 1374:5
1 246:2 349:1 511:1 541:1 559:2 681:1 1231:1 1286:1 1292:2 1300:1 1313:2 1354:1 1374:9 1376:1
1 246:1 559:1 634:1 907:1 1292:1 1313:1 1356:1 1357:1 1374:3
1 246:1 559:1 634:1 907:1 1292:1 1313:1 1356:1 1357:1 1374:3
1 246:1 559:1 634:1 907:1 1292:1 1313:1 1356:1 1357:1 1374:3
1 131:1 246:1 300:1 406:1 407:1 460:1 541:1 559:1 621:1 634:1 681:1 701:1 895:1 907:1 978:1 981:1 1152:1 1225:1 1231:1 1235:1 1236:1 1237:1 1239:1 1241:1 1265:1 1292:1 1300:1 1313:1 1329:1 1334:1 1348:1 1350:1 1356:1 1357:1 1374:2
1 246:1 559:1 634:1 907:1 1292:1 1313:1 1356:1 1357:1 1374:3
1 246:1 559:1 634:1 907:1 1292:1 1313:1 1356:1 1357:1 1374:3
1 246:1 559:1 634:1 907:1 1292:1 1313:1 1356:1 1357:1 1374:3
1 131:1 246:1 300:1 406:1 407:1 460:1 541:1 559:1 621:1 634:1 681:1 701:1 895:1 907:1 978:1 981:1 1152:1 1225:1 1231:1 1235:1 1236:1 1237:1 1239:1 1241:1 1265:1 1292:1 1300:1 1313:1 1329:1 1334:1 1348:1 1350:1 1356:1 1357:1 1374:1
1 246:1 559:1 634:1 907:1 1292:1 1313:1 1356:1 1357:1 1374:3
1 246:1 559:1 681:1 907:1 1231:1 1292:1 1313:1 1356:1 1374:6
1 1374:3
1 246:1 559:1 634:1 907:1 1292:1 1313:1 1356:1 1357:1 1374:3
1 701:1 1241:1 1374:3
1 246:1 300:1 406:1 407:1 460:1 559:1 634:1 681:1 701:1 895:1 907:1 981:1 1152:1 1231:1 1235:1 1236:1 1239:1 1241:1 1265:1 1292:1 1313:1 1329:1 1334:1 1350:1 1356:1 1357:1 1374:1
1 246:1 300:1 406:1 407:1 460:1 559:1 634:1 681:1 701:1 895:1 907:1 981:1 1152:1 1231:1 1235:1 1236:1 1239:1 1241:1 1265:1 1292:1 1313:1 1329:1 1334:1 1350:1 1356:1 1357:1 1374:2
1 246:1 559:1 907:1 1292:1 1313:1 1356:1 1374:3
1 131:1 246:1 300:1 406:1 407:1 460:1 541:1 559:1 621:1 634:1 681:1 701:1 895:1 907:1 978:1 981:1 1152:1 1225:1 1231:1 1235:1 1236:1 1237:1 1239:1 1241:1 1265:1 1292:1 1300:1 1313:1 1329:1 1334:1 1348:1 1350:1 1356:1 1357:1 1374:2
1 246:1 460:1 541:1 559:1 681:1 907:1 1231:1 1265:1 1292:1 1300:1 1313:1 1356:1 1374:2
1 246:1 559:1 681:1 907:1 1231:1 1292:1 1313:1 1356:1 1374:2
1 246:1 559:1 634:1 907:1 1292:1 1313:1 1356:1 1357:1 1374:3
1 246:1 559:1 634:1 907:1 1292:1 1313:1 1356:1 1357:1 1374:3
1 246:1 559:1 634:1 907:1 1292:1 1313:1 1356:1 1357:1 1374:3
1 246:1 559:1 634:1 907:1 1292:1 1313:1 1356:1 1357:1 1374:3
1 246:1 559:1 681:1 907:1 981:1 1231:1 1239:1 1292:1 1313:1 1356:1 1374:4
1 246:1 559:1 634:1 907:1 1292:1 1313:1 1356:1 1357:1 1374:3
1 131:1 246:1 300:1 406:1 407:1 460:1 541:1 559:1 621:1 634:1 681:1 701:1 895:1 907:1 978:1 981:1 1152:1 1225:1 1231:1 1235:1 1236:1 1237:1 1239:1 1241:1 1265:1 1292:1 1300:1 1313:1 1329:1 1334:1 1348:1 1350:1 1356:1 1357:1 1374:2
1 246:1 559:1 634:1 907:1 1292:1 1313:1 1356:1 1357:1 1374:3
1 246:1 365:1 559:1 681:1 1231:1 1292:1 1313:1 1370:1 1374:2
1 246:1 559:1 634:1 907:1 1292:1 1313:1 1356:1 1357:1 1374:3
1 131:1 246:1 300:1 406:1 407:1 460:1 541:1 559:1 621:1 634:1 681:1 701:1 895:1 907:1 978:1 981:1 1152:1 1225:1 1231:1 1235:1 1236:1 1237:1 1239:1 1241:1 1265:1 1292:1 1300:1 1313:1 1329:1 1334:1 1348:1 1350:1 1356:1 1357:1 1374:1
1 246:1 559:1 634:1 907:1 1292:1 1313:1 1356:1 1357:1 1374:3
1 246:1 559:1 634:1 907:1 1292:1 1313:1 1356:1 1357:1 1374:3
1 131:1 246:1 300:1 406:1 407:1 460:1 541:1 559:1 621:1 634:1 681:1 701:1 895:1 907:1 978:1 981:1 1152:1 1225:1 1231:1 1235:1 1236:1 1237:1 1239:1 1241:1 1265:1 1292:1 1300:1 1313:1 1329:1 1334:1 1348:1 1350:1 1356:1 1357:1 1374:1
1 246:1 559:1 634:1 907:1 1292:1 1313:1 1356:1 1357:1 1374:3
1 246:1 559:1 634:1 907:1 1292:1 1313:1 1356:1 1357:1 1374:3
1 246:1 559:1 634:1 907:1 1292:1 1313:1 1356:1 1357:1 1374:3
1 246:1 559:1 634:1 907:1 1292:1 1313:1 1356:1 1357:1 1374:3
1 246:1 559:1 1292:1 1313:1 1374:2
1 246:1 559:1 634:1 907:1 1292:1 1313:1 1356:1 1357:1 1374:3
1 559:1 1313:1 1374:2 1376:14
1 701:1 1241:1 1374:3
1 246:1 559:1 621:1 681:1 701:1 907:1 978:1 1231:1 1237:1 1241:1 1292:1 1313:1 1348:1 1356:1 1374:1
1 246:1 559:1 907:1 1292:1 1313:1 1356:1 1374:2
1 246:1 559:1 681:1 907:1 1231:1 1292:1 1313:1 1356:1 1374:2
1 246:1 559:1 634:1 907:1 1292:1 1313:1 1356:1 1357:1 1374:3
1 246:1 559:1 634:1 907:1 1292:1 1313:1 1356:1 1357:1 1374:3
1 246:1 559:1 634:1 907:1 1292:1 1313:1 1356:1 1357:1 1374:3
1 1374:3
1 246:1 559:1 634:1 907:1 1292:1 1313:1 1356:1 1357:1 1374:3
1 246:1 365:1 460:1 541:1 559:1 681:1 978:1 1231:1 1237:1 1265:1 1292:1 1300:1 1313:1 1370:1 1374:2
1 1374:3
1 246:1 559:1 681:1 1231:1 1292:1 1313:1 1374:2
1 246:1 559:1 681:1 907:1 1231:1 1292:1 1313:1 1356:1 1374:5
1 131:1 246:1 300:1 406:1 407:1 460:1 541:1 559:1 621:1 634:1 681:1 701:1 895:1 907:1 978:1 981:1 1152:1 1225:1 1231:1 1235:1 1236:1 1237:1 1239:1 1241:1 1265:1 1292:1 1300:1 1313:1 1329:1 1334:1 1348:1 1350:1 1356:1 1357:1 1374:2
1 1374:3
1 246:1 559:1 634:1 907:1 1292:1 1313:1 1356:1 1357:1 1374:3
1 246:1 559:1 634:1 907:1 1292:1 1313:1 1356:1 1357:1 1374:3
1 246:1 559:1 634:1 907:1 1292:1 1313:1 1356:1 1357:1 1374:3
1 246:1 559:1 681:1 907:1 1231:1 1292:1 1313:1 1356:1 1374:5
1 1374:3
1 246:1 559:1 634:1 907:1 1292:1 1313:1 1356:1 1357:1 1374:3
1 246:1 365:1 460:1 541:1 559:1 681:1 978:1 981:1 1231:1 1237:1 1239:1 1265:1 1292:1 1300:1 1313:1 1370:1 1374:3
1 246:1 559:1 681:1 907:1 1231:1 1292:1 1313:1 1356:1 1374:4
1 131:1 246:1 406:1 460:1 541:1 559:1 576:1 681:1 701:1 907:1 978:1 981:1 1152:1 1225:1 1231:1 1236:1 1237:1 1239:1 1241:1 1265:1 1292:1 1300:1 1313:1 1325:1 1334:1 1356:1 1374:3
1 246:1 559:1 634:1 907:1 1292:1 1313:1 1356:1 1357:1 1374:3
1 246:1 559:1 634:1 907:1 1292:1 1313:1 1356:1 1357:1 1374:3
1 246:1 460:1 541:1 559:1 681:1 701:1 907:1 978:1 1231:1 1237:1 1241:1 1265:1 1292:1 1300:1 1313:1 1356:1 1374:4
1 246:1 559:1 634:1 907:1 1292:1 1313:1 1356:1 1357:1 1374:3
1 701:1 1241:1 1374:3
1 246:1 559:1 634:1 907:1 1292:1 1313:1 1356:1 1357:1 1374:3
1 246:1 365:1 460:1 541:1 559:1 681:1 701:1 907:1 978:1 981:1 1231:1 1237:1 1239:1 1241:1 1265:1 1292:1 1300:1 1313:1 1356:1 1370:1 1374:2
1 246:1 541:1 559:1 681:1 701:1 907:1 1231:1 1241:1 1292:1 1300:1 1313:1 1356:1 1374:4
1 1374:2
1 246:1 460:1 541:1 559:1 681:1 907:1 981:1 1231:1 1239:1 1265:1 1292:1 1300:1 1313:1 1356:1 1374:3
1 246:1 559:1 634:1 907:1 1292:1 1313:1 1356:1 1357:1 1374:3
1 1374:3
1 246:1 559:1 634:1 907:1 1292:1 1313:1 1356:1 1357:1 1374:3
1 1374:3
1 131:1 246:1 300:1 406:1 407:1 460:1 541:1 559:1 621:1 634:1 681:1 701:1 895:1 907:1 978:1 981:1 1152:1 1225:1 1231:1 1235:1 1236:1 1237:1 1239:1 1241:1 1265:1 1292:1 1300:1 1313:1 1329:1 1334:1 1348:1 1350:1 1356:1 1357:1 1374:2
1 246:1 559:1 634:1 907:1 1292:1 1313:1 1356:1 1357:1 1374:3
1 246:1 559:1 907:1 1292:1 1313:1 1356:1 1374:3
1 246:1 559:1 634:1 907:1 1292:1 1313:1 1356:1 1357:1 1374:2
1 246:1 559:1 634:1 907:1 1292:1 1313:1 1356:1 1357:1 1374:3
1 1374:3
1 246:1 559:1 634:1 907:1 1292:1 1313:1 1356:1 1357:1 1374:3
1 246:1 559:1 634:1 907:1 1292:1 1313:1 1356:1 1357:1 1374:3
1 1374:4
1 246:1 559:1 681:1 907:1 1231:1 1292:1 1313:1 1356:1 1374:2
1 701:1 1241:1 1374:3
1 246:1 559:1 634:1 907:1 1292:1 1313:1 1356:1 1357:1 1374:3
1 246:1 559:1 634:1 907:1 1292:1 1313:1 1356:1 1357:1 1374:3
1 701:1 1241:1 1374:3
1 131:1 246:1 300:1 406:1 407:1 460:1 541:1 559:1 621:1 634:1 681:1 701:1 895:1 907:1 978:1 981:1 1152:1 1225:1 1231:1 1235:1 1236:1 1237:1 1239:1 1241:1 1265:1 1292:1 1300:1 1313:1 1329:1 1334:1 1348:1 1350:1 1356:1 1357:1 1374:2
1 246:1 559:1 681:1 907:1 1231:1 1292:1 1313:1 1356:1 1374:2
1 246:1 559:1 634:1 907:1 1292:1 1313:1 1356:1 1357:1 1374:3
1 246:1 559:1 634:1 907:1 1292:1 1313:1 1356:1 1357:1 1374:3
1 246:1 559:1 634:1 907:1 1292:1 1313:1 1356:1 1357:1 1374:3
1 246:1 559:1 1292:1 1313:1 1374:2
1 246:1 559:1 634:1 907:1 1292:1 1313:1 1356:1 1357:1 1374:3
1 131:1 246:1 541:1 559:1 681:1 981:1 1152:1 1225:1 1231:1 1239:1 1292:1 1300:1 1313:1 1334:1 1374:2
1 246:1 559:1 907:1 1292:1 1313:1 1356:1 1374:3
1 246:1 559:1 634:1 907:1 1292:1 1313:1 1356:1 1357:1 1374:3
1 246:1 559:1 634:1 907:1 1292:1 1313:1 1356:1 1357:1 1374:3
1 246:1 559:1 681:1 907:1 1231:1 1292:1 1313:1 1356:1 1374:1
1 246:1 460:1 541:1 559:1 681:1 907:1 1231:1 1265:1 1292:1 1300:1 1313:1 1356:1 1374:2
1 1374:4
1 246:1 559:1 634:1 907:1 1292:1 1313:1 1356:1 1357:1 1374:3
1 1374:3
1 131:1 246:1 406:1 407:1 541:1 559:1 895:1 1152:1 1225:1 1235:1 1236:1 1292:1 1300:1 1313:1 1334:1 1350:1 1374:3
1 246:1 559:1 634:1 907:1 1292:1 1313:1 1356:1 1357:1 1374:3
1 246:1 460:1 541:1 559:1 681:1 907:1 981:1 1231:1 1239:1 1265:1 1292:1 1300:1 1313:1 1356:1 1374:4
1 131:1 246:1 300:1 406:1 407:1 460:1 541:1 559:1 621:1 634:1 681:1 701:1 895:1 907:1 978:1 981:1 1152:1 1225:1 1231:1 1235:1 1236:1 1237:1 1239:1 1241:1 1265:1 1292:1 1300:1 1313:1 1329:1 1334:1 1348:1 1350:1 1356:1 1357:1 1374:2
1 246:1 559:1 634:1 907:1 1292:1 1313:1 1356:1 1357:1 1374:3
1 246:1 559:1 634:1 907:1 1292:1 1313:1 1356:1 1357:1 1374:3
1 246:1 541:1 559:1 681:1 907:1 1231:1 1292:1 1300:1 1313:1 1356:1 1374:2
1 246:1 559:1 634:1 907:1 1292:1 1313:1 1356:1 1357:1 1374:3
1 246:1 559:1 634:1 907:1 1292:1 1313:1 1356:1 1357:1 1374:3
1 131:1 246:1 300:1 406:1 407:1 460:1 541:1 559:1 621:1 634:1 681:1 701:1 895:1 907:1 978:1 981:1 1152:1 1225:1 1231:1 1235:1 1236:1 1237:1 1239:1 1241:1 1265:1 1292:1 1300:1 1313:1 1329:1 1334:1 1348:1 1350:1 1356:1 1357:1 1374:1
1 131:1 246:1 300:1 406:1 407:1 460:1 541:1 559:1 621:1 634:1 681:1 701:1 895:1 907:1 978:1 981:1 1152:1 1225:1 1231:1 1235:1 1236:1 1237:1 1239:1 1241:1 1265:1 1292:1 1300:1 1313:1 1329:1 1334:1 1348:1 1350:1 1356:1 1357:1 1374:1
1 246:1 300:1 406:1 407:1 460:1 559:1 634:1 681:1 701:1 895:1 907:1 981:1 1152:1 1231:1 1235:1 1236:1 1239:1 1241:1 1265:1 1292:1 1313:1 1329:1 1334:1 1350:1 1356:1 1357:1 1374:2
1 246:1 349:1 541:1 559:1 681:1 907:1 1231:1 1292:1 1300:1 1313:1 1354:1 1356:1 1374:4
1 246:1 541:1 559:1 681:1 701:1 907:1 1231:1 1241:1 1292:1 1300:1 1313:1 1356:1 1374:4
1 246:1 559:1 634:1 907:1 1292:1 1313:1 1356:1 1357:1 1374:3
1 559:1 1313:1 1374:1 1376:1
1 246:1 559:1 634:1 907:1 1292:1 1313:1 1356:1 1357:1 1374:3
1 246:1 559:1 1292:1 1313:1 1374:3
1 246:1 300:1 406:1 407:1 460:1 559:1 634:1 681:1 701:1 895:1 907:1 981:1 1152:1 1231:1 1235:1 1236:1 1239:1 1241:1 1265:1 1292:1 1313:1 1329:1 1334:1 1350:1 1356:1 1357:1 1374:2
1 246:1 559:1 634:1 907:1 1292:1 1313:1 1356:1 1357:1 1374:3
1 246:1 460:1 541:1 559:1 681:1 701:1 907:1 978:1 1231:1 1237:1 1241:1 1265:1 1292:1 1300:1 1313:1 1356:1 1374:4
1 131:1 246:1 300:1 407:1 541:1 559:1 634:1 681:1 701:1 895:1 981:1 1225:1 1231:1 1235:1 1239:1 1241:1 1292:1 1300:1 1313:1 1329:1 1350:1 1357:1 1374:2
1 246:1 559:1 907:1 1292:1 1313:1 1356:1 1374:3
1 246:1 559:1 634:1 907:1 1292:1 1313:1 1356:1 1357:1 1374:3
1 246:1 559:1 634:1 907:1 1292:1 1313:1 1356:1 1357:1 1374:3
1 246:1 559:1 634:1 907:1 1292:1 1313:1 1356:1 1357:1 1374:3
1 246:1 559:1 634:1 907:1 1292:1 1313:1 1356:1 1357:1 1374:3
1 131:1 246:1 406:1 407:1 541:1 559:1 895:1 1152:1 1225:1 1235:1 1236:1 1292:1 1300:1 1313:1 1334:1 1350:1 1374:3
1 131:1 246:1 300:1 406:1 407:1 460:1 541:1 559:1 621:1 634:1 681:1 701:1 895:1 907:1 978:1 981:1 1152:1 1225:1 1231:1 1235:1 1236:1 1237:1 1239:1 1241:1 1265:1 1292:1 1300:1 1313:1 1329:1 1334:1 1348:1 1350:1 1356:1 1357:1 1374:2
1 246:1 559:1 634:1 907:1 1292:1 1313:1 1356:1 1357:1 1374:3
1 246:1 559:1 634:1 907:1 1292:1 1313:1 1356:1 1357:1 1374:3
1 246:1 300:1 406:1 407:1 460:1 559:1 621:1 634:1 681:1 701:1 895:1 907:1 981:1 1152:1 1231:1 1235:1 1236:1 1239:1 1241:1 1265:1 1292:1 1313:1 1329:1 1334:1 1348:1 1350:1 1356:1 1357:1 1374:1
1 246:1 559:1 634:1 907:1 1292:1 1313:1 1356:1 1357:1 1374:3
1 246:1 559:1 634:1 907:1 1292:1 1313:1 1356:1 1357:1 1374:3
1 1374:3
1 246:1 559:1 634:1 907:1 1292:1 1313:1 1356:1 1357:1 1374:3
1 246:1 559:1 634:1 907:1 1292:1 1313:1 1356:1 1357:1 1374:3
1 131:1 246:1 406:1 407:1 541:1 559:1 895:1 1152:1 1225:1 1235:1 1236:1 1292:1 1300:1 1313:1 1334:1 1350:1 1374:2
1 1374:3
1 131:1 246:1 300:1 406:1 407:1 460:1 541:1 559:1 621:1 634:1 681:1 701:1 895:1 907:1 978:1 981:1 1152:1 1225:1 1231:1 1235:1 1236:1 1237:1 1239:1 1241:1 1265:1 1292:1 1300:1 1313:1 1329:1 1334:1 1348:1 1350:1 1356:1 1357:1 1374:2
1 246:1 300:1 406:1 407:1 460:1 559:1 621:1 634:1 681:1 701:1 895:1 907:1 981:1 1152:1 1231:1 1235:1 1236:1 1239:1 1241:1 1265:1 1292:1 1313:1 1329:1 1334:1 1348:1 1350:1 1356:1 1357:1 1374:1
1 246:1 559:1 907:1 1292:1 1313:1 1356:1 1374:3
1 246:1 559:1 634:1 907:1 1292:1 1313:1 1356:1 1357:1 1374:3
1 246:1 559:1 634:1 907:1 1292:1 1313:1 1356:1 1357:1 1374:3
1 246:1 559:1 634:1 907:1 1292:1 1313:1 1356:1 1357:1 1374:3
1 246:1 559:1 634:1 907:1 1292:1 1313:1 1356:1 1357:1 1374:3
1 246:1 559:1 634:1 907:1 1292:1 1313:1 1356:1 1357:1 1374:3
1 131:1 246:1 300:1 406:1 407:1 460:1 541:1 559:1 621:1 634:1 681:1 701:1 895:1 907:1 978:1 981:1 1152:1 1225:1 1231:1 1235:1 1236:1 1237:1 1239:1 1241:1 1265:1 1292:1 1300:1 1313:1 1329:1 1334:1 1348:1 1350:1 1356:1 1357:1 1374:2
1 131:1 246:1 300:1 406:1 407:1 460:1 541:1 559:1 621:1 634:1 681:1 701:1 895:1 907:1 978:1 981:1 1152:1 1225:1 1231:1 1235:1 1236:1 1237:1 1239:1 1241:1 1265:1 1292:1 1300:1 1313:1 1329:1 1334:1 1348:1 1350:1 1356:1 1357:1 1374:2
1 246:1 559:1 634:1 907:1 1292:1 1313:1 1356:1 1357:1 1374:3
1 246:1 300:1 406:1 407:1 460:1 559:1 634:1 681:1 701:1 895:1 907:1 981:1 1152:1 1231:1 1235:1 1236:1 1239:1 1241:1 1265:1 1292:1 1313:1 1329:1 1334:1 1350:1 1356:1 1357:1 1374:1
1 701:1 1241:1 1374:3
1 1374:3
1 131:1 246:1 300:1 406:1 407:1 460:1 541:1 559:1 621:1 634:1 681:1 701:1 895:1 907:1 978:1 981:1 1152:1 1225:1 1231:1 1235:1 1236:1 1237:1 1239:1 1241:1 1265:1 1292:1 1300:1 1313:1 1329:1 1334:1 1348:1 1350:1 1356:1 1357:1 1374:2
1 131:1 246:1 300:1 406:1 407:1 460:1 541:1 559:1 621:1 634:1 681:1 701:1 895:1 907:1 978:1 981:1 1152:1 1225:1 1231:1 1235:1 1236:1 1237:1 1239:1 1241:1 1265:1 1292:1 1300:1 1313:1 1329:1 1334:1 1348:1 1350:1 1356:1 1357:1 1374:1
1 131:1 246:1 300:1 406:1 407:1 460:1 541:1 559:1 621:1 634:1 681:1 701:1 895:1 907:1 978:1 981:1 1152:1 1225:1 1231:1 1235:1 1236:1 1237:1 1239:1 1241:1 1265:1 1292:1 1300:1 1313:1 1329:1 1334:1 1348:1 1350:1 1356:1 1357:1 1374:2
1 701:1 1241:1 1374:3
1 246:1 559:1 634:1 907:1 1292:1 1313:1 1356:1 1357:1 1374:3
1 131:1 246:1 300:1 406:1 407:1 460:1 541:1 559:1 621:1 634:1 681:1 701:1 895:1 907:1 978:1 981:1 1152:1 1225:1 1231:1 1235:1 1236:1 1237:1 1239:1 1241:1 1265:1 1292:1 1300:1 1313:1 1329:1 1334:1 1348:1 1350:1 1356:1 1357:1 1374:2
1 246:1 559:1 634:1 907:1 1292:1 1313:1 1356:1 1357:1 1374:3
1 246:1 559:1 634:1 907:1 1292:1 1313:1 1356:1 1357:1 1374:3
1 246:1 559:1 634:1 907:1 1292:1 1313:1 1356:1 1357:1 1374:3
1 246:1 559:1 634:1 907:1 1292:1 1313:1 1356:1 1357:1 1374:3
1 246:1 460:1 541:1 559:1 681:1 907:1 1231:1 1265:1 1292:1 1300:1 1313:1 1356:1 1374:2
1 246:1 300:1 406:1 407:1 460:1 559:1 634:1 681:1 701:1 895:1 907:1 981:1 1152:1 1231:1 1235:1 1236:1 1239:1 1241:1 1265:1 1292:1 1313:1 1329:1 1334:1 1350:1 1356:1 1357:1 1374:2
1 246:1 559:1 634:1 907:1 1292:1 1313:1 1356:1 1357:1 1374:3
1 246:1 559:1 681:1 1231:1 1292:1 1313:1 1374:2
1 131:1 246:1 406:1 407:1 541:1 559:1 895:1 1152:1 1225:1 1235:1 1236:1 1292:1 1300:1 1313:1 1334:1 1350:1 1374:3
1 246:1 559:1 634:1 907:1 1292:1 1313:1 1356:1 1357:1 1374:3
1 246:1 559:1 634:1 907:1 1292:1 1313:1 1356:1 1357:1 1374:3
1 246:1 559:1 634:1 907:1 1292:1 1313:1 1356:1 1357:1 1374:3
1 246:1 559:1 634:1 907:1 1292:1 1313:1 1356:1 1357:1 1374:3
1 246:1 559:1 681:1 907:1 1231:1 1292:1 1313:1 1356:1 1374:3
1 246:1 559:1 634:1 907:1 1292:1 1313:1 1356:1 1357:1 1374:3
1 246:1 559:1 634:1 907:1 1292:1 1313:1 1356:1 1357:1 1374:3
1 1374:3
1 701:1 1241:1 1374:3
1 131:1 246:1 300:1 406:1 407:1 460:1 541:1 559:1 621:1 634:1 681:1 701:1 895:1 907:1 978:1 981:1 1152:1 1225:1 1231:1 1235:1 1236:1 1237:1 1239:1 1241:1 1265:1 1292:1 1300:1 1313:1 1329:1 1334:1 1348:1 1350:1 1356:1 1357:1 1374:2
1 246:1 559:1 634:1 907:1 1292:1 1313:1 1356:1 1357:1 1374:3
1 246:1 559:1 634:1 907:1 1292:1 1313:1 1356:1 1357:1 1374:3
1 246:1 559:1 634:1 907:1 1292:1 1313:1 1356:1 1357:1 1374:3
1 246:1 460:1 541:1 559:1 681:1 701:1 907:1 978:1 1231:1 1237:1 1241:1 1265:1 1292:1 1300:1 1313:1 1356:1 1374:4
1 246:1 559:1 1292:1 1313:1 1374:2
1 246:1 559:1 634:1 907:1 1292:1 1313:1 1356:1 1357:1 1374:3
1 246:1 349:1 406:1 559:1 634:1 681:1 701:1 907:1 978:1 981:1 1231:1 1236:1 1237:1 1239:1 1241:1 1292:1 1313:1 1354:1 1356:1 1357:1 1374:5
1 246:1 559:1 634:1 907:1 1292:1 1313:1 1356:1 1357:1 1374:3
1 246:1 559:1 634:1 907:1 1292:1 1313:1 1356:1 1357:1 1374:3
1 131:1 246:1 300:1 406:1 407:1 460:1 541:1 559:1 621:1 634:1 681:1 701:1 895:1 907:1 978:1 981:1 1152:1 1225:1 1231:1 1235:1 1236:1 1237:1 1239:1 1241:1 1265:1 1292:1 1300:1 1313:1 1329:1 1334:1 1348:1 1350:1 1356:1 1357:1 1374:2
1 246:1 559:1 634:1 907:1 1292:1 1313:1 1356:1 1357:1 1374:3
1 246:1 559:1 907:1 1292:1 1313:1 1356:1 1374:3
1 246:1 559:1 634:1 907:1 1292:1 1313:1 1356:1 1357:1 1374:3
1 246:1 559:1 634:1 907:1 1292:1 1313:1 1356:1 1357:1 1374:3
1 1374:3
1 246:1 300:1 406:1 407:1 460:1 559:1 634:1 681:1 701:1 895:1 907:1 981:1 1152:1 1231:1 1235:1 1236:1 1239:1 1241:1 1265:1 1292:1 1313:1 1329:1 1334:1 1350:1 1356:1 1357:1 1374:1
1 246:1 559:1 634:1 907:1 1292:1 1313:1 1356:1 1357:1 1374:3
1 246:1 365:1 460:1 541:1 559:1 681:1 978:1 981:1 1231:1 1237:1 1239:1 1265:1 1292:1 1300:1 1313:1 1370:1 1374:3
1 131:1 246:1 300:1 406:1 407:1 460:1 541:1 559:1 621:1 634:1 681:1 701:1 895:1 907:1 978:1 981:1 1152:1 1225:1 1231:1 1235:1 1236:1 1237:1 1239:1 1241:1 1265:1 1292:1 1300:1 1313:1 1329:1 1334:1 1348:1 1350:1 1356:1 1357:1 1374:1
1 131:1 246:1 300:1 406:1 407:1 460:1 541:1 559:1 621:1 634:1 681:1 701:1 895:1 907:1 978:1 981:1 1152:1 1225:1 1231:1 1235:1 1236:1 1237:1 1239:1 1241:1 1265:1 1292:1 1300:1 1313:1 1329:1 1334:1 1348:1 1350:1 1356:1 1357:1 1374:2
1 246:1 559:1 634:1 907:1 1292:1 1313:1 1356:1 1357:1 1374:3
1 1374:3
1 246:1 460:1 541:1 559:1 681:1 907:1 1231:1 1265:1 1292:1 1300:1 1313:1 1356:1 1374:3
1 246:1 559:1 634:1 907:1 1292:1 1313:1 1356:1 1357:1 1374:3
1 246:1 559:1 634:1 907:1 1292:1 1313:1 1356:1 1357:1 1374:3
1 246:1 559:1 634:1 907:1 1292:1 1313:1 1356:1 1357:1 1374:3
1 246:1 349:1 406:1 559:1 634:1 681:1 701:1 907:1 978:1 981:1 1231:1 1236:1 1237:1 1239:1 1241:1 1292:1 1313:1 1354:1 1356:1 1357:1 1374:5
1 246:1 559:1 907:1 1292:1 1313:1 1356:1 1374:2
1 246:1 559:1 681:1 907:1 1231:1 1292:1 1313:1 1356:1 1374:2
1 1374:3
1 246:1 460:1 541:1 559:1 681:1 701:1 907:1 978:1 1231:1 1237:1 1241:1 1265:1 1292:1 1300:1 1313:1 1356:1 1374:4
1 701:1 1241:1 1374:3
1 131:1 246:1 300:1 406:1 407:1 460:1 541:1 559:1 621:1 634:1 681:1 701:1 895:1 907:1 978:1 981:1 1152:1 1225:1 1231:1 1235:1 1236:1 1237:1 1239:1 1241:1 1265:1 1292:1 1300:1 1313:1 1329:1 1334:1 1348:1 1350:1 1356:1 1357:1 1374:1
1 246:1 559:1 634:1 907:1 1292:1 1313:1 1356:1 1357:1 1374:3
1 246:1 559:1 634:1 907:1 1292:1 1313:1 1356:1 1357:1 1374:3
1 246:1 559:1 634:1 907:1 1292:1 1313:1 1356:1 1357:1 1374:3
1 1374:3
1 246:1 559:1 907:1 1292:1 1313:1 1356:1 1374:3
1 131:1 246:1 406:1 407:1 541:1 559:1 895:1 1152:1 1225:1 1235:1 1236:1 1292:1 1300:1 1313:1 1334:1 1350:1 1374:3
1 246:2 349:1 511:1 541:1 559:2 681:1 1231:1 1286:1 1292:2 1300:1 1313:2 1354:1 1374:9 1376:1
1 246:1 559:1 634:1 907:1 1292:1 1313:1 1356:1 1357:1 1374:3
1 131:1 559:1 621:1 681:1 907:1 981:1 1225:1 1231:1 1239:1 1313:1 1348:1 1356:1 1374:2
1 246:1 559:1 681:1 907:1 1231:1 1292:1 1313:1 1356:1 1374:2
1 1374:2
1 246:1 460:1 541:1 559:1 681:1 907:1 1231:1 1265:1 1292:1 1300:1 1313:1 1356:1 1374:3
1 131:1 246:1 300:1 406:1 407:1 460:1 541:1 559:1 621:1 634:1 681:1 701:1 895:1 907:1 978:1 981:1 1152:1 1225:1 1231:1 1235:1 1236:1 1237:1 1239:1 1241:1 1265:1 1292:1 1300:1 1313:1 1329:1 1334:1 1348:1 1350:1 1356:1 1357:1 1374:2
1 246:1 559:1 634:1 907:1 1292:1 1313:1 1356:1 1357:1 1374:3
1 246:1 559:1 634:1 907:1 1292:1 1313:1 1356:1 1357:1 1374:3
1 246:1 559:1 681:1 907:1 1231:1 1292:1 1313:1 1356:1 1374:6
1 131:1 246:1 300:1 406:1 407:1 460:1 541:1 559:1 621:1 634:1 681:1 701:1 895:1 907:1 978:1 981:1 1152:1 1225:1 1231:1 1235:1 1236:1 1237:1 1239:1 1241:1 1265:1 1292:1 1300:1 1313:1 1329:1 1334:1 1348:1 1350:1 1356:1 1357:1 1374:2
1 246:1 559:1 634:1 907:1 1292:1 1313:1 1356:1 1357:1 1374:3
1 131:1 246:1 406:1 407:1 541:1 559:1 895:1 1152:1 1225:1 1235:1 1236:1 1292:1 1300:1 1313:1 1334:1 1350:1 1374:3
1 246:1 541:1 559:1 681:1 907:1 1231:1 1292:1 1300:1 1313:1 1356:1 1374:2
1 246:1 460:1 541:1 559:1 681:1 701:1 907:1 978:1 981:1 1231:1 1237:1 1239:1 1241:1 1265:1 1292:1 1300:1 1313:1 1356:1 1374:2
1 246:1 559:1 634:1 907:1 1292:1 1313:1 1356:1 1357:1 1374:3
1 246:1 559:1 634:1 907:1 1292:1 1313:1 1356:1 1357:1 1374:3
1 131:1 246:1 300:1 406:1 407:1 460:1 541:1 559:1 621:1 634:1 681:1 701:1 895:1 907:1 978:1 981:1 1152:1 1225:1 1231:1 1235:1 1236:1 1237:1 1239:1 1241:1 1265:1 1292:1 1300:1 1313:1 1329:1 1334:1 1348:1 1350:1 1356:1 1357:1 1374:1
1 246:1 559:1 634:1 907:1 1292:1 1313:1 1356:1 1357:1 1374:3
1 246:1 559:1 634:1 907:1 1292:1 1313:1 1356:1 1357:1 1374:4
1 246:1 559:1 681:1 701:1 907:1 1231:1 1241:1 1292:1 1313:1 1356:1 1374:2
1 246:1 559:1 634:1 907:1 1292:1 1313:1 1356:1 1357:1 1374:3
1 131:1 246:1 300:1 406:1 407:1 460:1 541:1 559:1 621:1 634:1 681:1 701:1 895:1 907:1 978:1 981:1 1152:1 1225:1 1231:1 1235:1 1236:1 1237:1 1239:1 1241:1 1265:1 1292:1 1300:1 1313:1 1329:1 1334:1 1348:1 1350:1 1356:1 1357:1 1374:2
1 131:1 559:1 621:1 681:1 907:1 981:1 1225:1 1231:1 1239:1 1313:1 1348:1 1356:1 1374:1
1 131:1 246:1 300:1 406:1 407:1 460:1 541:1 559:1 621:1 634:1 681:1 701:1 895:1 907:1 978:1 981:1 1152:1 1225:1 1231:1 1235:1 1236:1 1237:1 1239:1 1241:1 1265:1 1292:1 1300:1 1313:1 1329:1 1334:1 1348:1 1350:1 1356:1 1357:1 1374:2
1 246:1 559:1 634:1 907:1 1292:1 1313:1 1356:1 1357:1 1374:3
1 246:1 559:1 634:1 907:1 1292:1 1313:1 1356:1 1357:1 1374:3
1 246:1 559:1 634:1 907:1 1292:1 1313:1 1356:1 1357:1 1374:3
1 246:1 559:1 634:1 907:1 1292:1 1313:1 1356:1 1357:1 1374:3
1 246:1 365:1 460:1 541:1 559:1 681:1 978:1 1231:1 1237:1 1265:1 1292:1 1300:1 1313:1 1370:1 1374:2
1 1374:3
1 246:1 559:1 634:1 907:1 1292:1 1313:1 1356:1 1357:1 1374:3
1 246:1 559:1 681:1 907:1 1231:1 1292:1 1313:1 1356:1 1374:5
1 246:1 559:1 681:1 907:1 1231:1 1292:1 1313:1 1356:1 1374:5
1 246:1 559:1 634:1 907:1 1292:1 1313:1 1356:1 1357:1 1374:3
1 246:1 300:1 406:1 407:1 460:1 559:1 634:1 681:1 701:1 895:1 907:1 981:1 1152:1 1231:1 1235:1 1236:1 1239:1 1241:1 1265:1 1292:1 1313:1 1329:1 1334:1 1350:1 1356:1 1357:1 1374:2
1 246:1 300:1 406:1 407:1 460:1 559:1 634:1 681:1 701:1 895:1 907:1 981:1 1152:1 1231:1 1235:1 1236:1 1239:1 1241:1 1265:1 1292:1 1313:1 1329:1 1334:1 1350:1 1356:1 1357:1 1374:2
1 246:1 559:1 634:1 907:1 1292:1 1313:1 1356:1 1357:1 1374:3
1 246:1 460:1 541:1 559:1 681:1 907:1 981:1 1231:1 1239:1 1265:1 1292:1 1300:1 1313:1 1356:1 1374:4
1 246:1 541:1 559:1 681:1 907:1 1231:1 1292:1 1300:1 1313:1 1356:1 1374:2
1 246:1 559:1 634:1 907:1 1292:1 1313:1 1356:1 1357:1 1374:3
1 246:1 559:1 634:1 907:1 1292:1 1313:1 1356:1 1357:1 1374:3
1 131:1 246:1 406:1 407:1 541:1 559:1 895:1 1152:1 1225:1 1235:1 1236:1 1292:1 1300:1 1313:1 1334:1 1350:1 1374:3
1 246:1 300:1 406:1 407:1 460:1 559:1 634:1 681:1 701:1 895:1 907:1 981:1 1152:1 1231:1 1235:1 1236:1 1239:1 1241:1 1265:1 1292:1 1313:1 1329:1 1334:1 1350:1 1356:1 1357:1 1374:2
1 246:1 559:1 634:1 907:1 1292:1 1313:1 1356:1 1357:1 1374:3
1 131:1 246:1 300:1 406:1 407:1 460:1 541:1 559:1 621:1 634:1 681:1 701:1 895:1 907:1 978:1 981:1 1152:1 1225:1 1231:1 1235:1 1236:1 1237:1 1239:1 1241:1 1265:1 1292:1 1300:1 1313:1 1329:1 1334:1 1348:1 1350:1 1356:1 1357:1 1374:2
1 246:1 559:1 907:1 1292:1 1313:1 1356:1 1374:3
1 701:1 1241:1 1374:3
1 246:1 541:1 559:1 681:1 907:1 1231:1 1292:1 1300:1 1313:1 1356:1 1374:2
1 246:1 559:1 634:1 907:1 1292:1 1313:1 1356:1 1357:1 1374:3
1 246:1 559:1 681:1 907:1 1231:1 1292:1 1313:1 1356:1 1374:2
1 246:1 559:1 907:1 1292:1 1313:1 1356:1 1374:3
1 246:1 559:1 681:1 907:1 981:1 1231:1 1239:1 1292:1 1313:1 1356:1 1374:4
1 246:1 559:1 1292:1 1313:1 1374:1
1 246:1 559:1 634:1 907:1 1292:1 1313:1 1356:1 1357:1 1374:3
1 246:1 541:1 559:1 681:1 701:1 907:1 1231:1 1241:1 1292:1 1300:1 1313:1 1356:1 1374:4
1 131:1 246:1 300:1 406:1 407:1 460:1 541:1 559:1 621:1 634:1 681:1 701:1 895:1 907:1 978:1 981:1 1152:1 1225:1 1231:1 1235:1 1236:1 1237:1 1239:1 1241:1 1265:1 1292:1 1300:1 1313:1 1329:1 1334:1 1348:1 1350:1 1356:1 1357:1 1374:2
1 131:1 246:1 300:1 406:1 407:1 460:1 541:1 559:1 621:1 634:1 681:1 701:1 895:1 907:1 978:1 981:1 1152:1 1225:1 1231:1 1235:1 1236:1 1237:1 1239:1 1241:1 1265:1 1292:1 1300:1 1313:1 1329:1 1334:1 1348:1 1350:1 1356:1 1357:1 1374:2
1 246:1 559:1 681:1 907:1 1231:1 1292:1 1313:1 1356:1 1374:2
1 246:1 559:1 681:1 907:1 981:1 1231:1 1239:1 1292:1 1313:1 1356:1 1374:2
1 246:1 559:1 634:1 907:1 1292:1 1313:1 1356:1 1357:1 1374:3
1 131:1 246:1 300:1 406:1 407:1 460:1 541:1 559:1 621:1 634:1 681:1 701:1 895:1 907:1 978:1 981:1 1152:1 1225:1 1231:1 1235:1 1236:1 1237:1 1239:1 1241:1 1265:1 1292:1 1300:1 1313:1 1329:1 1334:1 1348:1 1350:1 1356:1 1357:1 1374:2
1 246:1 559:1 621:1 681:1 701:1 907:1 978:1 1231:1 1237:1 1241:1 1292:1 1313:1 1348:1 1356:1 1374:1
1 246:1 559:1 681:1 907:1 1231:1 1292:1 1313:1 1356:1 1374:4
1 246:1 349:1 365:1 460:1 541:1 559:1 681:1 907:1 978:1 981:1 1231:1 1237:1 1239:1 1265:1 1292:1 1300:1 1313:1 1354:1 1356:1 1370:1 1374:2
1 246:1 559:1 634:1 907:1 1292:1 1313:1 1356:1 1357:1 1374:3
1 131:1 246:1 300:1 406:1 407:1 460:1 541:1 559:1 621:1 634:1 681:1 701:1 895:1 907:1 978:1 981:1 1152:1 1225:1 1231:1 1235:1 1236:1 1237:1 1239:1 1241:1 1265:1 1292:1 1300:1 1313:1 1329:1 1334:1 1348:1 1350:1 1356:1 1357:1 1374:2
1 246:1 559:1 634:1 907:1 1292:1 1313:1 1356:1 1357:1 1374:3
1 246:1 460:1 541:1 559:1 681:1 701:1 907:1 978:1 1231:1 1237:1 1241:1 1265:1 1292:1 1300:1 1313:1 1356:1 1374:4
1 246:1 559:1 634:1 907:1 1292:1 1313:1 1356:1 1357:1 1374:3
1 246:1 559:1 634:1 907:1 1292:1 1313:1 1356:1 1357:1 1374:3
1 246:1 559:1 634:1 907:1 1292:1 1313:1 1356:1 1357:1 1374:3
1 131:1 246:1 300:1 406:1 407:1 460:1 541:1 559:1 621:1 634:1 681:1 701:1 895:1 907:1 978:1 981:1 1152:1 1225:1 1231:1 1235:1 1236:1 1237:1 1239:1 1241:1 1265:1 1292:1 1300:1 1313:1 1329:1 1334:1 1348:1 1350:1 1356:1 1357:1 1374:2
1 246:1 559:1 634:1 907:1 1292:1 1313:1 1356:1 1357:1 1374:3
1 246:1 559:1 634:1 907:1 1292:1 1313:1 1356:1 1357:1 1374:3
1 1374:3
1 246:1 559:1 634:1 907:1 1292:1 1313:1 1356:1 1357:1 1374:3
1 246:1 559:1 681:1 907:1 1231:1 1292:1 1313:1 1356:1 1374:5
1 246:1 559:1 634:1 907:1 1292:1 1313:1 1356:1 1357:1 1374:3
1 246:1 559:1 634:1 907:1 1292:1 1313:1 1356:1 1357:1 1374:3
1 246:1 559:1 634:1 907:1 1292:1 1313:1 1356:1 1357:1 1374:3
1 246:1 559:1 634:1 907:1 1292:1 1313:1 1356:1 1357:1 1374:3
1 1374:3
1 246:1 559:1 634:1 907:1 1292:1 1313:1 1356:1 1357:1 1374:3
1 246:1 559:1 634:1 907:1 1292:1 1313:1 1356:1 1357:1 1374:3
1 246:1 559:1 634:1 907:1 1292:1 1313:1 1356:1 1357:1 1374:3
1 1374:3
1 1374:3
1 131:1 246:1 300:1 406:1 407:1 460:1 541:1 559:1 621:1 634:1 681:1 701:1 895:1 907:1 978:1 981:1 1152:1 1225:1 1231:1 1235:1 1236:1 1237:1 1239:1 1241:1 1265:1 1292:1 1300:1 1313:1 1329:1 1334:1 1348:1 1350:1 1356:1 1357:1 1374:1
1 246:1 559:1 634:1 907:1 1292:1 1313:1 1356:1 1357:1 1374:3
1 246:1 559:1 634:1 907:1 1292:1 1313:1 1356:1 1357:1 1374:3
1 131:1 246:1 300:1 406:1 407:1 460:1 541:1 559:1 621:1 634:1 681:1 701:1 895:1 907:1 978:1 981:1 1152:1 1225:1 1231:1 1235:1 1236:1 1237:1 1239:1 1241:1 1265:1 1292:1 1300:1 1313:1 1329:1 1334:1 1348:1 1350:1 1356:1 1357:1 1374:2
1 1374:3
1 246:1 559:1 634:1 907:1 1292:1 1313:1 1356:1 1357:1 1374:3
1 246:1 559:1 634:1 907:1 1292:1 1313:1 1356:1 1357:1 1374:3
1 1374:2
1 131:1 559:1 621:1 681:1 907:1 981:1 1225:1 1231:1 1239:1 1313:1 1348:1 1356:1 1374:2
1 246:1 559:1 634:1 907:1 1292:1 1313:1 1356:1 1357:1 1374:3
1 175:1 246:1 349:1 460:1 486:1 525:1 541:1 559:1 681:1 699:1 907:1 981:1 1231:1 1239:1 1240:1 1251:1 1261:1 1265:1 1275:1 1292:1 1294:1 1300:1 1313:1 1354:1 1356:1 1374:2 1376:1
1 701:1 1241:1 1374:3
1 246:1 559:1 634:1 907:1 1292:1 1313:1 1356:1 1357:1 1374:3
1 246:1 460:1 541:1 559:1 681:1 907:1 1231:1 1265:1 1292:1 1300:1 1313:1 1356:1 1374:3
1 246:1 559:1 634:1 907:1 1292:1 1313:1 1356:1 1357:1 1374:3
1 701:1 1241:1 1374:3
1 246:1 559:1 634:1 907:1 1292:1 1313:1 1356:1 1357:1 1374:3
1 246:1 559:1 634:1 907:1 1292:1 1313:1 1356:1 1357:1 1374:3
1 246:1 460:1 541:1 559:1 681:1 907:1 1231:1 1265:1 1292:1 1300:1 1313:1 1356:1 1374:2
1 246:1 559:1 634:1 907:1 1292:1 1313:1 1356:1 1357:1 1374:3
1 246:1 541:1 559:1 681:1 701:1 907:1 978:1 981:1 1231:1 1237:1 1239:1 1241:1 1292:1 1300:1 1313:1 1356:1 1374:2
1 246:1 559:1 634:1 907:1 1292:1 1313:1 1356:1 1357:1 1374:3
1 131:1 246:1 300:1 406:1 407:1 460:1 541:1 559:1 621:1 634:1 681:1 701:1 895:1 907:1 978:1 981:1 1152:1 1225:1 1231:1 1235:1 1236:1 1237:1 1239:1 1241:1 1265:1 1292:1 1300:1 1313:1 1329:1 1334:1 1348:1 1350:1 1356:1 1357:1 1374:2
1 246:1 460:1 541:1 559:1 681:1 907:1 1231:1 1265:1 1292:1 1300:1 1313:1 1356:1 1374:3
1 1374:3
1 246:1 559:1 634:1 907:1 1292:1 1313:1 1356:1 1357:1 1374:3
1 246:1 559:1 634:1 907:1 1292:1 1313:1 1356:1 1357:1 1374:3
1 246:1 559:1 634:1 907:1 1292:1 1313:1 1356:1 1357:1 1374:3
1 246:1 559:1 634:1 907:1 1292:1 1313:1 1356:1 1357:1 1374:3
1 246:1 559:1 634:1 907:1 1292:1 1313:1 1356:1 1357:1 1374:3
1 246:1 559:1 634:1 907:1 1292:1 1313:1 1356:1 1357:1 1374:3
1 246:1 559:1 634:1 907:1 1292:1 1313:1 1356:1 1357:1 1374:3
1 1374:3
1 246:1 559:1 634:1 907:1 1292:1 1313:1 1356:1 1357:1 1374:3
1 246:1 559:1 634:1 907:1 1292:1 1313:1 1356:1 1357:1 1374:3
1 246:1 559:1 681:1 907:1 1231:1 1292:1 1313:1 1356:1 1374:5
1 131:1 246:1 300:1 406:1 407:1 460:1 541:1 559:1 621:1 634:1 681:1 701:1 895:1 907:1 978:1 981:1 1152:1 1225:1 1231:1 1235:1 1236:1 1237:1 1239:1 1241:1 1265:1 1292:1 1300:1 1313:1 1329:1 1334:1 1348:1 1350:1 1356:1 1357:1 1374:2
1 246:1 559:1 634:1 907:1 1292:1 1313:1 1356:1 1357:1 1374:3
1 1374:3
1 246:1 559:1 634:1 907:1 1292:1 1313:1 1356:1 1357:1 1374:3
1 246:1 559:1 1292:1 1313:1 1374:3
1 246:1 460:1 541:1 559:1 681:1 701:1 907:1 978:1 981:1 1231:1 1237:1 1239:1 1241:1 1265:1 1292:1 1300:1 1313:1 1356:1 1374:2
1 246:1 559:1 634:1 907:1 1292:1 1313:1 1356:1 1357:1 1374:3
1 246:1 559:1 907:1 1292:1 1313:1 1356:1 1374:3
1 246:1 559:1 634:1 907:1 1292:1 1313:1 1356:1 1357:1 1374:3
1 246:1 559:1 681:1 907:1 1231:1 1292:1 1313:1 1356:1 1374:2
1 1374:3
1 131:1 246:1 300:1 406:1 407:1 460:1 541:1 559:1 621:1 634:1 681:1 701:1 895:1 907:1 978:1 981:1 1152:1 1225:1 1231:1 1235:1 1236:1 1237:1 1239:1 1241:1 1265:1 1292:1 1300:1 1313:1 1329:1 1334:1 1348:1 1350:1 1356:1 1357:1 1374:1
1 131:1 246:1 300:1 406:1 407:1 460:1 541:1 559:1 621:1 634:1 681:1 701:1 895:1 907:1 978:1 981:1 1152:1 1225:1 1231:1 1235:1 1236:1 1237:1 1239:1 1241:1 1265:1 1292:1 1300:1 1313:1 1329:1 1334:1 1348:1 1350:1 1356:1 1357:1 1374:2
1 246:1 559:1 681:1 907:1 1231:1 1292:1 1313:1 1356:1 1374:6
1 246:1 559:1 681:1 907:1 1231:1 1292:1 1313:1 1356:1 1374:2
1 246:1 460:1 541:1 559:1 681:1 701:1 907:1 981:1 1231:1 1239:1 1241:1 1265:1 1292:1 1300:1 1313:1 1356:1 1374:2
1 246:1 559:1 681:1 907:1 1231:1 1292:1 1313:1 1356:1 1374:3
1 246:1 559:1 634:1 907:1 1292:1 1313:1 1356:1 1357:1 1374:3
1 246:1 559:1 681:1 907:1 1231:1 1292:1 1313:1 1356:1 1374:5
1 246:1 559:1 634:1 907:1 1292:1 1313:1 1356:1 1357:1 1374:3
1 246:1 300:1 406:1 460:1 559:1 634:1 681:1 701:1 1231:1 1236:1 1241:1 1265:1 1292:1 1313:1 1329:1 1357:1 1374:2
1 246:1 559:1 634:1 907:1 1292:1 1313:1 1356:1 1357:1 1374:3
1 246:1 460:1 541:1 559:1 681:1 701:1 907:1 981:1 1231:1 1239:1 1241:1 1265:1 1292:1 1300:1 1313:1 1356:1 1374:2
1 246:1 559:1 634:1 907:1 1292:1 1313:1 1356:1 1357:1 1374:3
1 701:1 1241:1 1374:3
1 246:2 349:1 511:1 541:1 559:2 681:1 1231:1 1286:1 1292:2 1300:1 1313:2 1354:1 1374:9 1376:1
1 246:1 559:1 681:1 907:1 1231:1 1292:1 1313:1 1356:1 1374:2
1 701:1 1241:1 1374:3
1 246:1 559:1 634:1 907:1 1292:1 1313:1 1356:1 1357:1 1374:3
1 1374:3
1 131:1 246:1 300:1 406:1 407:1 460:1 541:1 559:1 621:1 634:1 681:1 701:1 895:1 907:1 978:1 981:1 1152:1 1225:1 1231:1 1235:1 1236:1 1237:1 1239:1 1241:1 1265:1 1292:1 1300:1 1313:1 1329:1 1334:1 1348:1 1350:1 1356:1 1357:1 1374:2
1 382:1 559:1 1219:1 1313:1 1374:5
1 246:1 559:1 634:1 907:1 1292:1 1313:1 1356:1 1357:1 1374:3
1 701:1 1241:1 1374:3
1 701:1 1241:1 1374:3
1 246:1 559:1 634:1 907:1 1292:1 1313:1 1356:1 1357:1 1374:3
1 246:1 559:1 681:1 907:1 1231:1 1292:1 1313:1 1356:1 1374:3
1 701:1 1241:1 1374:3
1 246:1 559:1 1292:1 1313:1 1374:2
1 701:1 1241:1 1374:2
1 1374:3
1 246:1 460:1 541:1 559:1 681:1 907:1 1231:1 1265:1 1292:1 1300:1 1313:1 1356:1 1374:2
1 1374:3
1 131:1 246:1 300:1 406:1 407:1 460:1 541:1 559:1 621:1 634:1 681:1 701:1 895:1 907:1 978:1 981:1 1152:1 1225:1 1231:1 1235:1 1236:1 1237:1 1239:1 1241:1 1265:1 1292:1 1300:1 1313:1 1329:1 1334:1 1348:1 1350:1 1356:1 1357:1 1374:1
1 131:1 246:1 406:1 407:1 541:1 559:1 895:1 1152:1 1225:1 1235:1 1236:1 1292:1 1300:1 1313:1 1334:1 1350:1 1374:3
1 131:1 246:1 300:1 406:1 407:1 460:1 541:1 559:1 621:1 634:1 681:1 701:1 895:1 907:1 978:1 981:1 1152:1 1225:1 1231:1 1235:1 1236:1 1237:1 1239:1 1241:1 1265:1 1292:1 1300:1 1313:1 1329:1 1334:1 1348:1 1350:1 1356:1 1357:1 1374:2
1 246:1 559:1 634:1 907:1 1292:1 1313:1 1356:1 1357:1 1374:3
1 246:1 559:1 681:1 1231:1 1292:1 1313:1 1374:2
1 246:1 460:1 541:1 559:1 681:1 701:1 907:1 981:1 1231:1 1239:1 1241:1 1265:1 1292:1 1300:1 1313:1 1356:1 1374:2 1376:59
1 246:1 559:1 634:1 907:1 1292:1 1313:1 1356:1 1357:1 1374:3
1 246:1 300:1 406:1 407:1 460:1 559:1 634:1 681:1 701:1 895:1 907:1 981:1 1152:1 1231:1 1235:1 1236:1 1239:1 1241:1 1265:1 1292:1 1313:1 1329:1 1334:1 1350:1 1356:1 1357:1 1374:1
1 246:1 559:1 634:1 907:1 1292:1 1313:1 1356:1 1357:1 1374:3
1 246:1 559:1 681:1 907:1 1231:1 1292:1 1313:1 1356:1 1374:2
1 246:1 559:1 634:1 907:1 1292:1 1313:1 1356:1 1357:1 1374:3
1 246:1 559:1 681:1 907:1 1231:1 1292:1 1313:1 1356:1 1374:3
1 246:1 559:1 634:1 907:1 1292:1 1313:1 1356:1 1357:1 1374:3
1 246:1 559:1 681:1 701:1 907:1 1231:1 1241:1 1292:1 1313:1 1356:1 1374:2
1 131:1 246:1 300:1 406:1 407:1 460:1 541:1 559:1 621:1 634:1 681:1 701:1 895:1 907:1 978:1 981:1 1152:1 1225:1 1231:1 1235:1 1236:1 1237:1 1239:1 1241:1 1265:1 1292:1 1300:1 1313:1 1329:1 1334:1 1348:1 1350:1 1356:1 1357:1 1374:2
1 246:1 559:1 681:1 907:1 1231:1 1292:1 1313:1 1356:1 1374:3
1 246:1 559:1 681:1 907:1 1231:1 1292:1 1313:1 1356:1 1374:6
1 131:1 246:1 300:1 406:1 407:1 460:1 541:1 559:1 621:1 634:1 681:1 701:1 895:1 907:1 978:1 981:1 1152:1 1225:1 1231:1 1235:1 1236:1 1237:1 1239:1 1241:1 1265:1 1292:1 1300:1 1313:1 1329:1 1334:1 1348:1 1350:1 1356:1 1357:1 1374:1
1 131:1 246:1 300:1 406:1 407:1 460:1 541:1 559:1 621:1 634:1 681:1 701:1 895:1 907:1 978:1 981:1 1152:1 1225:1 1231:1 1235:1 1236:1 1237:1 1239:1 1241:1 1265:1 1292:1 1300:1 1313:1 1329:1 1334:1 1348:1 1350:1 1356:1 1357:1 1374:2
1 246:1 559:1 634:1 907:1 1292:1 1313:1 1356:1 1357:1 1374:3
1 246:1 559:1 1292:1 1313:1 1374:2
1 128:1 246:1 298:1 334:1 486:1 559:1 634:1 681:1 755:1 1223:1 1231:1 1266:1 1275:1 1292:1 1313:1 1328:1 1346:1 1357:1 1374:3 1376:36
1 246:1 559:1 634:1 907:1 1292:1 1313:1 1356:1 1357:1 1374:3
1 1374:3
1 246:1 559:1 634:1 907:1 1292:1 1313:1 1356:1 1357:1 1374:3
1 701:1 1241:1 1374:2
1 246:1 559:1 634:1 907:1 1292:1 1313:1 1356:1 1357:1 1374:3
1 131:1 246:1 300:1 406:1 407:1 460:1 541:1 559:1 621:1 634:1 681:1 701:1 895:1 907:1 978:1 981:1 1152:1 1225:1 1231:1 1235:1 1236:1 1237:1 1239:1 1241:1 1265:1 1292:1 1300:1 1313:1 1329:1 1334:1 1348:1 1350:1 1356:1 1357:1 1374:2
1 246:1 559:1 1292:1 1313:1 1374:1
1 246:1 559:1 634:1 907:1 1292:1 1313:1 1356:1 1357:1 1374:3
1 246:1 559:1 1292:1 1313:1 1374:2
1 246:1 559:1 634:1 907:1 1292:1 1313:1 1356:1 1357:1 1374:3
1 246:1 559:1 634:1 907:1 1292:1 1313:1 1356:1 1357:1 1374:3
1 246:1 559:1 634:1 907:1 1292:1 1313:1 1356:1 1357:1 1374:3
1 246:1 559:1 634:1 907:1 1292:1 1313:1 1356:1 1357:1 1374:3
1 1374:3
1 246:1 559:1 1292:1 1313:1 1374:3
1 246:1 559:1 634:1 907:1 1292:1 1313:1 1356:1 1357:1 1374:3
1 131:1 246:1 300:1 406:1 407:1 460:1 541:1 559:1 621:1 634:1 681:1 701:1 895:1 907:1 978:1 981:1 1152:1 1225:1 1231:1 1235:1 1236:1 1237:1 1239:1 1241:1 1265:1 1292:1 1300:1 1313:1 1329:1 1334:1 1348:1 1350:1 1356:1 1357:1 1374:2
1 246:1 559:1 1292:1 1313:1 1374:2
1 246:1 559:1 634:1 907:1 1292:1 1313:1 1356:1 1357:1 1374:3
1 246:1 559:1 634:1 907:1 1292:1 1313:1 1356:1 1357:1 1374:3
1 131:1 246:1 300:1 406:1 407:1 460:1 541:1 559:1 621:1 634:1 681:1 701:1 895:1 907:1 978:1 981:1 1152:1 1225:1 1231:1 1235:1 1236:1 1237:1 1239:1 1241:1 1265:1 1292:1 1300:1 1313:1 1329:1 1334:1 1348:1 1350:1 1356:1 1357:1 1374:1
1 246:1 349:1 406:1 559:1 634:1 681:1 701:1 907:1 978:1 981:1 1231:1 1236:1 1237:1 1239:1 1241:1 1292:1 1313:1 1354:1 1356:1 1357:1 1374:5
1 246:1 559:1 907:1 1292:1 1313:1 1356:1 1374:3
1 246:1 460:1 541:1 559:1 681:1 907:1 1231:1 1265:1 1292:1 1300:1 1313:1 1356:1 1374:2
1 246:1 559:1 681:1 907:1 1231:1 1292:1 1313:1 1356:1 1374:2
1 246:1 559:1 634:1 907:1 1292:1 1313:1 1356:1 1357:1 1374:3
1 131:1 246:1 300:1 406:1 407:1 460:1 541:1 559:1 621:1 634:1 681:1 701:1 895:1 907:1 978:1 981:1 1152:1 1225:1 1231:1 1235:1 1236:1 1237:1 1239:1 1241:1 1265:1 1292:1 1300:1 1313:1 1329:1 1334:1 1348:1 1350:1 1356:1 1357:1 1374:1
1 246:1 559:1 634:1 907:1 1292:1 1313:1 1356:1 1357:1 1374:3
1 131:1 175:1 246:1 334:1 349:1 460:1 486:1 536:1 541:1 559:1 621:1 634:1 681:1 701:1 810:1 837:1 907:1 978:1 981:1 1207:1 1225:1 1231:1 1237:1 1239:1 1241:1 1251:1 1265:1 1275:1 1291:1 1292:1 1297:1 1300:1 1302:1 1313:1 1346:1 1348:1 1354:1 1356:1 1357:1 1369:1 1374:2 1376:4
1 246:1 300:1 406:1 407:1 460:1 559:1 621:1 634:1 681:1 701:1 895:1 907:1 981:1 1152:1 1231:1 1235:1 1236:1 1239:1 1241:1 1265:1 1292:1 1313:1 1329:1 1334:1 1348:1 1350:1 1356:1 1357:1 1374:1
1 246:1 559:1 634:1 907:1 1292:1 1313:1 1356:1 1357:1 1374:3
1 246:1 559:1 634:1 907:1 1292:1 1313:1 1356:1 1357:1 1374:3
1 246:1 460:1 541:1 559:1 681:1 907:1 1231:1 1265:1 1292:1 1300:1 1313:1 1356:1 1374:3
1 1374:3
1 1374:3
1 246:1 559:1 634:1 907:1 1292:1 1313:1 1356:1 1357:1 1374:3
1 246:1 559:1 634:1 907:1 1292:1 1313:1 1356:1 1357:1 1374:3
1 1374:3
1 1374:3
1 246:1 559:1 634:1 907:1 1292:1 1313:1 1356:1 1357:1 1374:3
1 246:1 559:1 634:1 907:1 1292:1 1313:1 1356:1 1357:1 1374:3
1 246:1 541:1 559:1 681:1 907:1 1231:1 1292:1 1300:1 1313:1 1356:1 1374:3
1 246:1 365:1 460:1 541:1 559:1 681:1 701:1 907:1 978:1 981:1 1231:1 1237:1 1239:1 1241:1 1265:1 1292:1 1300:1 1313:1 1356:1 1370:1 1374:2
1 1374:3
1 246:1 559:1 634:1 907:1 1292:1 1313:1 1356:1 1357:1 1374:3
1 131:1 559:1 621:1 681:1 907:1 981:1 1225:1 1231:1 1239:1 1313:1 1348:1 1356:1 1374:1
1 246:1 559:1 681:1 907:1 1231:1 1292:1 1313:1 1356:1 1374:2
1 246:1 300:1 406:1 407:1 460:1 559:1 634:1 681:1 701:1 895:1 907:1 981:1 1152:1 1231:1 1235:1 1236:1 1239:1 1241:1 1265:1 1292:1 1313:1 1329:1 1334:1 1350:1 1356:1 1357:1 1374:2
1 246:1 559:1 681:1 907:1 1231:1 1292:1 1313:1 1356:1 1374:2
1 246:1 460:1 541:1 559:1 681:1 701:1 907:1 978:1 981:1 1231:1 1237:1 1239:1 1241:1 1265:1 1292:1 1300:1 1313:1 1356:1 1374:4
1 246:1 559:1 634:1 907:1 1292:1 1313:1 1356:1 1357:1 1374:3
1 131:1 246:1 300:1 406:1 407:1 460:1 541:1 559:1 621:1 634:1 681:1 701:1 895:1 907:1 978:1 981:1 1152:1 1225:1 1231:1 1235:1 1236:1 1237:1 1239:1 1241:1 1265:1 1292:1 1300:1 1313:1 1329:1 1334:1 1348:1 1350:1 1356:1 1357:1 1374:2
1 246:1 460:1 541:1 559:1 681:1 701:1 907:1 978:1 1231:1 1237:1 1241:1 1265:1 1292:1 1300:1 1313:1 1356:1 1374:4
1 131:1 246:1 300:1 406:1 407:1 460:1 541:1 559:1 621:1 634:1 681:1 701:1 895:1 907:1 978:1 981:1 1152:1 1225:1 1231:1 1235:1 1236:1 1237:1 1239:1 1241:1 1265:1 1292:1 1300:1 1313:1 1329:1 1334:1 1348:1 1350:1 1356:1 1357:1 1374:2
1 1374:3
1 246:1 559:1 634:1 907:1 1292:1 1313:1 1356:1 1357:1 1374:3
1 246:1 559:1 634:1 907:1 1292:1 1313:1 1356:1 1357:1 1374:3
1 246:1 559:1 634:1 907:1 1292:1 1313:1 1356:1 1357:1 1374:3
1 246:1 349:1 460:1 541:1 559:1 634:1 681:1 907:1 1231:1 1265:1 1292:1 1300:1 1313:1 1354:1 1356:1 1357:1 1374:4
1 246:1 559:1 634:1 907:1 1292:1 1313:1 1356:1 1357:1 1374:3
1 1374:3
1 246:1 559:1 681:1 701:1 907:1 1231:1 1241:1 1292:1 1313:1 1356:1 1374:2
1 1374:3
1 131:1 246:1 300:1 406:1 407:1 460:1 541:1 559:1 621:1 634:1 681:1 701:1 895:1 907:1 978:1 981:1 1152:1 1225:1 1231:1 1235:1 1236:1 1237:1 1239:1 1241:1 1265:1 1292:1 1300:1 1313:1 1329:1 1334:1 1348:1 1350:1 1356:1 1357:1 1374:2
1 559:1 681:1 907:1 1231:1 1313:1 1356:1 1374:3
1 1374:3
1 246:1 349:1 460:1 541:1 559:1 681:1 907:1 1231:1 1265:1 1292:1 1300:1 1313:1 1354:1 1356:1 1374:2
1 246:1 559:1 634:1 907:1 1292:1 1313:1 1356:1 1357:1 1374:3
1 246:1 559:1 634:1 907:1 1292:1 1313:1 1356:1 1357:1 1374:2
1 701:1 1241:1 1374:3
1 246:1 559:1 634:1 907:1 1292:1 1313:1 1356:1 1357:1 1374:3
1 246:1 559:1 634:1 907:1 1292:1 1313:1 1356:1 1357:1 1374:3
1 246:1 559:1 634:1 907:1 1292:1 1313:1 1356:1 1357:1 1374:3
1 246:1 349:1 406:1 559:1 634:1 681:1 701:1 907:1 978:1 981:1 1231:1 1236:1 1237:1 1239:1 1241:1 1292:1 1313:1 1354:1 1356:1 1357:1 1374:5
1 246:1 559:1 634:1 907:1 1292:1 1313:1 1356:1 1357:1 1374:3
1 246:1 559:1 634:1 907:1 1292:1 1313:1 1356:1 1357:1 1374:3
1 246:1 559:1 634:1 907:1 1292:1 1313:1 1356:1 1357:1 1374:3
1 1374:3
1 131:1 246:1 460:1 486:1 525:1 541:1 559:1 576:1 606:1 621:1 681:1 701:1 837:1 907:1 981:1 1225:1 1231:1 1239:1 1241:1 1265:1 1275:1 1292:1 1294:1 1300:1 1302:1 1313:1 1325:1 1343:1 1348:1 1356:1 1374:3 1376:1
1 131:1 246:1 300:1 406:1 407:1 460:1 541:1 559:1 621:1 634:1 681:1 701:1 895:1 907:1 978:1 981:1 1152:1 1225:1 1231:1 1235:1 1236:1 1237:1 1239:1 1241:1 1265:1 1292:1 1300:1 1313:1 1329:1 1334:1 1348:1 1350:1 1356:1 1357:1 1374:2
1 246:1 559:1 634:1 907:1 1292:1 1313:1 1356:1 1357:1 1374:3
1 246:1 559:1 634:1 907:1 1292:1 1313:1 1356:1 1357:1 1374:3
1 246:1 559:1 681:1 907:1 1231:1 1292:1 1313:1 1356:1 1374:6
1 131:1 246:1 300:1 406:1 407:1 460:1 541:1 559:1 621:1 634:1 681:1 701:1 895:1 907:1 978:1 981:1 1152:1 1225:1 1231:1 1235:1 1236:1 1237:1 1239:1 1241:1 1265:1 1292:1 1300:1 1313:1 1329:1 1334:1 1348:1 1350:1 1356:1 1357:1 1374:2
1 131:1 246:1 300:1 406:1 407:1 460:1 541:1 559:1 621:1 634:1 681:1 701:1 895:1 907:1 978:1 981:1 1152:1 1225:1 1231:1 1235:1 1236:1 1237:1 1239:1 1241:1 1265:1 1292:1 1300:1 1313:1 1329:1 1334:1 1348:1 1350:1 1356:1 1357:1 1374:1
1 246:1 460:1 541:1 559:1 681:1 907:1 1231:1 1265:1 1292:1 1300:1 1313:1 1356:1 1374:2
1 246:1 559:1 634:1 907:1 1292:1 1313:1 1356:1 1357:1 1374:3
1 131:1 246:1 300:1 406:1 407:1 460:1 541:1 559:1 621:1 634:1 681:1 701:1 895:1 907:1 978:1 981:1 1152:1 1225:1 1231:1 1235:1 1236:1 1237:1 1239:1 1241:1 1265:1 1292:1 1300:1 1313:1 1329:1 1334:1 1348:1 1350:1 1356:1 1357:1 1374:2
1 131:1 246:1 300:1 406:1 407:1 460:1 541:1 559:1 621:1 634:1 681:1 701:1 895:1 907:1 978:1 981:1 1152:1 1225:1 1231:1 1235:1 1236:1 1237:1 1239:1 1241:1 1265:1 1292:1 1300:1 1313:1 1329:1 1334:1 1348:1 1350:1 1356:1 1357:1 1374:2
1 701:1 1241:1 1374:3
1 246:1 559:1 634:1 907:1 1292:1 1313:1 1356:1 1357:1 1374:3
1 246:1 559:1 634:1 907:1 1292:1 1313:1 1356:1 1357:1 1374:3
1 246:1 559:1 634:1 907:1 1292:1 1313:1 1356:1 1357:1 1374:2
1 246:1 559:1 634:1 907:1 1292:1 1313:1 1356:1 1357:1 1374:3
1 246:1 559:1 1292:1 1313:1 1374:2
1 246:1 300:1 406:1 541:1 559:1 634:1 681:1 701:1 1231:1 1236:1 1241:1 1292:1 1300:1 1313:1 1329:1 1357:1 1374:3
1 131:1 246:1 300:1 406:1 407:1 460:1 541:1 559:1 621:1 634:1 681:1 701:1 895:1 907:1 978:1 981:1 1152:1 1225:1 1231:1 1235:1 1236:1 1237:1 1239:1 1241:1 1265:1 1292:1 1300:1 1313:1 1329:1 1334:1 1348:1 1350:1 1356:1 1357:1 1374:1
1 246:1 559:1 634:1 907:1 1292:1 1313:1 1356:1 1357:1 1374:3
1 246:1 559:1 634:1 907:1 1292:1 1313:1 1356:1 1357:1 1374:3
1 246:1 349:1 406:1 559:1 634:1 681:1 701:1 907:1 978:1 981:1 1231:1 1236:1 1237:1 1239:1 1241:1 1292:1 1313:1 1354:1 1356:1 1357:1 1374:5
1 131:1 246:1 406:1 407:1 541:1 559:1 895:1 1152:1 1225:1 1235:1 1236:1 1292:1 1300:1 1313:1 1334:1 1350:1 1374:3
1 131:1 246:1 300:1 406:1 407:1 460:1 541:1 559:1 621:1 634:1 681:1 701:1 895:1 907:1 978:1 981:1 1152:1 1225:1 1231:1 1235:1 1236:1 1237:1 1239:1 1241:1 1265:1 1292:1 1300:1 1313:1 1329:1 1334:1 1348:1 1350:1 1356:1 1357:1 1374:2
1 246:1 559:1 634:1 907:1 1292:1 1313:1 1356:1 1357:1 1374:3
1 1374:3
1 246:1 559:1 634:1 907:1 1292:1 1313:1 1356:1 1357:1 1374:3
1 246:1 300:1 406:1 407:1 460:1 559:1 634:1 681:1 701:1 895:1 907:1 981:1 1152:1 1231:1 1235:1 1236:1 1239:1 1241:1 1265:1 1292:1 1313:1 1329:1 1334:1 1350:1 1356:1 1357:1 1374:1
1 701:1 1241:1 1374:3
1 246:1 559:1 634:1 907:1 1292:1 1313:1 1356:1 1357:1 1374:3
1 131:1 559:1 621:1 681:1 907:1 981:1 1225:1 1231:1 1239:1 1313:1 1348:1 1356:1 1374:2
1 246:1 559:1 681:1 907:1 1231:1 1292:1 1313:1 1356:1 1374:2
1 246:1 559:1 634:1 907:1 1292:1 1313:1 1356:1 1357:1 1374:3
1 701:1 1241:1 1374:2
1 246:1 460:1 541:1 559:1 681:1 701:1 907:1 981:1 1231:1 1239:1 1241:1 1265:1 1292:1 1300:1 1313:1 1356:1 1374:2
1 246:1 559:1 681:1 907:1 981:1 1231:1 1239:1 1292:1 1313:1 1356:1 1374:4
1 246:1 559:1 634:1 907:1 1292:1 1313:1 1356:1 1357:1 1374:3
1 227:1 246:1 541:1 559:1 681:1 907:1 981:1 1231:1 1239:1 1279:1 1292:1 1300:1 1313:1 1356:1 1374:3 1376:1
1 246:1 300:1 406:1 407:1 460:1 559:1 634:1 681:1 701:1 895:1 907:1 981:1 1152:1 1231:1 1235:1 1236:1 1239:1 1241:1 1265:1 1292:1 1313:1 1329:1 1334:1 1350:1 1356:1 1357:1 1374:2
1 246:1 559:1 634:1 907:1 1292:1 1313:1 1356:1 1357:1 1374:3
1 246:1 559:1 634:1 907:1 1292:1 1313:1 1356:1 1357:1 1374:3
1 246:1 559:1 634:1 907:1 1292:1 1313:1 1356:1 1357:1 1374:3
1 246:1 559:1 681:1 907:1 1231:1 1292:1 1313:1 1356:1 1374:2
1 246:1 559:1 681:1 701:1 907:1 1231:1 1241:1 1292:1 1313:1 1356:1 1374:2
1 1374:3
1 349:1 479:1 559:1 681:1 755:1 981:1 1231:1 1239:1 1266:1 1272:1 1313:1 1354:1 1374:3 1376:1
1 701:1 1241:1 1374:3
1 701:1 1241:1 1374:3
1 246:1 559:1 634:1 907:1 1292:1 1313:1 1356:1 1357:1 1374:3
1 1374:3
1 246:1 559:1 634:1 907:1 1292:1 1313:1 1356:1 1357:1 1374:3
1 246:1 559:1 634:1 907:1 1292:1 1313:1 1356:1 1357:1 1374:3
1 1374:3
1 246:1 300:1 406:1 407:1 460:1 559:1 634:1 681:1 701:1 895:1 907:1 981:1 1152:1 1231:1 1235:1 1236:1 1239:1 1241:1 1265:1 1292:1 1313:1 1329:1 1334:1 1350:1 1356:1 1357:1 1374:2
1 246:1 300:1 406:1 407:1 460:1 559:1 634:1 681:1 701:1 895:1 907:1 981:1 1152:1 1231:1 1235:1 1236:1 1239:1 1241:1 1265:1 1292:1 1313:1 1329:1 1334:1 1350:1 1356:1 1357:1 1374:2
1 246:1 559:1 634:1 907:1 1292:1 1313:1 1356:1 1357:1 1374:3
1 559:1 681:1 907:1 1231:1 1313:1 1356:1 1374:3
1 246:1 559:1 1292:1 1313:1 1374:3
1 246:1 559:1 634:1 907:1 1292:1 1313:1 1356:1 1357:1 1374:3
1 246:1 559:1 681:1 907:1 1231:1 1292:1 1313:1 1356:1 1374:6
1 246:1 541:1 559:1 681:1 907:1 1231:1 1292:1 1300:1 1313:1 1356:1 1374:3
1 246:1 300:1 406:1 407:1 460:1 559:1 634:1 681:1 701:1 895:1 907:1 981:1 1152:1 1231:1 1235:1 1236:1 1239:1 1241:1 1265:1 1292:1 1313:1 1329:1 1334:1 1350:1 1356:1 1357:1 1374:2
1 246:1 460:1 541:1 559:1 681:1 907:1 1231:1 1265:1 1292:1 1300:1 1313:1 1356:1 1374:2
1 246:1 559:1 634:1 907:1 1292:1 1313:1 1356:1 1357:1 1374:2
1 246:1 460:1 541:1 559:1 681:1 907:1 1231:1 1265:1 1292:1 1300:1 1313:1 1356:1 1374:2
1 131:1 246:1 300:1 406:1 407:1 460:1 541:1 559:1 621:1 634:1 681:1 701:1 895:1 907:1 978:1 981:1 1152:1 1225:1 1231:1 1235:1 1236:1 1237:1 1239:1 1241:1 1265:1 1292:1 1300:1 1313:1 1329:1 1334:1 1348:1 1350:1 1356:1 1357:1 1374:2
1 246:1 349:1 365:1 460:1 541:1 559:1 681:1 907:1 981:1 1231:1 1239:1 1265:1 1292:1 1300:1 1313:1 1354:1 1356:1 1370:1 1374:4
1 246:1 559:1 1292:1 1313:1 1374:2
1 131:1 246:1 300:1 406:1 407:1 460:1 541:1 559:1 621:1 634:1 681:1 701:1 895:1 907:1 978:1 981:1 1152:1 1225:1 1231:1 1235:1 1236:1 1237:1 1239:1 1241:1 1265:1 1292:1 1300:1 1313:1 1329:1 1334:1 1348:1 1350:1 1356:1 1357:1 1374:2
1 246:1 559:1 634:1 907:1 1292:1 1313:1 1356:1 1357:1 1374:3
1 246:1 559:1 634:1 907:1 1292:1 1313:1 1356:1 1357:1 1374:3
1 246:1 559:1 634:1 907:1 1292:1 1313:1 1356:1 1357:1 1374:3
1 246:1 559:1 634:1 907:1 1292:1 1313:1 1356:1 1357:1 1374:3
1 1374:4
1 246:1 559:1 634:1 907:1 1292:1 1313:1 1356:1 1357:1 1374:3
1 246:1 559:1 634:1 907:1 1292:1 1313:1 1356:1 1357:1 1374:3
1 131:1 246:1 300:1 406:1 407:1 460:1 541:1 559:1 621:1 634:1 681:1 701:1 895:1 907:1 978:1 981:1 1152:1 1225:1 1231:1 1235:1 1236:1 1237:1 1239:1 1241:1 1265:1 1292:1 1300:1 1313:1 1329:1 1334:1 1348:1 1350:1 1356:1 1357:1 1374:2
1 246:1 559:1 634:1 907:1 1292:1 1313:1 1356:1 1357:1 1374:3
1 246:1 559:1 634:1 907:1 1292:1 1313:1 1356:1 1357:1 1374:3
1 246:1 559:1 1292:1 1313:1 1374:2
1 131:1 246:1 300:1 406:1 407:1 460:1 541:1 559:1 621:1 634:1 681:1 701:1 895:1 907:1 978:1 981:1 1152:1 1225:1 1231:1 1235:1 1236:1 1237:1 1239:1 1241:1 1265:1 1292:1 1300:1 1313:1 1329:1 1334:1 1348:1 1350:1 1356:1 1357:1 1374:2
1 701:1 1241:1 1374:3
1 246:1 559:1 634:1 907:1 1292:1 1313:1 1356:1 1357:1 1374:3
1 246:1 559:1 634:1 907:1 1292:1 1313:1 1356:1 1357:1 1374:3
1 246:1 559:1 634:1 907:1 1292:1 1313:1 1356:1 1357:1 1374:3
1 246:1 559:1 634:1 907:1 1292:1 1313:1 1356:1 1357:1 1374:3
1 1374:3
1 246:1 559:1 634:1 907:1 1292:1 1313:1 1356:1 1357:1 1374:3
1 701:1 1241:1 1374:3
1 246:1 559:1 681:1 907:1 1231:1 1292:1 1313:1 1356:1 1374:3
1 131:1 246:1 300:1 406:1 407:1 460:1 541:1 559:1 621:1 634:1 681:1 701:1 895:1 907:1 978:1 981:1 1152:1 1225:1 1231:1 1235:1 1236:1 1237:1 1239:1 1241:1 1265:1 1292:1 1300:1 1313:1 1329:1 1334:1 1348:1 1350:1 1356:1 1357:1 1374:2
1 131:1 246:1 300:1 406:1 407:1 460:1 541:1 559:1 621:1 634:1 681:1 701:1 895:1 907:1 978:1 981:1 1152:1 1225:1 1231:1 1235:1 1236:1 1237:1 1239:1 1241:1 1265:1 1292:1 1300:1 1313:1 1329:1 1334:1 1348:1 1350:1 1356:1 1357:1 1374:1
1 246:1 559:1 634:1 907:1 1292:1 1313:1 1356:1 1357:1 1374:3
1 131:1 246:1 300:1 406:1 407:1 460:1 541:1 559:1 621:1 634:1 681:1 701:1 895:1 907:1 978:1 981:1 1152:1 1225:1 1231:1 1235:1 1236:1 1237:1 1239:1 1241:1 1265:1 1292:1 1300:1 1313:1 1329:1 1334:1 1348:1 1350:1 1356:1 1357:1 1374:1
1 246:1 559:1 634:1 907:1 1292:1 1313:1 1356:1 1357:1 1374:3
1 131:1 559:1 621:1 681:1 907:1 981:1 1225:1 1231:1 1239:1 1313:1 1348:1 1356:1 1374:1
1 246:1 559:1 634:1 907:1 1292:1 1313:1 1356:1 1357:1 1374:3
1 131:1 246:1 300:1 406:1 407:1 460:1 541:1 559:1 621:1 634:1 681:1 701:1 895:1 907:1 978:1 981:1 1152:1 1225:1 1231:1 1235:1 1236:1 1237:1 1239:1 1241:1 1265:1 1292:1 1300:1 1313:1 1329:1 1334:1 1348:1 1350:1 1356:1 1357:1 1374:2
1 701:1 1241:1 1374:3
1 246:1 559:1 634:1 907:1 1292:1 1313:1 1356:1 1357:1 1374:3
1 246:1 559:1 634:1 907:1 1292:1 1313:1 1356:1 1357:1 1374:3
1 246:1 300:1 406:1 407:1 460:1 559:1 634:1 681:1 701:1 895:1 907:1 981:1 1152:1 1231:1 1235:1 1236:1 1239:1 1241:1 1265:1 1292:1 1313:1 1329:1 1334:1 1350:1 1356:1 1357:1 1374:2
1 1374:3
1 131:1 246:1 300:1 406:1 407:1 460:1 541:1 559:1 621:1 634:1 681:1 701:1 895:1 907:1 978:1 981:1 1152:1 1225:1 1231:1 1235:1 1236:1 1237:1 1239:1 1241:1 1265:1 1292:1 1300:1 1313:1 1329:1 1334:1 1348:1 1350:1 1356:1 1357:1 1374:2
1 701:1 1241:1 1374:3
1 246:1 559:1 634:1 907:1 1292:1 1313:1 1356:1 1357:1 1374:3
1 1374:3
1 246:1 559:1 634:1 907:1 1292:1 1313:1 1356:1 1357:1 1374:3
1 246:1 559:1 634:1 907:1 1292:1 1313:1 1356:1 1357:1 1374:3
1 246:1 559:1 634:1 907:1 1292:1 1313:1 1356:1 1357:1 1374:3
1 246:1 559:1 634:1 907:1 1292:1 1313:1 1356:1 1357:1 1374:3
1 701:1 1241:1 1374:3
1 1374:3
1 246:1 559:1 1292:1 1313:1 1374:3
1 1374:3
1 246:1 559:1 634:1 907:1 1292:1 1313:1 1356:1 1357:1 1374:3
1 246:1 559:1 634:1 907:1 1292:1 1313:1 1356:1 1357:1 1374:3
1 131:1 246:1 300:1 406:1 407:1 460:1 541:1 559:1 621:1 634:1 681:1 701:1 895:1 907:1 978:1 981:1 1152:1 1225:1 1231:1 1235:1 1236:1 1237:1 1239:1 1241:1 1265:1 1292:1 1300:1 1313:1 1329:1 1334:1 1348:1 1350:1 1356:1 1357:1 1374:2
1 246:1 559:1 634:1 907:1 1292:1 1313:1 1356:1 1357:1 1374:3
1 246:1 559:1 681:1 907:1 1231:1 1292:1 1313:1 1356:1 1374:5
1 1374:2
1 227:1 246:1 541:1 559:1 681:1 907:1 981:1 1231:1 1239:1 1279:1 1292:1 1300:1 1313:1 1356:1 1374:3 1376:1
1 246:1 559:1 681:1 701:1 907:1 1231:1 1241:1 1292:1 1313:1 1356:1 1374:2
1 246:1 559:1 634:1 907:1 1292:1 1313:1 1356:1 1357:1 1374:3
1 246:1 460:1 541:1 559:1 681:1 907:1 1231:1 1265:1 1292:1 1300:1 1313:1 1356:1 1374:3
1 246:1 559:1 634:1 907:1 1292:1 1313:1 1356:1 1357:1 1374:3
1 131:1 246:1 541:1 559:1 681:1 701:1 907:1 981:1 1225:1 1231:1 1239:1 1241:1 1292:1 1300:1 1313:1 1356:1 1374:3 1376:1
1 246:1 559:1 634:1 907:1 1292:1 1313:1 1356:1 1357:1 1374:3
1 246:1 365:1 460:1 541:1 559:1 681:1 978:1 981:1 1231:1 1237:1 1239:1 1265:1 1292:1 1300:1 1313:1 1370:1 1374:3
1 246:1 559:1 907:1 1292:1 1313:1 1356:1 1374:3
1 1374:3
1 131:1 246:1 300:1 406:1 407:1 460:1 541:1 559:1 621:1 634:1 681:1 701:1 895:1 907:1 978:1 981:1 1152:1 1225:1 1231:1 1235:1 1236:1 1237:1 1239:1 1241:1 1265:1 1292:1 1300:1 1313:1 1329:1 1334:1 1348:1 1350:1 1356:1 1357:1 1374:2
1 246:1 559:1 634:1 907:1 1292:1 1313:1 1356:1 1357:1 1374:3
1 701:1 1241:1 1374:3
1 246:1 559:1 634:1 907:1 1292:1 1313:1 1356:1 1357:1 1374:3
1 246:1 559:1 1292:1 1313:1 1374:3
1 131:1 246:1 300:1 406:1 541:1 559:1 634:1 681:1 701:1 895:1 981:1 1152:1 1225:1 1231:1 1236:1 1239:1 1241:1 1292:1 1300:1 1313:1 1329:1 1334:1 1350:1 1357:1 1374:2
1 246:1 559:1 681:1 907:1 1231:1 1292:1 1313:1 1356:1 1374:2
1 131:1 246:1 300:1 406:1 407:1 460:1 541:1 559:1 621:1 634:1 681:1 701:1 895:1 907:1 978:1 981:1 1152:1 1225:1 1231:1 1235:1 1236:1 1237:1 1239:1 1241:1 1265:1 1292:1 1300:1 1313:1 1329:1 1334:1 1348:1 1350:1 1356:1 1357:1 1374:2
1 246:1 460:1 541:1 559:1 681:1 701:1 907:1 978:1 981:1 1231:1 1237:1 1239:1 1241:1 1265:1 1292:1 1300:1 1313:1 1356:1 1374:4
1 246:1 559:1 681:1 907:1 1231:1 1292:1 1313:1 1356:1 1374:4
1 701:1 1241:1 1374:3
1 246:1 541:1 559:1 681:1 907:1 1231:1 1292:1 1300:1 1313:1 1356:1 1374:2
1 246:1 559:1 681:1 907:1 1231:1 1292:1 1313:1 1356:1 1374:2
1 131:1 246:1 300:1 406:1 407:1 460:1 541:1 559:1 621:1 634:1 681:1 701:1 895:1 907:1 978:1 981:1 1152:1 1225:1 1231:1 1235:1 1236:1 1237:1 1239:1 1241:1 1265:1 1292:1 1300:1 1313:1 1329:1 1334:1 1348:1 1350:1 1356:1 1357:1 1374:2
1 246:1 559:1 681:1 907:1 1231:1 1292:1 1313:1 1356:1 1374:6
1 246:1 559:1 634:1 907:1 1292:1 1313:1 1356:1 1357:1 1374:3
1 246:1 460:1 541:1 559:1 681:1 701:1 907:1 981:1 1231:1 1239:1 1241:1 1265:1 1292:1 1300:1 1313:1 1356:1 1374:2
1 246:1 559:1 634:1 907:1 1292:1 1313:1 1356:1 1357:1 1374:3
1 246:1 559:1 634:1 907:1 1292:1 1313:1 1356:1 1357:1 1374:3
1 246:1 559:1 634:1 907:1 1292:1 1313:1 1356:1 1357:1 1374:3
1 246:1 365:1 541:1 559:1 681:1 907:1 978:1 981:1 1231:1 1237:1 1239:1 1292:1 1300:1 1313:1 1356:1 1370:1 1374:3
1 246:1 559:1 634:1 907:1 1292:1 1313:1 1356:1 1357:1 1374:3
1 246:1 559:1 634:1 907:1 1292:1 1313:1 1356:1 1357:1 1374:3
1 246:1 559:1 681:1 907:1 1231:1 1292:1 1313:1 1356:1 1374:2
1 246:1 559:1 634:1 907:1 1292:1 1313:1 1356:1 1357:1 1374:3
1 246:1 559:1 634:1 907:1 1292:1 1313:1 1356:1 1357:1 1374:3
1 246:1 559:1 681:1 1231:1 1292:1 1313:1 1374:2
1 246:1 559:1 681:1 907:1 1231:1 1292:1 1313:1 1356:1 1374:2
1 1374:3
1 1374:3
1 246:1 365:1 460:1 559:1 681:1 1231:1 1265:1 1292:1 1313:1 1370:1 1374:2
1 246:1 559:1 634:1 907:1 1292:1 1313:1 1356:1 1357:1 1374:3
1 701:1 1241:1 1374:3
1 131:1 246:1 406:1 407:1 541:1 559:1 895:1 1152:1 1225:1 1235:1 1236:1 1292:1 1300:1 1313:1 1334:1 1350:1 1374:3
1 246:1 559:1 634:1 907:1 1292:1 1313:1 1356:1 1357:1 1374:3
1 246:1 300:1 406:1 407:1 460:1 559:1 621:1 634:1 681:1 701:1 895:1 907:1 981:1 1152:1 1231:1 1235:1 1236:1 1239:1 1241:1 1265:1 1292:1 1313:1 1329:1 1334:1 1348:1 1350:1 1356:1 1357:1 1374:1
1 246:1 559:1 634:1 907:1 1292:1 1313:1 1356:1 1357:1 1374:3
1 246:1 559:1 634:1 907:1 1292:1 1313:1 1356:1 1357:1 1374:3
1 246:1 559:1 634:1 907:1 1292:1 1313:1 1356:1 1357:1 1374:3
1 246:1 559:1 634:1 907:1 1292:1 1313:1 1356:1 1357:1 1374:3
1 246:1 559:1 634:1 907:1 1292:1 1313:1 1356:1 1357:1 1374:3
1 1374:3
1 246:1 559:1 634:1 907:1 1292:1 1313:1 1356:1 1357:1 1374:3
1 246:1 559:1 634:1 907:1 1292:1 1313:1 1356:1 1357:1 1374:3
1 246:1 559:1 634:1 907:1 1292:1 1313:1 1356:1 1357:1 1374:3
1 131:1 246:1 300:1 406:1 407:1 460:1 541:1 559:1 621:1 634:1 681:1 701:1 895:1 907:1 978:1 981:1 1152:1 1225:1 1231:1 1235:1 1236:1 1237:1 1239:1 1241:1 1265:1 1292:1 1300:1 1313:1 1329:1 1334:1 1348:1 1350:1 1356:1 1357:1 1374:2
1 246:1 541:1 559:1 681:1 907:1 1231:1 1292:1 1300:1 1313:1 1356:1 1374:2
1 246:1 559:1 634:1 907:1 1292:1 1313:1 1356:1 1357:1 1374:3
1 246:1 559:1 634:1 907:1 1292:1 1313:1 1356:1 1357:1 1374:3
1 246:1 559:1 634:1 907:1 1292:1 1313:1 1356:1 1357:1 1374:3
1 246:1 559:1 634:1 907:1 1292:1 1313:1 1356:1 1357:1 1374:3
1 131:1 246:1 300:1 406:1 407:1 460:1 541:1 559:1 621:1 634:1 681:1 701:1 895:1 907:1 978:1 981:1 1152:1 1225:1 1231:1 1235:1 1236:1 1237:1 1239:1 1241:1 1265:1 1292:1 1300:1 1313:1 1329:1 1334:1 1348:1 1350:1 1356:1 1357:1 1374:2
1 246:1 559:1 634:1 907:1 1292:1 1313:1 1356:1 1357:1 1374:3
1 1374:3
1 246:1 559:1 634:1 907:1 1292:1 1313:1 1356:1 1357:1 1374:3
1 246:1 559:1 634:1 907:1 1292:1 1313:1 1356:1 1357:1 1374:3
1 246:1 559:1 1292:1 1313:1 1374:1
1 1374:3
1 246:1 349:1 406:1 559:1 634:1 681:1 701:1 907:1 978:1 981:1 1231:1 1236:1 1237:1 1239:1 1241:1 1292:1 1313:1 1354:1 1356:1 1357:1 1374:4
1 246:1 460:1 541:1 559:1 681:1 701:1 907:1 981:1 1231:1 1239:1 1241:1 1265:1 1292:1 1300:1 1313:1 1356:1 1374:2
1 246:1 559:1 681:1 907:1 1231:1 1292:1 1313:1 1356:1 1374:4
1 246:1 300:1 406:1 407:1 460:1 559:1 634:1 681:1 701:1 895:1 907:1 981:1 1152:1 1231:1 1235:1 1236:1 1239:1 1241:1 1265:1 1292:1 1313:1 1329:1 1334:1 1350:1 1356:1 1357:1 1374:2
1 246:1 300:1 406:1 407:1 460:1 559:1 634:1 681:1 701:1 895:1 907:1 981:1 1152:1 1231:1 1235:1 1236:1 1239:1 1241:1 1265:1 1292:1 1313:1 1329:1 1334:1 1350:1 1356:1 1357:1 1374:2
1 246:1 460:1 541:1 559:1 681:1 701:1 907:1 978:1 1231:1 1237:1 1241:1 1265:1 1292:1 1300:1 1313:1 1356:1 1374:4
1 246:1 559:1 681:1 907:1 1231:1 1292:1 1313:1 1356:1 1374:2
1 246:1 559:1 634:1 907:1 1292:1 1313:1 1356:1 1357:1 1374:3
1 246:1 559:1 634:1 907:1 1292:1 1313:1 1356:1 1357:1 1374:3
1 131:1 246:1 300:1 406:1 407:1 460:1 541:1 559:1 621:1 634:1 681:1 701:1 895:1 907:1 978:1 981:1 1152:1 1225:1 1231:1 1235:1 1236:1 1237:1 1239:1 1241:1 1265:1 1292:1 1300:1 1313:1 1329:1 1334:1 1348:1 1350:1 1356:1 1357:1 1374:2
1 246:1 559:1 681:1 907:1 1231:1 1292:1 1313:1 1356:1 1374:3
1 1374:3
1 131:1 559:1 621:1 681:1 907:1 981:1 1225:1 1231:1 1239:1 1313:1 1348:1 1356:1 1374:2
1 246:1 559:1 634:1 907:1 1292:1 1313:1 1356:1 1357:1 1374:3
1 246:1 559:1 634:1 907:1 1292:1 1313:1 1356:1 1357:1 1374:3
1 246:1 559:1 681:1 907:1 1231:1 1292:1 1313:1 1356:1 1374:2
1 1374:3
1 131:1 559:1 621:1 681:1 907:1 981:1 1225:1 1231:1 1239:1 1313:1 1348:1 1356:1 1374:2
1 246:1 559:1 634:1 907:1 1292:1 1313:1 1356:1 1357:1 1374:3
1 246:1 559:1 681:1 907:1 1231:1 1292:1 1313:1 1356:1 1374:2
1 246:1 300:1 406:1 407:1 460:1 559:1 634:1 681:1 701:1 895:1 907:1 981:1 1152:1 1231:1 1235:1 1236:1 1239:1 1241:1 1265:1 1292:1 1313:1 1329:1 1334:1 1350:1 1356:1 1357:1 1374:2
1 246:1 559:1 634:1 907:1 1292:1 1313:1 1356:1 1357:1 1374:3
1 1374:4
1 246:1 559:1 1292:1 1313:1 1374:3
1 246:1 559:1 634:1 907:1 1292:1 1313:1 1356:1 1357:1 1374:3
1 246:1 559:1 634:1 907:1 1292:1 1313:1 1356:1 1357:1 1374:3
1 246:1 559:1 681:1 907:1 1231:1 1292:1 1313:1 1356:1 1374:3
1 246:1 300:1 406:1 407:1 460:1 559:1 634:1 681:1 701:1 895:1 907:1 981:1 1152:1 1231:1 1235:1 1236:1 1239:1 1241:1 1265:1 1292:1 1313:1 1329:1 1334:1 1350:1 1356:1 1357:1 1374:2
1 246:1 559:1 634:1 907:1 1292:1 1313:1 1356:1 1357:1 1374:3
1 131:1 246:1 406:1 407:1 541:1 559:1 895:1 1152:1 1225:1 1235:1 1236:1 1292:1 1300:1 1313:1 1334:1 1350:1 1374:3
1 246:1 559:1 681:1 907:1 1231:1 1292:1 1313:1 1356:1 1374:2
1 246:1 559:1 634:1 907:1 1292:1 1313:1 1356:1 1357:1 1374:3
1 246:1 559:1 634:1 907:1 1292:1 1313:1 1356:1 1357:1 1374:3
1 246:1 559:1 634:1 907:1 1292:1 1313:1 1356:1 1357:1 1374:3
1 246:1 559:1 634:1 907:1 1292:1 1313:1 1356:1 1357:1 1374:3
1 131:1 246:1 406:1 407:1 541:1 559:1 895:1 1152:1 1225:1 1235:1 1236:1 1292:1 1300:1 1313:1 1334:1 1350:1 1374:3
1 246:1 559:1 681:1 1231:1 1292:1 1313:1 1374:2
1 701:1 1241:1 1374:3
1 131:1 559:1 621:1 681:1 907:1 981:1 1225:1 1231:1 1239:1 1313:1 1348:1 1356:1 1374:2
1 246:1 559:1 634:1 907:1 1292:1 1313:1 1356:1 1357:1 1374:3
1 1374:3
1 246:1 559:1 634:1 907:1 1292:1 1313:1 1356:1 1357:1 1374:3
1 1374:3
1 246:1 460:1 541:1 559:1 681:1 701:1 907:1 978:1 981:1 1231:1 1237:1 1239:1 1241:1 1265:1 1292:1 1300:1 1313:1 1356:1 1374:2
1 246:1 559:1 681:1 907:1 1231:1 1292:1 1313:1 1356:1 1374:4
1 246:1 559:1 634:1 907:1 1292:1 1313:1 1356:1 1357:1 1374:3
1 246:1 559:1 907:1 1292:1 1313:1 1356:1 1374:3
1 246:1 559:1 681:1 907:1 1231:1 1292:1 1313:1 1356:1 1374:2
1 246:1 460:1 541:1 559:1 681:1 701:1 907:1 981:1 1231:1 1239:1 1241:1 1265:1 1292:1 1300:1 1313:1 1356:1 1374:2
1 246:1 300:1 406:1 407:1 460:1 559:1 634:1 681:1 701:1 895:1 907:1 981:1 1152:1 1231:1 1235:1 1236:1 1239:1 1241:1 1265:1 1292:1 1313:1 1329:1 1334:1 1350:1 1356:1 1357:1 1374:1
1 131:1 559:1 621:1 681:1 907:1 981:1 1225:1 1231:1 1239:1 1313:1 1348:1 1356:1 1374:1
1 246:1 300:1 406:1 407:1 460:1 559:1 634:1 681:1 701:1 895:1 907:1 981:1 1152:1 1231:1 1235:1 1236:1 1239:1 1241:1 1265:1 1292:1 1313:1 1329:1 1334:1 1350:1 1356:1 1357:1 1374:2
1 246:1 559:1 634:1 907:1 1292:1 1313:1 1356:1 1357:1 1374:3
1 701:1 1241:1 1374:3
1 701:1 1241:1 1374:3
1 559:1 681:1 907:1 1231:1 1313:1 1356:1 1374:3
1 246:1 559:1 634:1 907:1 1292:1 1313:1 1356:1 1357:1 1374:3
1 246:1 365:1 460:1 541:1 559:1 681:1 701:1 907:1 978:1 981:1 1231:1 1237:1 1239:1 1241:1 1265:1 1292:1 1300:1 1313:1 1356:1 1370:1 1374:3
1 246:1 559:1 681:1 907:1 1231:1 1292:1 1313:1 1356:1 1374:3
1 246:1 460:1 541:1 559:1 681:1 907:1 981:1 1231:1 1239:1 1265:1 1292:1 1300:1 1313:1 1356:1 1374:2
1 246:1 559:1 634:1 907:1 1292:1 1313:1 1356:1 1357:1 1374:3
1 246:1 559:1 634:1 907:1 1292:1 1313:1 1356:1 1357:1 1374:3
1 246:1 559:1 681:1 701:1 907:1 1231:1 1241:1 1292:1 1313:1 1356:1 1374:2
1 701:1 1241:1 1374:3
1 246:1 349:1 460:1 541:1 559:1 681:1 907:1 1231:1 1265:1 1292:1 1300:1 1313:1 1354:1 1356:1 1374:2
1 246:1 267:1 349:1 460:1 541:1 559:1 606:1 681:1 741:1 981:1 1231:1 1239:1 1258:1 1265:1 1292:1 1300:1 1301:1 1313:1 1343:1 1354:1 1374:4
1 246:1 559:1 1292:1 1313:1 1374:3
1 246:1 559:1 681:1 907:1 1231:1 1292:1 1313:1 1356:1 1374:5
1 246:1 559:1 681:1 907:1 1231:1 1292:1 1313:1 1356:1 1374:6
1 246:1 559:1 634:1 907:1 1292:1 1313:1 1356:1 1357:1 1374:3
1 246:1 541:1 559:1 681:1 907:1 1231:1 1292:1 1300:1 1313:1 1356:1 1374:3
1 246:1 460:1 541:1 559:1 681:1 907:1 981:1 1231:1 1239:1 1265:1 1292:1 1300:1 1313:1 1356:1 1374:2
1 246:1 559:1 634:1 907:1 1292:1 1313:1 1356:1 1357:1 1374:3
1 246:1 349:1 406:1 559:1 634:1 681:1 701:1 907:1 978:1 981:1 1231:1 1236:1 1237:1 1239:1 1241:1 1292:1 1313:1 1354:1 1356:1 1357:1 1374:5
1 246:1 559:1 634:1 907:1 1292:1 1313:1 1356:1 1357:1 1374:3
1 246:1 460:1 541:1 559:1 681:1 701:1 907:1 981:1 1231:1 1239:1 1241:1 1265:1 1292:1 1300:1 1313:1 1356:1 1374:2
1 246:1 559:1 634:1 907:1 1292:1 1313:1 1356:1 1357:1 1374:3
1 1374:3
1 246:1 559:1 634:1 907:1 1292:1 1313:1 1356:1 1357:1 1374:3
1 131:1 246:1 300:1 406:1 407:1 460:1 541:1 559:1 621:1 634:1 681:1 701:1 895:1 907:1 978:1 981:1 1152:1 1225:1 1231:1 1235:1 1236:1 1237:1 1239:1 1241:1 1265:1 1292:1 1300:1 1313:1 1329:1 1334:1 1348:1 1350:1 1356:1 1357:1 1374:2
1 246:1 300:1 406:1 407:1 460:1 559:1 634:1 681:1 701:1 895:1 907:1 981:1 1152:1 1231:1 1235:1 1236:1 1239:1 1241:1 1265:1 1292:1 1313:1 1329:1 1334:1 1350:1 1356:1 1357:1 1374:2
1 1374:3
1 1374:4
1 246:1 559:1 681:1 1231:1 1292:1 1313:1 1374:5
1 246:1 559:1 634:1 907:1 1292:1 1313:1 1356:1 1357:1 1374:3
1 131:1 246:1 300:1 406:1 407:1 460:1 541:1 559:1 621:1 634:1 681:1 701:1 895:1 907:1 978:1 981:1 1152:1 1225:1 1231:1 1235:1 1236:1 1237:1 1239:1 1241:1 1265:1 1292:1 1300:1 1313:1 1329:1 1334:1 1348:1 1350:1 1356:1 1357:1 1374:2
1 1374:3
1 246:1 559:1 634:1 907:1 1292:1 1313:1 1356:1 1357:1 1374:3
1 1374:3
1 246:1 559:1 1292:1 1313:1 1374:3
1 131:1 246:1 300:1 406:1 407:1 460:1 541:1 559:1 621:1 634:1 681:1 701:1 895:1 907:1 978:1 981:1 1152:1 1225:1 1231:1 1235:1 1236:1 1237:1 1239:1 1241:1 1265:1 1292:1 1300:1 1313:1 1329:1 1334:1 1348:1 1350:1 1356:1 1357:1 1374:2
1 681:1 1231:1 1374:3
1 131:1 246:1 406:1 407:1 541:1 559:1 895:1 1152:1 1225:1 1235:1 1236:1 1292:1 1300:1 1313:1 1334:1 1350:1 1374:3
1 131:1 246:1 300:1 406:1 407:1 460:1 541:1 559:1 621:1 634:1 681:1 701:1 895:1 907:1 978:1 981:1 1152:1 1225:1 1231:1 1235:1 1236:1 1237:1 1239:1 1241:1 1265:1 1292:1 1300:1 1313:1 1329:1 1334:1 1348:1 1350:1 1356:1 1357:1 1374:2
1 246:1 559:1 1292:1 1313:1 1374:3
1 246:1 559:1 1292:1 1313:1 1374:1
1 246:1 559:1 634:1 907:1 1292:1 1313:1 1356:1 1357:1 1374:3
1 131:1 246:1 300:1 406:1 407:1 460:1 541:1 559:1 621:1 634:1 681:1 701:1 895:1 907:1 978:1 981:1 1152:1 1225:1 1231:1 1235:1 1236:1 1237:1 1239:1 1241:1 1265:1 1292:1 1300:1 1313:1 1329:1 1334:1 1348:1 1350:1 1356:1 1357:1 1374:2
1 701:1 1241:1 1374:3
1 246:1 559:1 634:1 907:1 1292:1 1313:1 1356:1 1357:1 1374:3
1 246:1 559:1 1292:1 1313:1 1374:2
1 246:1 300:1 406:1 407:1 460:1 559:1 634:1 681:1 701:1 895:1 907:1 981:1 1152:1 1231:1 1235:1 1236:1 1239:1 1241:1 1265:1 1292:1 1313:1 1329:1 1334:1 1350:1 1356:1 1357:1 1374:2
1 1374:3
1 1374:3
1 131:1 246:1 300:1 406:1 407:1 460:1 541:1 559:1 621:1 634:1 681:1 701:1 895:1 907:1 978:1 981:1 1152:1 1225:1 1231:1 1235:1 1236:1 1237:1 1239:1 1241:1 1265:1 1292:1 1300:1 1313:1 1329:1 1334:1 1348:1 1350:1 1356:1 1357:1 1374:2
1 131:1 246:1 300:1 406:1 407:1 460:1 541:1 559:1 621:1 634:1 681:1 701:1 895:1 907:1 978:1 981:1 1152:1 1225:1 1231:1 1235:1 1236:1 1237:1 1239:1 1241:1 1265:1 1292:1 1300:1 1313:1 1329:1 1334:1 1348:1 1350:1 1356:1 1357:1 1374:2
1 131:1 246:1 541:1 559:1 681:1 981:1 1152:1 1225:1 1231:1 1239:1 1292:1 1300:1 1313:1 1334:1 1374:2
1 246:1 559:1 634:1 907:1 1292:1 1313:1 1356:1 1357:1 1374:3
1 131:1 246:1 406:1 407:1 541:1 559:1 895:1 1152:1 1225:1 1235:1 1236:1 1292:1 1300:1 1313:1 1334:1 1350:1 1374:3
1 246:1 559:1 634:1 907:1 1292:1 1313:1 1356:1 1357:1 1374:3
1 246:1 559:1 634:1 907:1 1292:1 1313:1 1356:1 1357:1 1374:3
1 246:1 460:1 541:1 559:1 681:1 701:1 907:1 978:1 1231:1 1237:1 1241:1 1265:1 1292:1 1300:1 1313:1 1356:1 1374:4
1 246:1 559:1 634:1 907:1 1292:1 1313:1 1356:1 1357:1 1374:3
1 246:1 559:1 634:1 907:1 1292:1 1313:1 1356:1 1357:1 1374:3
1 246:1 559:1 634:1 907:1 1292:1 1313:1 1356:1 1357:1 1374:3
1 246:1 559:1 634:1 907:1 1292:1 1313:1 1356:1 1357:1 1374:2
1 246:1 300:1 406:1 407:1 460:1 559:1 634:1 681:1 701:1 895:1 907:1 981:1 1152:1 1231:1 1235:1 1236:1 1239:1 1241:1 1265:1 1292:1 1313:1 1329:1 1334:1 1350:1 1356:1 1357:1 1374:2
1 246:1 460:1 541:1 559:1 681:1 907:1 1231:1 1265:1 1292:1 1300:1 1313:1 1356:1 1374:2
1 131:1 246:1 300:1 406:1 407:1 460:1 541:1 559:1 621:1 634:1 681:1 701:1 895:1 907:1 978:1 981:1 1152:1 1225:1 1231:1 1235:1 1236:1 1237:1 1239:1 1241:1 1265:1 1292:1 1300:1 1313:1 1329:1 1334:1 1348:1 1350:1 1356:1 1357:1 1374:1
1 246:1 559:1 634:1 907:1 1292:1 1313:1 1356:1 1357:1 1374:3
1 246:1 559:1 634:1 907:1 1292:1 1313:1 1356:1 1357:1 1374:3
1 246:1 559:1 634:1 907:1 1292:1 1313:1 1356:1 1357:1 1374:3
1 131:1 246:1 300:1 406:1 407:1 460:1 541:1 559:1 621:1 634:1 681:1 701:1 895:1 907:1 978:1 981:1 1152:1 1225:1 1231:1 1235:1 1236:1 1237:1 1239:1 1241:1 1265:1 1292:1 1300:1 1313:1 1329:1 1334:1 1348:1 1350:1 1356:1 1357:1 1374:2
1 246:1 559:1 634:1 907:1 1292:1 1313:1 1356:1 1357:1 1374:3
1 246:1 559:1 907:1 1292:1 1313:1 1356:1 1374:2
1 246:1 559:1 634:1 907:1 1292:1 1313:1 1356:1 1357:1 1374:3
1 246:1 300:1 406:1 407:1 460:1 559:1 634:1 681:1 701:1 895:1 907:1 981:1 1152:1 1231:1 1235:1 1236:1 1239:1 1241:1 1265:1 1292:1 1313:1 1329:1 1334:1 1350:1 1356:1 1357:1 1374:2
1 246:1 460:1 541:1 559:1 681:1 907:1 1231:1 1265:1 1292:1 1300:1 1313:1 1356:1 1374:2
1 246:1 300:1 406:1 407:1 460:1 559:1 634:1 681:1 701:1 895:1 907:1 981:1 1152:1 1231:1 1235:1 1236:1 1239:1 1241:1 1265:1 1292:1 1313:1 1329:1 1334:1 1350:1 1356:1 1357:1 1374:1
1 701:1 1241:1 1374:3
1 246:1 559:1 634:1 907:1 1292:1 1313:1 1356:1 1357:1 1374:3
1 246:1 559:1 681:1 907:1 1231:1 1292:1 1313:1 1356:1 1374:6
1 701:1 1241:1 1374:3
1 131:1 246:1 406:1 407:1 541:1 559:1 895:1 1152:1 1225:1 1235:1 1236:1 1292:1 1300:1 1313:1 1334:1 1350:1 1374:3
1 246:1 559:1 634:1 907:1 1292:1 1313:1 1356:1 1357:1 1374:3
1 246:1 559:1 634:1 907:1 1292:1 1313:1 1356:1 1357:1 1374:3
1 246:1 559:1 634:1 907:1 1292:1 1313:1 1356:1 1357:1 1374:3
1 246:1 559:1 681:1 907:1 1231:1 1292:1 1313:1 1356:1 1374:3
1 701:1 1241:1 1374:3
1 701:1 1241:1 1374:2
1 246:1 559:1 634:1 907:1 1292:1 1313:1 1356:1 1357:1 1374:3
1 246:1 559:1 634:1 907:1 1292:1 1313:1 1356:1 1357:1 1374:3
1 246:1 559:1 907:1 1292:1 1313:1 1356:1 1374:3
1 1374:3
1 246:1 559:1 634:1 907:1 1292:1 1313:1 1356:1 1357:1 1374:3
1 246:1 559:1 634:1 907:1 1292:1 1313:1 1356:1 1357:1 1374:3
1 131:1 246:1 300:1 406:1 407:1 460:1 541:1 559:1 621:1 634:1 681:1 701:1 895:1 907:1 978:1 981:1 1152:1 1225:1 1231:1 1235:1 1236:1 1237:1 1239:1 1241:1 1265:1 1292:1 1300:1 1313:1 1329:1 1334:1 1348:1 1350:1 1356:1 1357:1 1374:2
1 246:1 365:1 460:1 541:1 559:1 681:1 701:1 907:1 978:1 981:1 1231:1 1237:1 1239:1 1241:1 1265:1 1292:1 1300:1 1313:1 1356:1 1370:1 1374:2
1 246:1 559:1 634:1 907:1 1292:1 1313:1 1356:1 1357:1 1374:3
1 246:1 559:1 1292:1 1313:1 1374:2
1 246:1 559:1 681:1 907:1 1231:1 1292:1 1313:1 1356:1 1374:3
1 246:1 559:1 634:1 907:1 1292:1 1313:1 1356:1 1357:1 1374:3
1 246:1 559:1 634:1 907:1 1292:1 1313:1 1356:1 1357:1 1374:3
1 246:1 559:1 634:1 907:1 1292:1 1313:1 1356:1 1357:1 1374:3
1 246:1 559:1 681:1 907:1 1231:1 1292:1 1313:1 1356:1 1374:2
1 246:1 559:1 634:1 907:1 1292:1 1313:1 1356:1 1357:1 1374:3
1 131:1 246:1 300:1 406:1 407:1 460:1 541:1 559:1 621:1 634:1 681:1 701:1 895:1 907:1 978:1 981:1 1152:1 1225:1 1231:1 1235:1 1236:1 1237:1 1239:1 1241:1 1265:1 1292:1 1300:1 1313:1 1329:1 1334:1 1348:1 1350:1 1356:1 1357:1 1374:1
1 246:1 300:1 406:1 407:1 460:1 559:1 634:1 681:1 701:1 895:1 907:1 981:1 1152:1 1231:1 1235:1 1236:1 1239:1 1241:1 1265:1 1292:1 1313:1 1329:1 1334:1 1350:1 1356:1 1357:1 1374:1
1 1374:3
1 246:1 559:1 634:1 907:1 1292:1 1313:1 1356:1 1357:1 1374:3
1 131:1 246:1 300:1 406:1 407:1 460:1 541:1 559:1 621:1 634:1 681:1 701:1 895:1 907:1 978:1 981:1 1152:1 1225:1 1231:1 1235:1 1236:1 1237:1 1239:1 1241:1 1265:1 1292:1 1300:1 1313:1 1329:1 1334:1 1348:1 1350:1 1356:1 1357:1 1374:2
1 246:1 559:1 634:1 907:1 1292:1 1313:1 1356:1 1357:1 1374:3
1 246:1 460:1 541:1 559:1 681:1 907:1 1231:1 1265:1 1292:1 1300:1 1313:1 1356:1 1374:2
1 246:1 559:1 1292:1 1313:1 1374:3
1 246:1 559:1 634:1 907:1 1292:1 1313:1 1356:1 1357:1 1374:3
1 246:1 559:1 634:1 907:1 1292:1 1313:1 1356:1 1357:1 1374:2
1 246:1 559:1 634:1 907:1 1292:1 1313:1 1356:1 1357:1 1374:3
1 246:1 559:1 634:1 907:1 1292:1 1313:1 1356:1 1357:1 1374:3
1 246:1 559:1 681:1 907:1 1231:1 1292:1 1313:1 1356:1 1374:4
1 246:1 460:1 541:1 559:1 681:1 701:1 907:1 978:1 1231:1 1237:1 1241:1 1265:1 1292:1 1300:1 1313:1 1356:1 1374:4
1 246:1 559:1 907:1 1292:1 1313:1 1356:1 1374:3
1 131:1 246:1 300:1 406:1 407:1 460:1 541:1 559:1 621:1 634:1 681:1 701:1 895:1 907:1 978:1 981:1 1152:1 1225:1 1231:1 1235:1 1236:1 1237:1 1239:1 1241:1 1265:1 1292:1 1300:1 1313:1 1329:1 1334:1 1348:1 1350:1 1356:1 1357:1 1374:2
1 246:1 300:1 406:1 407:1 460:1 559:1 634:1 681:1 701:1 895:1 907:1 981:1 1152:1 1231:1 1235:1 1236:1 1239:1 1241:1 1265:1 1292:1 1313:1 1329:1 1334:1 1350:1 1356:1 1357:1 1374:1
1 246:1 559:1 1292:1 1313:1 1374:3
1 246:1 541:1 559:1 681:1 701:1 907:1 1231:1 1241:1 1292:1 1300:1 1313:1 1356:1 1374:3
1 246:1 559:1 634:1 907:1 1292:1 1313:1 1356:1 1357:1 1374:3
1 246:1 559:1 634:1 907:1 1292:1 1313:1 1356:1 1357:1 1374:3
1 246:1 460:1 541:1 559:1 681:1 701:1 907:1 978:1 981:1 1231:1 1237:1 1239:1 1241:1 1265:1 1292:1 1300:1 1313:1 1356:1 1374:2
1 246:1 559:1 621:1 681:1 701:1 907:1 978:1 1231:1 1237:1 1241:1 1292:1 1313:1 1348:1 1356:1 1374:1
1 246:1 559:1 634:1 907:1 1292:1 1313:1 1356:1 1357:1 1374:3
1 246:1 460:1 541:1 559:1 681:1 907:1 981:1 1231:1 1239:1 1265:1 1292:1 1300:1 1313:1 1356:1 1374:2
1 131:1 246:1 406:1 407:1 541:1 559:1 895:1 1152:1 1225:1 1235:1 1236:1 1292:1 1300:1 1313:1 1334:1 1350:1 1374:3
1 246:1 559:1 1292:1 1313:1 1374:2
1 131:1 246:1 300:1 406:1 407:1 460:1 541:1 559:1 621:1 634:1 681:1 701:1 895:1 907:1 978:1 981:1 1152:1 1225:1 1231:1 1235:1 1236:1 1237:1 1239:1 1241:1 1265:1 1292:1 1300:1 1313:1 1329:1 1334:1 1348:1 1350:1 1356:1 1357:1 1374:2
1 246:1 559:1 634:1 907:1 1292:1 1313:1 1356:1 1357:1 1374:3
1 246:1 559:1 634:1 907:1 1292:1 1313:1 1356:1 1357:1 1374:3
1 246:1 559:1 681:1 907:1 1231:1 1292:1 1313:1 1356:1 1374:4
1 1374:3
1 246:1 300:1 406:1 407:1 460:1 559:1 634:1 681:1 701:1 895:1 907:1 981:1 1152:1 1231:1 1235:1 1236:1 1239:1 1241:1 1265:1 1292:1 1313:1 1329:1 1334:1 1350:1 1356:1 1357:1 1374:2
1 246:1 559:1 634:1 907:1 1292:1 1313:1 1356:1 1357:1 1374:3
1 131:1 246:1 300:1 406:1 407:1 460:1 541:1 559:1 621:1 634:1 681:1 701:1 895:1 907:1 978:1 981:1 1152:1 1225:1 1231:1 1235:1 1236:1 1237:1 1239:1 1241:1 1265:1 1292:1 1300:1 1313:1 1329:1 1334:1 1348:1 1350:1 1356:1 1357:1 1374:2
1 246:1 559:1 634:1 907:1 1292:1 1313:1 1356:1 1357:1 1374:3
1 246:1 559:1 634:1 907:1 1292:1 1313:1 1356:1 1357:1 1374:3
1 246:1 559:1 634:1 907:1 1292:1 1313:1 1356:1 1357:1 1374:3
1 246:1 559:1 634:1 907:1 1292:1 1313:1 1356:1 1357:1 1374:3
1 246:1 559:1 634:1 907:1 1292:1 1313:1 1356:1 1357:1 1374:3
1 1374:3
1 246:1 559:1 634:1 907:1 1292:1 1313:1 1356:1 1357:1 1374:3
1 246:1 559:1 634:1 907:1 1292:1 1313:1 1356:1 1357:1 1374:3
1 131:1 246:1 300:1 406:1 407:1 460:1 541:1 559:1 621:1 634:1 681:1 701:1 895:1 907:1 978:1 981:1 1152:1 1225:1 1231:1 1235:1 1236:1 1237:1 1239:1 1241:1 1265:1 1292:1 1300:1 1313:1 1329:1 1334:1 1348:1 1350:1 1356:1 1357:1 1374:2
1 246:1 559:1 634:1 907:1 1292:1 1313:1 1356:1 1357:1 1374:3
1 246:1 349:1 559:1 907:1 978:1 1237:1 1292:1 1313:1 1354:1 1356:1 1374:6
1 246:1 460:1 541:1 559:1 681:1 701:1 907:1 978:1 981:1 1231:1 1237:1 1239:1 1241:1 1265:1 1292:1 1300:1 1313:1 1356:1 1374:2
1 131:1 246:1 300:1 406:1 407:1 460:1 541:1 559:1 621:1 634:1 681:1 701:1 895:1 907:1 978:1 981:1 1152:1 1225:1 1231:1 1235:1 1236:1 1237:1 1239:1 1241:1 1265:1 1292:1 1300:1 1313:1 1329:1 1334:1 1348:1 1350:1 1356:1 1357:1 1374:2
1 246:1 559:1 634:1 907:1 1292:1 1313:1 1356:1 1357:1 1374:3
1 246:1 559:1 634:1 907:1 1292:1 1313:1 1356:1 1357:1 1374:3
1 246:1 559:1 907:1 1292:1 1313:1 1356:1 1374:3
1 246:1 300:1 406:1 407:1 460:1 559:1 634:1 681:1 701:1 895:1 907:1 981:1 1152:1 1231:1 1235:1 1236:1 1239:1 1241:1 1265:1 1292:1 1313:1 1329:1 1334:1 1350:1 1356:1 1357:1 1374:1
1 246:1 559:1 681:1 701:1 907:1 1231:1 1241:1 1292:1 1313:1 1356:1 1374:2
1 246:1 559:1 681:1 907:1 981:1 1231:1 1239:1 1292:1 1313:1 1356:1 1374:4
1 246:1 559:1 634:1 907:1 1292:1 1313:1 1356:1 1357:1 1374:3
1 246:1 559:1 634:1 907:1 1292:1 1313:1 1356:1 1357:1 1374:3
1 246:1 559:1 634:1 907:1 1292:1 1313:1 1356:1 1357:1 1374:3
1 246:1 541:1 559:1 681:1 907:1 1231:1 1292:1 1300:1 1313:1 1356:1 1374:3
1 246:1 559:1 634:1 907:1 1292:1 1313:1 1356:1 1357:1 1374:3
1 246:1 559:1 634:1 907:1 1292:1 1313:1 1356:1 1357:1 1374:3
1 131:1 246:1 300:1 406:1 407:1 460:1 541:1 559:1 621:1 634:1 681:1 701:1 895:1 907:1 978:1 981:1 1152:1 1225:1 1231:1 1235:1 1236:1 1237:1 1239:1 1241:1 1265:1 1292:1 1300:1 1313:1 1329:1 1334:1 1348:1 1350:1 1356:1 1357:1 1374:2
1 246:1 559:1 634:1 907:1 1292:1 1313:1 1356:1 1357:1 1374:3
1 246:1 559:1 1292:1 1313:1 1374:2
1 1374:3
1 131:1 246:1 300:1 406:1 407:1 460:1 541:1 559:1 621:1 634:1 681:1 701:1 895:1 907:1 978:1 981:1 1152:1 1225:1 1231:1 1235:1 1236:1 1237:1 1239:1 1241:1 1265:1 1292:1 1300:1 1313:1 1329:1 1334:1 1348:1 1350:1 1356:1 1357:1 1374:2
1 246:1 559:1 634:1 907:1 1292:1 1313:1 1356:1 1357:1 1374:3
1 131:1 246:1 300:1 406:1 407:1 460:1 541:1 559:1 621:1 634:1 681:1 701:1 895:1 907:1 978:1 981:1 1152:1 1225:1 1231:1 1235:1 1236:1 1237:1 1239:1 1241:1 1265:1 1292:1 1300:1 1313:1 1329:1 1334:1 1348:1 1350:1 1356:1 1357:1 1374:1
1 246:1 559:1 634:1 907:1 1292:1 1313:1 1356:1 1357:1 1374:3
1 246:1 559:1 634:1 907:1 1292:1 1313:1 1356:1 1357:1 1374:3
1 246:1 300:1 406:1 407:1 460:1 559:1 634:1 681:1 701:1 895:1 907:1 981:1 1152:1 1231:1 1235:1 1236:1 1239:1 1241:1 1265:1 1292:1 1313:1 1329:1 1334:1 1350:1 1356:1 1357:1 1374:2
1 246:1 559:1 1292:1 1313:1 1374:2
1 131:1 246:1 406:1 407:1 541:1 559:1 895:1 1152:1 1225:1 1235:1 1236:1 1292:1 1300:1 1313:1 1334:1 1350:1 1374:3
1 246:1 559:1 634:1 907:1 1292:1 1313:1 1356:1 1357:1 1374:3
1 246:1 559:1 634:1 907:1 1292:1 1313:1 1356:1 1357:1 1374:3
1 246:1 365:1 460:1 541:1 559:1 681:1 978:1 1231:1 1237:1 1265:1 1292:1 1300:1 1313:1 1370:1 1374:2
1 246:1 559:1 634:1 907:1 1292:1 1313:1 1356:1 1357:1 1374:3
1 246:1 559:1 634:1 907:1 1292:1 1313:1 1356:1 1357:1 1374:3
1 246:1 460:1 541:1 559:1 681:1 907:1 981:1 1231:1 1239:1 1265:1 1292:1 1300:1 1313:1 1356:1 1374:4
1 246:1 559:1 634:1 907:1 1292:1 1313:1 1356:1 1357:1 1374:3
1 246:1 300:1 406:1 407:1 460:1 559:1 634:1 681:1 701:1 895:1 907:1 981:1 1152:1 1231:1 1235:1 1236:1 1239:1 1241:1 1265:1 1292:1 1313:1 1329:1 1334:1 1350:1 1356:1 1357:1 1374:1
1 1374:3
1 246:1 559:1 634:1 907:1 1292:1 1313:1 1356:1 1357:1 1374:3
1 246:1 559:1 1292:1 1313:1 1374:2
1 246:1 559:1 634:1 907:1 1292:1 1313:1 1356:1 1357:1 1374:3
1 246:1 559:1 681:1 907:1 1231:1 1292:1 1313:1 1356:1 1374:2
1 246:1 559:1 634:1 907:1 1292:1 1313:1 1356:1 1357:1 1374:3
1 246:1 559:1 1292:1 1313:1 1374:2
1 246:1 300:1 406:1 407:1 460:1 559:1 634:1 681:1 701:1 895:1 907:1 981:1 1152:1 1231:1 1235:1 1236:1 1239:1 1241:1 1265:1 1292:1 1313:1 1329:1 1334:1 1350:1 1356:1 1357:1 1374:2
1 246:1 460:1 541:1 559:1 681:1 701:1 907:1 978:1 981:1 1231:1 1237:1 1239:1 1241:1 1265:1 1292:1 1300:1 1313:1 1356:1 1374:2
1 246:1 559:1 634:1 907:1 1292:1 1313:1 1356:1 1357:1 1374:3
1 246:1 559:1 634:1 907:1 1292:1 1313:1 1356:1 1357:1 1374:3
1 246:1 559:1 907:1 1292:1 1313:1 1356:1 1374:3
1 246:1 559:1 634:1 907:1 1292:1 1313:1 1356:1 1357:1 1374:3
1 246:1 559:1 634:1 907:1 1292:1 1313:1 1356:1 1357:1 1374:3
1 246:1 300:1 406:1 407:1 460:1 559:1 634:1 681:1 701:1 895:1 907:1 981:1 1152:1 1231:1 1235:1 1236:1 1239:1 1241:1 1265:1 1292:1 1313:1 1329:1 1334:1 1350:1 1356:1 1357:1 1374:1
1 246:1 559:1 1292:1 1313:1 1374:1
1 246:1 559:1 681:1 907:1 1231:1 1292:1 1313:1 1356:1 1374:4
1 1374:3
1 131:1 246:1 300:1 406:1 407:1 460:1 541:1 559:1 621:1 634:1 681:1 701:1 895:1 907:1 978:1 981:1 1152:1 1225:1 1231:1 1235:1 1236:1 1237:1 1239:1 1241:1 1265:1 1292:1 1300:1 1313:1 1329:1 1334:1 1348:1 1350:1 1356:1 1357:1 1374:1
1 246:1 559:1 634:1 907:1 1292:1 1313:1 1356:1 1357:1 1374:3
1 246:1 300:1 406:1 407:1 460:1 559:1 634:1 681:1 701:1 895:1 907:1 981:1 1152:1 1231:1 1235:1 1236:1 1239:1 1241:1 1265:1 1292:1 1313:1 1329:1 1334:1 1350:1 1356:1 1357:1 1374:2
1 246:1 559:1 634:1 907:1 1292:1 1313:1 1356:1 1357:1 1374:3
1 131:1 246:1 300:1 406:1 407:1 460:1 541:1 559:1 621:1 634:1 681:1 701:1 895:1 907:1 978:1 981:1 1152:1 1225:1 1231:1 1235:1 1236:1 1237:1 1239:1 1241:1 1265:1 1292:1 1300:1 1313:1 1329:1 1334:1 1348:1 1350:1 1356:1 1357:1 1374:2
1 246:1 460:1 541:1 559:1 681:1 907:1 1231:1 1265:1 1292:1 1300:1 1313:1 1356:1 1374:2
1 701:1 1241:1 1374:3
1 246:1 541:1 559:1 681:1 907:1 1231:1 1292:1 1300:1 1313:1 1356:1 1374:2
1 246:1 559:1 634:1 907:1 1292:1 1313:1 1356:1 1357:1 1374:3
1 246:1 559:1 634:1 907:1 1292:1 1313:1 1356:1 1357:1 1374:3
1 131:1 246:1 300:1 406:1 407:1 541:1 559:1 634:1 681:1 701:1 907:1 978:1 981:1 1152:1 1225:1 1231:1 1235:1 1236:1 1237:1 1239:1 1241:1 1292:1 1300:1 1313:1 1329:1 1334:1 1356:1 1357:1 1374:2
1 246:1 559:1 634:1 907:1 1292:1 1313:1 1356:1 1357:1 1374:3
1 246:1 559:1 634:1 907:1 1292:1 1313:1 1356:1 1357:1 1374:3
1 246:2 349:1 511:1 541:1 559:2 681:1 1231:1 1286:1 1292:2 1300:1 1313:2 1354:1 1374:9 1376:1
1 246:1 559:1 681:1 907:1 1231:1 1292:1 1313:1 1356:1 1374:2
1 1374:3
1 246:1 559:1 634:1 907:1 1292:1 1313:1 1356:1 1357:1 1374:3
1 246:1 559:1 634:1 907:1 1292:1 1313:1 1356:1 1357:1 1374:3
1 1374:4
1 246:1 300:1 406:1 407:1 460:1 559:1 634:1 681:1 701:1 895:1 907:1 981:1 1152:1 1231:1 1235:1 1236:1 1239:1 1241:1 1265:1 1292:1 1313:1 1329:1 1334:1 1350:1 1356:1 1357:1 1374:2
1 131:1 246:1 300:1 406:1 407:1 460:1 541:1 559:1 621:1 634:1 681:1 701:1 895:1 907:1 978:1 981:1 1152:1 1225:1 1231:1 1235:1 1236:1 1237:1 1239:1 1241:1 1265:1 1292:1 1300:1 1313:1 1329:1 1334:1 1348:1 1350:1 1356:1 1357:1 1374:2
1 246:1 349:1 559:1 582:1 681:1 1220:1 1231:1 1243:1 1260:1 1267:1 1270:1 1292:1 1313:1 1321:1 1331:1 1354:1 1374:2 1376:18
1 1374:3
1 246:1 406:1 407:1 559:1 681:1 701:1 895:1 907:1 981:1 1231:1 1235:1 1236:1 1239:1 1241:1 1292:1 1313:1 1350:1 1356:1 1374:1
1 246:1 559:1 1292:1 1313:1 1374:2
1 246:1 559:1 634:1 907:1 1292:1 1313:1 1356:1 1357:1 1374:3
1 246:1 541:1 559:1 681:1 981:1 1231:1 1239:1 1292:1 1300:1 1313:1 1374:2
1 131:1 246:1 300:1 406:1 407:1 460:1 541:1 559:1 621:1 634:1 681:1 701:1 895:1 907:1 978:1 981:1 1152:1 1225:1 1231:1 1235:1 1236:1 1237:1 1239:1 1241:1 1265:1 1292:1 1300:1 1313:1 1329:1 1334:1 1348:1 1350:1 1356:1 1357:1 1374:2
1 131:1 246:1 406:1 407:1 541:1 559:1 895:1 1152:1 1225:1 1235:1 1236:1 1292:1 1300:1 1313:1 1334:1 1350:1 1374:3
1 246:1 559:1 634:1 907:1 1292:1 1313:1 1356:1 1357:1 1374:3
1 131:1 246:1 406:1 407:1 541:1 559:1 895:1 1152:1 1225:1 1235:1 1236:1 1292:1 1300:1 1313:1 1334:1 1350:1 1374:3
1 246:1 559:1 681:1 907:1 1231:1 1292:1 1313:1 1356:1 1374:2
1 131:1 246:1 300:1 406:1 407:1 460:1 541:1 559:1 621:1 634:1 681:1 701:1 895:1 907:1 978:1 981:1 1152:1 1225:1 1231:1 1235:1 1236:1 1237:1 1239:1 1241:1 1265:1 1292:1 1300:1 1313:1 1329:1 1334:1 1348:1 1350:1 1356:1 1357:1 1374:2
1 246:1 559:1 634:1 907:1 1292:1 1313:1 1356:1 1357:1 1374:3
1 246:1 559:1 681:1 907:1 1231:1 1292:1 1313:1 1356:1 1374:2
1 246:1 559:1 1292:1 1313:1 1374:2
1 131:1 246:1 300:1 406:1 407:1 460:1 541:1 559:1 621:1 634:1 681:1 701:1 895:1 907:1 978:1 981:1 1152:1 1225:1 1231:1 1235:1 1236:1 1237:1 1239:1 1241:1 1265:1 1292:1 1300:1 1313:1 1329:1 1334:1 1348:1 1350:1 1356:1 1357:1 1374:2
1 246:1 460:1 541:1 559:1 681:1 699:1 701:1 907:1 981:1 1231:1 1239:1 1240:1 1241:1 1260:1 1265:1 1292:1 1300:1 1313:1 1356:1 1359:1 1374:2 1376:9
1 1374:3
1 246:1 559:1 634:1 907:1 1292:1 1313:1 1356:1 1357:1 1374:3
1 246:1 559:1 634:1 907:1 1292:1 1313:1 1356:1 1357:1 1374:3
1 131:1 246:1 300:1 406:1 407:1 460:1 541:1 559:1 621:1 634:1 681:1 701:1 895:1 907:1 978:1 981:1 1152:1 1225:1 1231:1 1235:1 1236:1 1237:1 1239:1 1241:1 1265:1 1292:1 1300:1 1313:1 1329:1 1334:1 1348:1 1350:1 1356:1 1357:1 1374:2
1 246:1 559:1 634:1 907:1 1292:1 1313:1 1356:1 1357:1 1374:3
1 246:1 559:1 634:1 907:1 1292:1 1313:1 1356:1 1357:1 1374:3
1 246:1 365:1 541:1 559:1 681:1 907:1 978:1 981:1 1231:1 1237:1 1239:1 1292:1 1300:1 1313:1 1356:1 1370:1 1374:3
1 246:1 559:1 634:1 907:1 1292:1 1313:1 1356:1 1357:1 1374:3
1 246:1 300:1 406:1 407:1 460:1 559:1 634:1 681:1 701:1 895:1 907:1 981:1 1152:1 1231:1 1235:1 1236:1 1239:1 1241:1 1265:1 1292:1 1313:1 1329:1 1334:1 1350:1 1356:1 1357:1 1374:1
1 246:1 559:1 634:1 907:1 1292:1 1313:1 1356:1 1357:1 1374:3
1 246:1 559:1 634:1 907:1 1292:1 1313:1 1356:1 1357:1 1374:3
1 246:1 559:1 634:1 907:1 1292:1 1313:1 1356:1 1357:1 1374:3
1 246:1 559:1 634:1 907:1 1292:1 1313:1 1356:1 1357:1 1374:3
1 246:1 559:1 634:1 907:1 1292:1 1313:1 1356:1 1357:1 1374:3
1 131:1 246:1 300:1 406:1 407:1 460:1 541:1 559:1 621:1 634:1 681:1 701:1 895:1 907:1 978:1 981:1 1152:1 1225:1 1231:1 1235:1 1236:1 1237:1 1239:1 1241:1 1265:1 1292:1 1300:1 1313:1 1329:1 1334:1 1348:1 1350:1 1356:1 1357:1 1374:1
1 246:1 460:1 541:1 559:1 681:1 907:1 1231:1 1265:1 1292:1 1300:1 1313:1 1356:1 1374:2
1 246:1 559:1 634:1 907:1 1292:1 1313:1 1356:1 1357:1 1374:3
1 246:1 365:1 541:1 559:1 681:1 907:1 978:1 981:1 1231:1 1237:1 1239:1 1292:1 1300:1 1313:1 1356:1 1370:1 1374:3
1 246:1 559:1 634:1 907:1 1292:1 1313:1 1356:1 1357:1 1374:3
1 131:1 559:1 621:1 681:1 907:1 981:1 1225:1 1231:1 1239:1 1313:1 1348:1 1356:1 1374:2
1 246:1 559:1 634:1 907:1 1292:1 1313:1 1356:1 1357:1 1374:3
1 246:1 559:1 634:1 907:1 1292:1 1313:1 1356:1 1357:1 1374:3
1 246:1 559:1 634:1 907:1 1292:1 1313:1 1356:1 1357:1 1374:3
1 246:1 559:1 681:1 907:1 1231:1 1292:1 1313:1 1356:1 1374:2
1 131:1 246:1 300:1 406:1 407:1 460:1 541:1 559:1 621:1 634:1 681:1 701:1 895:1 907:1 978:1 981:1 1152:1 1225:1 1231:1 1235:1 1236:1 1237:1 1239:1 1241:1 1265:1 1292:1 1300:1 1313:1 1329:1 1334:1 1348:1 1350:1 1356:1 1357:1 1374:2
1 246:1 559:1 634:1 907:1 1292:1 1313:1 1356:1 1357:1 1374:3
1 246:1 559:1 681:1 907:1 1231:1 1292:1 1313:1 1356:1 1374:2
1 246:1 559:1 634:1 907:1 1292:1 1313:1 1356:1 1357:1 1374:3
1 246:1 559:1 634:1 907:1 1292:1 1313:1 1356:1 1357:1 1374:2
1 246:1 559:1 634:1 907:1 1292:1 1313:1 1356:1 1357:1 1374:3
1 246:1 460:1 541:1 559:1 681:1 701:1 907:1 978:1 981:1 1231:1 1237:1 1239:1 1241:1 1265:1 1292:1 1300:1 1313:1 1356:1 1374:2
1 246:1 559:1 621:1 681:1 701:1 907:1 978:1 1231:1 1237:1 1241:1 1292:1 1313:1 1348:1 1356:1 1374:1
1 246:1 559:1 907:1 1292:1 1313:1 1356:1 1374:5
1 131:1 246:1 300:1 406:1 407:1 460:1 541:1 559:1 621:1 634:1 681:1 701:1 895:1 907:1 978:1 981:1 1152:1 1225:1 1231:1 1235:1 1236:1 1237:1 1239:1 1241:1 1265:1 1292:1 1300:1 1313:1 1329:1 1334:1 1348:1 1350:1 1356:1 1357:1 1374:1
1 246:1 559:1 634:1 907:1 1292:1 1313:1 1356:1 1357:1 1374:3
1 131:1 246:1 406:1 407:1 541:1 559:1 895:1 1152:1 1225:1 1235:1 1236:1 1292:1 1300:1 1313:1 1334:1 1350:1 1374:3
1 246:1 559:1 634:1 907:1 1292:1 1313:1 1356:1 1357:1 1374:3
1 246:1 559:1 634:1 907:1 1292:1 1313:1 1356:1 1357:1 1374:3
1 246:1 559:1 634:1 907:1 1292:1 1313:1 1356:1 1357:1 1374:3
1 1374:3
1 246:1 300:1 406:1 407:1 460:1 559:1 634:1 681:1 701:1 895:1 907:1 981:1 1152:1 1231:1 1235:1 1236:1 1239:1 1241:1 1265:1 1292:1 1313:1 1329:1 1334:1 1350:1 1356:1 1357:1 1374:2
1 131:1 246:1 300:1 406:1 407:1 460:1 541:1 559:1 621:1 634:1 681:1 701:1 895:1 907:1 978:1 981:1 1152:1 1225:1 1231:1 1235:1 1236:1 1237:1 1239:1 1241:1 1265:1 1292:1 1300:1 1313:1 1329:1 1334:1 1348:1 1350:1 1356:1 1357:1 1374:2
1 131:1 246:1 300:1 406:1 407:1 460:1 541:1 559:1 621:1 634:1 681:1 701:1 895:1 907:1 978:1 981:1 1152:1 1225:1 1231:1 1235:1 1236:1 1237:1 1239:1 1241:1 1265:1 1292:1 1300:1 1313:1 1329:1 1334:1 1348:1 1350:1 1356:1 1357:1 1374:2
1 246:1 559:1 634:1 907:1 1292:1 1313:1 1356:1 1357:1 1374:3
1 246:1 559:1 634:1 907:1 1292:1 1313:1 1356:1 1357:1 1374:3
1 246:1 559:1 634:1 907:1 1292:1 1313:1 1356:1 1357:1 1374:3
1 246:1 559:1 681:1 907:1 1231:1 1292:1 1313:1 1356:1 1374:6
1 246:1 300:1 406:1 407:1 460:1 559:1 621:1 634:1 681:1 701:1 895:1 907:1 981:1 1152:1 1231:1 1235:1 1236:1 1239:1 1241:1 1265:1 1292:1 1313:1 1329:1 1334:1 1348:1 1350:1 1356:1 1357:1 1374:2
1 701:1 1241:1 1374:2
1 131:1 246:1 406:1 407:1 541:1 559:1 895:1 1152:1 1225:1 1235:1 1236:1 1292:1 1300:1 1313:1 1334:1 1350:1 1374:3
1 246:1 559:1 681:1 907:1 1231:1 1292:1 1313:1 1356:1 1374:7
1 246:1 267:1 349:1 541:1 559:1 606:1 681:1 741:1 981:1 1231:1 1239:1 1258:1 1292:1 1300:1 1301:1 1313:1 1343:1 1354:1 1374:4
1 246:1 559:1 1292:1 1313:1 1374:3
1 246:1 559:1 681:1 907:1 1231:1 1292:1 1313:1 1356:1 1374:2
1 246:1 559:1 634:1 907:1 1292:1 1313:1 1356:1 1357:1 1374:3
1 131:1 246:1 300:1 406:1 407:1 460:1 541:1 559:1 621:1 634:1 681:1 701:1 895:1 907:1 978:1 981:1 1152:1 1225:1 1231:1 1235:1 1236:1 1237:1 1239:1 1241:1 1265:1 1292:1 1300:1 1313:1 1329:1 1334:1 1348:1 1350:1 1356:1 1357:1 1374:2
1 246:1 559:1 634:1 907:1 1292:1 1313:1 1356:1 1357:1 1374:3
1 246:1 559:1 634:1 907:1 1292:1 1313:1 1356:1 1357:1 1374:3
1 246:1 559:1 634:1 907:1 1292:1 1313:1 1356:1 1357:1 1374:3
1 559:1 681:1 907:1 1231:1 1313:1 1356:1 1374:3
1 701:1 1241:1 1374:3
1 1374:3
1 246:1 559:1 681:1 907:1 1231:1 1292:1 1313:1 1356:1 1374:6
1 246:1 559:1 634:1 907:1 1292:1 1313:1 1356:1 1357:1 1374:3
1 246:1 559:1 1292:1 1313:1 1374:2
1 246:1 559:1 634:1 907:1 1292:1 1313:1 1356:1 1357:1 1374:3
1 246:1 559:1 1292:1 1313:1 1374:3
1 246:1 349:1 365:1 460:1 541:1 559:1 681:1 701:1 907:1 978:1 981:1 1231:1 1237:1 1239:1 1241:1 1265:1 1292:1 1300:1 1313:1 1354:1 1356:1 1370:1 1374:2
1 246:1 365:1 460:1 541:1 559:1 681:1 978:1 981:1 1231:1 1237:1 1239:1 1265:1 1292:1 1300:1 1313:1 1370:1 1374:3
1 246:1 267:1 349:1 541:1 559:1 606:1 681:1 741:1 981:1 1231:1 1239:1 1258:1 1292:1 1300:1 1301:1 1313:1 1343:1 1354:1 1374:4
1 246:1 460:1 541:1 559:1 681:1 907:1 1231:1 1265:1 1292:1 1300:1 1313:1 1356:1 1374:2
1 131:1 246:1 300:1 406:1 407:1 460:1 541:1 559:1 621:1 634:1 681:1 701:1 895:1 907:1 978:1 981:1 1152:1 1225:1 1231:1 1235:1 1236:1 1237:1 1239:1 1241:1 1265:1 1292:1 1300:1 1313:1 1329:1 1334:1 1348:1 1350:1 1356:1 1357:1 1374:2
1 701:1 1241:1 1374:3
1 246:1 559:1 634:1 907:1 1292:1 1313:1 1356:1 1357:1 1374:3
1 246:1 559:1 634:1 907:1 1292:1 1313:1 1356:1 1357:1 1374:3
1 701:1 1241:1 1374:3
1 246:1 559:1 634:1 907:1 1292:1 1313:1 1356:1 1357:1 1374:3
1 246:1 559:1 634:1 907:1 1292:1 1313:1 1356:1 1357:1 1374:3
1 246:1 559:1 907:1 1292:1 1313:1 1356:1 1374:3
1 246:1 559:1 634:1 907:1 1292:1 1313:1 1356:1 1357:1 1374:3
1 131:1 246:1 300:1 406:1 407:1 460:1 541:1 559:1 621:1 634:1 681:1 701:1 895:1 907:1 978:1 981:1 1152:1 1225:1 1231:1 1235:1 1236:1 1237:1 1239:1 1241:1 1265:1 1292:1 1300:1 1313:1 1329:1 1334:1 1348:1 1350:1 1356:1 1357:1 1374:2
1 131:1 246:1 406:1 407:1 541:1 559:1 895:1 1152:1 1225:1 1235:1 1236:1 1292:1 1300:1 1313:1 1334:1 1350:1 1374:3
1 1374:3
1 246:1 559:1 634:1 907:1 1292:1 1313:1 1356:1 1357:1 1374:3
1 246:1 559:1 1292:1 1313:1 1374:2
1 349:1 559:1 1313:1 1354:1 1374:9 1376:55
1 246:1 541:1 559:1 681:1 907:1 1231:1 1292:1 1300:1 1313:1 1356:1 1374:2
1 1374:3
1 246:1 559:1 634:1 907:1 1292:1 1313:1 1356:1 1357:1 1374:3
1 246:1 559:1 634:1 907:1 1292:1 1313:1 1356:1 1357:1 1374:3
1 1374:3
1 246:1 559:1 681:1 907:1 1231:1 1292:1 1313:1 1356:1 1374:2
1 246:1 300:1 406:1 407:1 460:1 559:1 634:1 681:1 701:1 895:1 907:1 981:1 1152:1 1231:1 1235:1 1236:1 1239:1 1241:1 1265:1 1292:1 1313:1 1329:1 1334:1 1350:1 1356:1 1357:1 1374:2
1 246:1 559:1 681:1 907:1 1231:1 1292:1 1313:1 1356:1 1374:2
1 246:1 559:1 634:1 907:1 1292:1 1313:1 1356:1 1357:1 1374:3
1 131:1 246:1 300:1 406:1 407:1 460:1 541:1 559:1 621:1 634:1 681:1 701:1 895:1 907:1 978:1 981:1 1152:1 1225:1 1231:1 1235:1 1236:1 1237:1 1239:1 1241:1 1265:1 1292:1 1300:1 1313:1 1329:1 1334:1 1348:1 1350:1 1356:1 1357:1 1374:2
1 131:1 246:1 300:1 406:1 407:1 460:1 541:1 559:1 621:1 634:1 681:1 701:1 895:1 907:1 978:1 981:1 1152:1 1225:1 1231:1 1235:1 1236:1 1237:1 1239:1 1241:1 1265:1 1292:1 1300:1 1313:1 1329:1 1334:1 1348:1 1350:1 1356:1 1357:1 1374:2
1 246:1 559:1 634:1 907:1 1292:1 1313:1 1356:1 1357:1 1374:3
1 246:1 559:1 907:1 1292:1 1313:1 1356:1 1374:3
1 131:1 559:1 621:1 681:1 907:1 981:1 1225:1 1231:1 1239:1 1313:1 1348:1 1356:1 1374:2
1 246:1 559:1 634:1 907:1 1292:1 1313:1 1356:1 1357:1 1374:3
1 246:1 559:1 634:1 907:1 1292:1 1313:1 1356:1 1357:1 1374:3
1 1374:3
1 246:1 559:1 634:1 907:1 1292:1 1313:1 1356:1 1357:1 1374:3
1 131:1 246:1 300:1 406:1 407:1 460:1 541:1 559:1 621:1 634:1 681:1 701:1 895:1 907:1 978:1 981:1 1152:1 1225:1 1231:1 1235:1 1236:1 1237:1 1239:1 1241:1 1265:1 1292:1 1300:1 1313:1 1329:1 1334:1 1348:1 1350:1 1356:1 1357:1 1374:2
1 246:1 559:1 634:1 907:1 1292:1 1313:1 1356:1 1357:1 1374:3
1 246:1 559:1 1292:1 1313:1 1374:2
1 1374:3
1 246:1 559:1 634:1 907:1 1292:1 1313:1 1356:1 1357:1 1374:3
1 246:1 559:1 634:1 907:1 1292:1 1313:1 1356:1 1357:1 1374:3
1 246:1 559:1 907:1 1292:1 1313:1 1356:1 1374:3
1 701:1 1241:1 1374:3
1 246:1 559:1 634:1 907:1 1292:1 1313:1 1356:1 1357:1 1374:3
1 246:1 559:1 634:1 907:1 1292:1 1313:1 1356:1 1357:1 1374:3
1 246:1 300:1 406:1 407:1 460:1 559:1 634:1 681:1 701:1 895:1 907:1 981:1 1152:1 1231:1 1235:1 1236:1 1239:1 1241:1 1265:1 1292:1 1313:1 1329:1 1334:1 1350:1 1356:1 1357:1 1374:2
1 246:1 559:1 681:1 701:1 907:1 1231:1 1241:1 1292:1 1313:1 1356:1 1374:2
1 246:1 559:1 681:1 907:1 1231:1 1292:1 1313:1 1356:1 1374:4
1 246:1 541:1 559:1 681:1 907:1 1231:1 1292:1 1300:1 1313:1 1356:1 1374:2
1 246:1 559:1 681:1 907:1 1231:1 1292:1 1313:1 1356:1 1374:2
1 131:1 559:1 621:1 681:1 907:1 981:1 1225:1 1231:1 1239:1 1313:1 1348:1 1356:1 1374:2
1 246:1 559:1 634:1 907:1 1292:1 1313:1 1356:1 1357:1 1374:3
1 246:1 559:1 634:1 907:1 1292:1 1313:1 1356:1 1357:1 1374:3
1 1374:3
1 246:1 559:1 634:1 907:1 1292:1 1313:1 1356:1 1357:1 1374:3
1 246:1 559:1 634:1 907:1 1292:1 1313:1 1356:1 1357:1 1374:3
1 246:1 559:1 907:1 1292:1 1313:1 1356:1 1374:3
1 701:1 1241:1 1374:3
1 246:1 559:1 634:1 907:1 1292:1 1313:1 1356:1 1357:1 1374:3
1 701:1 1241:1 1374:3
1 246:1 541:1 559:1 681:1 907:1 1231:1 1292:1 1300:1 1313:1 1356:1 1374:2
1 246:1 559:1 1292:1 1313:1 1374:3 1376:57
1 131:1 246:1 300:1 406:1 407:1 460:1 541:1 559:1 621:1 634:1 681:1 701:1 895:1 907:1 978:1 981:1 1152:1 1225:1 1231:1 1235:1 1236:1 1237:1 1239:1 1241:1 1265:1 1292:1 1300:1 1313:1 1329:1 1334:1 1348:1 1350:1 1356:1 1357:1 1374:2
1 701:1 1241:1 1374:3
1 131:1 246:1 300:1 406:1 407:1 460:1 541:1 559:1 621:1 634:1 681:1 701:1 895:1 907:1 978:1 981:1 1152:1 1225:1 1231:1 1235:1 1236:1 1237:1 1239:1 1241:1 1265:1 1292:1 1300:1 1313:1 1329:1 1334:1 1348:1 1350:1 1356:1 1357:1 1374:1
1 246:1 559:1 634:1 907:1 1292:1 1313:1 1356:1 1357:1 1374:3
1 246:1 559:1 634:1 907:1 1292:1 1313:1 1356:1 1357:1 1374:3
1 131:1 246:1 406:1 407:1 541:1 559:1 895:1 1152:1 1225:1 1235:1 1236:1 1292:1 1300:1 1313:1 1334:1 1350:1 1374:3
1 246:1 559:1 634:1 907:1 1292:1 1313:1 1356:1 1357:1 1374:3
1 246:1 559:1 634:1 907:1 1292:1 1313:1 1356:1 1357:1 1374:3
1 246:1 349:1 460:1 541:1 559:1 634:1 681:1 907:1 1231:1 1265:1 1292:1 1300:1 1313:1 1354:1 1356:1 1357:1 1374:4
1 246:1 559:1 681:1 701:1 907:1 1231:1 1241:1 1292:1 1313:1 1356:1 1374:3
1 246:1 559:1 634:1 907:1 1292:1 1313:1 1356:1 1357:1 1374:3
1 246:1 559:1 634:1 907:1 1292:1 1313:1 1356:1 1357:1 1374:3
1 246:1 559:1 634:1 907:1 1292:1 1313:1 1356:1 1357:1 1374:3
1 246:1 559:1 634:1 907:1 1292:1 1313:1 1356:1 1357:1 1374:3
1 246:1 559:1 634:1 907:1 1292:1 1313:1 1356:1 1357:1 1374:3
1 246:1 559:1 681:1 907:1 1231:1 1292:1 1313:1 1356:1 1374:5
1 246:1 559:1 634:1 907:1 1292:1 1313:1 1356:1 1357:1 1374:3
1 701:1 1241:1 1374:3
1 246:1 559:1 681:1 1231:1 1292:1 1313:1 1374:2
1 131:1 246:1 541:1 559:1 681:1 981:1 1152:1 1225:1 1231:1 1239:1 1292:1 1300:1 1313:1 1334:1 1374:2
1 1374:3
1 246:1 559:1 1292:1 1313:1 1374:3
1 246:1 559:1 634:1 907:1 1292:1 1313:1 1356:1 1357:1 1374:3
1 246:1 559:1 681:1 907:1 1231:1 1292:1 1313:1 1356:1 1374:2
1 246:1 559:1 634:1 907:1 1292:1 1313:1 1356:1 1357:1 1374:3
1 246:1 300:1 406:1 407:1 460:1 559:1 634:1 681:1 701:1 895:1 907:1 981:1 1152:1 1231:1 1235:1 1236:1 1239:1 1241:1 1265:1 1292:1 1313:1 1329:1 1334:1 1350:1 1356:1 1357:1 1374:2
1 131:1 246:1 300:1 406:1 407:1 460:1 541:1 559:1 621:1 634:1 681:1 701:1 895:1 907:1 978:1 981:1 1152:1 1225:1 1231:1 1235:1 1236:1 1237:1 1239:1 1241:1 1265:1 1292:1 1300:1 1313:1 1329:1 1334:1 1348:1 1350:1 1356:1 1357:1 1374:2
1 246:1 559:1 634:1 907:1 1292:1 1313:1 1356:1 1357:1 1374:3
1 246:1 559:1 634:1 907:1 1292:1 1313:1 1356:1 1357:1 1374:3
1 246:1 559:1 907:1 1292:1 1313:1 1356:1 1374:3
1 246:1 460:1 541:1 559:1 681:1 701:1 907:1 978:1 981:1 1231:1 1237:1 1239:1 1241:1 1265:1 1292:1 1300:1 1313:1 1356:1 1374:2
1 131:1 246:1 300:1 406:1 407:1 460:1 541:1 559:1 621:1 634:1 681:1 701:1 895:1 907:1 978:1 981:1 1152:1 1225:1 1231:1 1235:1 1236:1 1237:1 1239:1 1241:1 1265:1 1292:1 1300:1 1313:1 1329:1 1334:1 1348:1 1350:1 1356:1 1357:1 1374:2
1 246:1 365:1 460:1 541:1 559:1 681:1 701:1 978:1 981:1 1231:1 1237:1 1239:1 1241:1 1265:1 1292:1 1300:1 1313:1 1370:1 1374:2
1 246:1 559:1 681:1 907:1 1231:1 1292:1 1313:1 1356:1 1374:3
1 131:1 246:1 300:1 406:1 407:1 460:1 541:1 559:1 621:1 634:1 681:1 701:1 895:1 907:1 978:1 981:1 1152:1 1225:1 1231:1 1235:1 1236:1 1237:1 1239:1 1241:1 1265:1 1292:1 1300:1 1313:1 1329:1 1334:1 1348:1 1350:1 1356:1 1357:1 1374:2
1 246:1 559:1 681:1 907:1 1231:1 1292:1 1313:1 1356:1 1374:3
1 246:1 460:1 541:1 559:1 681:1 701:1 907:1 978:1 981:1 1231:1 1237:1 1239:1 1241:1 1265:1 1292:1 1300:1 1313:1 1356:1 1374:2
1 246:1 460:1 541:1 559:1 681:1 701:1 907:1 978:1 981:1 1231:1 1237:1 1239:1 1241:1 1265:1 1292:1 1300:1 1313:1 1356:1 1374:2
1 131:1 246:1 406:1 407:1 541:1 559:1 895:1 1152:1 1225:1 1235:1 1236:1 1292:1 1300:1 1313:1 1334:1 1350:1 1374:3
1 246:1 559:1 681:1 907:1 1231:1 1292:1 1313:1 1356:1 1374:3
1 246:1 559:1 634:1 907:1 1292:1 1313:1 1356:1 1357:1 1374:3
1 131:1 246:1 300:1 406:1 407:1 460:1 541:1 559:1 621:1 634:1 681:1 701:1 895:1 907:1 978:1 981:1 1152:1 1225:1 1231:1 1235:1 1236:1 1237:1 1239:1 1241:1 1265:1 1292:1 1300:1 1313:1 1329:1 1334:1 1348:1 1350:1 1356:1 1357:1 1374:2
1 131:1 246:1 300:1 406:1 407:1 460:1 541:1 559:1 621:1 634:1 681:1 701:1 895:1 907:1 978:1 981:1 1152:1 1225:1 1231:1 1235:1 1236:1 1237:1 1239:1 1241:1 1265:1 1292:1 1300:1 1313:1 1329:1 1334:1 1348:1 1350:1 1356:1 1357:1 1374:2
1 246:1 559:1 681:1 907:1 1231:1 1292:1 1313:1 1356:1 1374:3
1 246:1 365:1 460:1 541:1 559:1 681:1 701:1 907:1 978:1 981:1 1231:1 1237:1 1239:1 1241:1 1265:1 1292:1 1300:1 1313:1 1356:1 1370:1 1374:2
1 246:1 559:1 634:1 907:1 1292:1 1313:1 1356:1 1357:1 1374:3
1 246:1 559:1 634:1 907:1 1292:1 1313:1 1356:1 1357:1 1374:3
1 701:1 1241:1 1374:3
1 246:1 559:1 634:1 907:1 1292:1 1313:1 1356:1 1357:1 1374:3
1 246:1 300:1 406:1 407:1 460:1 559:1 634:1 681:1 701:1 895:1 907:1 981:1 1152:1 1231:1 1235:1 1236:1 1239:1 1241:1 1265:1 1292:1 1313:1 1329:1 1334:1 1350:1 1356:1 1357:1 1374:2
1 131:1 559:1 621:1 681:1 907:1 981:1 1225:1 1231:1 1239:1 1313:1 1348:1 1356:1 1374:2
1 246:1 559:1 634:1 907:1 1292:1 1313:1 1356:1 1357:1 1374:3
1 246:1 559:1 1292:1 1313:1 1374:3
1 246:1 559:1 634:1 907:1 1292:1 1313:1 1356:1 1357:1 1374:3
1 246:1 559:1 634:1 907:1 1292:1 1313:1 1356:1 1357:1 1374:3
1 246:1 559:1 634:1 907:1 1292:1 1313:1 1356:1 1357:1 1374:3
1 1374:4
1 246:1 559:1 634:1 907:1 1292:1 1313:1 1356:1 1357:1 1374:3
1 131:1 246:1 300:1 406:1 407:1 460:1 541:1 559:1 621:1 634:1 681:1 701:1 895:1 907:1 978:1 981:1 1152:1 1225:1 1231:1 1235:1 1236:1 1237:1 1239:1 1241:1 1265:1 1292:1 1300:1 1313:1 1329:1 1334:1 1348:1 1350:1 1356:1 1357:1 1374:2
1 246:1 559:1 634:1 907:1 1292:1 1313:1 1356:1 1357:1 1374:3
1 246:1 460:1 541:1 559:1 681:1 701:1 907:1 978:1 981:1 1231:1 1237:1 1239:1 1241:1 1265:1 1292:1 1300:1 1313:1 1356:1 1374:2
1 131:1 246:1 300:1 406:1 407:1 460:1 541:1 559:1 621:1 634:1 681:1 701:1 895:1 907:1 978:1 981:1 1152:1 1225:1 1231:1 1235:1 1236:1 1237:1 1239:1 1241:1 1265:1 1292:1 1300:1 1313:1 1329:1 1334:1 1348:1 1350:1 1356:1 1357:1 1374:2
1 246:1 559:1 634:1 907:1 1292:1 1313:1 1356:1 1357:1 1374:3
1 246:1 559:1 634:1 907:1 1292:1 1313:1 1356:1 1357:1 1374:3
1 246:1 559:1 681:1 907:1 1231:1 1292:1 1313:1 1356:1 1374:3
1 701:1 1241:1 1374:2
1 131:1 246:1 300:1 406:1 407:1 460:1 541:1 559:1 621:1 634:1 681:1 701:1 895:1 907:1 978:1 981:1 1152:1 1225:1 1231:1 1235:1 1236:1 1237:1 1239:1 1241:1 1265:1 1292:1 1300:1 1313:1 1329:1 1334:1 1348:1 1350:1 1356:1 1357:1 1374:2
1 246:1 300:1 406:1 407:1 460:1 559:1 634:1 681:1 701:1 895:1 907:1 981:1 1152:1 1231:1 1235:1 1236:1 1239:1 1241:1 1265:1 1292:1 1313:1 1329:1 1334:1 1350:1 1356:1 1357:1 1374:2
1 246:1 559:1 634:1 907:1 1292:1 1313:1 1356:1 1357:1 1374:3
1 131:1 246:1 460:1 486:1 525:1 541:1 559:1 576:1 606:1 621:1 681:1 701:1 837:1 907:1 981:1 1225:1 1231:1 1239:1 1241:1 1265:1 1275:1 1292:1 1294:1 1300:1 1302:1 1313:1 1325:1 1343:1 1348:1 1356:1 1374:3 1376:1
1 246:1 559:1 634:1 907:1 1292:1 1313:1 1356:1 1357:1 1374:3
1 246:1 559:1 634:1 907:1 1292:1 1313:1 1356:1 1357:1 1374:3
1 246:1 559:1 634:1 907:1 1292:1 1313:1 1356:1 1357:1 1374:3
1 246:1 559:1 634:1 907:1 1292:1 1313:1 1356:1 1357:1 1374:3
1 246:1 460:1 541:1 559:1 681:1 907:1 1231:1 1265:1 1292:1 1300:1 1313:1 1356:1 1374:2
1 131:1 246:1 300:1 406:1 407:1 460:1 541:1 559:1 621:1 634:1 681:1 701:1 895:1 907:1 978:1 981:1 1152:1 1225:1 1231:1 1235:1 1236:1 1237:1 1239:1 1241:1 1265:1 1292:1 1300:1 1313:1 1329:1 1334:1 1348:1 1350:1 1356:1 1357:1 1374:2
1 246:1 559:1 634:1 907:1 1292:1 1313:1 1356:1 1357:1 1374:3
1 246:1 365:1 460:1 541:1 559:1 681:1 701:1 907:1 978:1 981:1 1231:1 1237:1 1239:1 1241:1 1265:1 1292:1 1300:1 1313:1 1356:1 1370:1 1374:2
1 1374:3
1 246:1 559:1 1292:1 1313:1 1374:3
1 131:1 559:1 621:1 681:1 907:1 981:1 1225:1 1231:1 1239:1 1313:1 1348:1 1356:1 1374:2
1 246:1 559:1 634:1 907:1 1292:1 1313:1 1356:1 1357:1 1374:3
1 246:1 559:1 634:1 907:1 1292:1 1313:1 1356:1 1357:1 1374:2
1 246:1 559:1 634:1 907:1 1292:1 1313:1 1356:1 1357:1 1374:3
1 131:1 246:1 406:1 407:1 541:1 559:1 895:1 1152:1 1225:1 1235:1 1236:1 1292:1 1300:1 1313:1 1334:1 1350:1 1374:3
1 1374:3
1 246:1 559:1 634:1 907:1 1292:1 1313:1 1356:1 1357:1 1374:3
1 246:1 559:1 634:1 907:1 1292:1 1313:1 1356:1 1357:1 1374:3
1 246:1 559:1 681:1 907:1 981:1 1231:1 1239:1 1292:1 1313:1 1356:1 1374:2
1 131:1 246:1 300:1 406:1 407:1 460:1 541:1 559:1 621:1 634:1 681:1 701:1 895:1 907:1 978:1 981:1 1152:1 1225:1 1231:1 1235:1 1236:1 1237:1 1239:1 1241:1 1265:1 1292:1 1300:1 1313:1 1329:1 1334:1 1348:1 1350:1 1356:1 1357:1 1374:2
1 246:1 559:1 634:1 907:1 1292:1 1313:1 1356:1 1357:1 1374:3
1 131:1 559:1 621:1 681:1 907:1 981:1 1225:1 1231:1 1239:1 1313:1 1348:1 1356:1 1374:2
1 701:1 1241:1 1374:3
1 246:1 559:1 634:1 907:1 1292:1 1313:1 1356:1 1357:1 1374:3
1 382:1 1219:1 1374:4
1 131:1 246:1 300:1 406:1 407:1 460:1 541:1 559:1 621:1 634:1 681:1 701:1 895:1 907:1 978:1 981:1 1152:1 1225:1 1231:1 1235:1 1236:1 1237:1 1239:1 1241:1 1265:1 1292:1 1300:1 1313:1 1329:1 1334:1 1348:1 1350:1 1356:1 1357:1 1374:2
1 246:1 559:1 634:1 907:1 1292:1 1313:1 1356:1 1357:1 1374:3
1 246:1 559:1 634:1 907:1 1292:1 1313:1 1356:1 1357:1 1374:3
1 246:1 559:1 634:1 907:1 1292:1 1313:1 1356:1 1357:1 1374:3
1 246:1 559:1 681:1 907:1 1231:1 1292:1 1313:1 1356:1 1374:2
1 246:1 559:1 681:1 907:1 1231:1 1292:1 1313:1 1356:1 1374:2
1 246:1 559:1 634:1 907:1 1292:1 1313:1 1356:1 1357:1 1374:3
1 246:1 559:1 634:1 907:1 1292:1 1313:1 1356:1 1357:1 1374:3
1 246:1 559:1 634:1 907:1 1292:1 1313:1 1356:1 1357:1 1374:3
1 246:1 559:1 634:1 907:1 1292:1 1313:1 1356:1 1357:1 1374:3
1 1374:3
1 246:1 460:1 541:1 559:1 681:1 907:1 981:1 1231:1 1239:1 1265:1 1292:1 1300:1 1313:1 1356:1 1374:4
1 246:1 559:1 634:1 907:1 1292:1 1313:1 1356:1 1357:1 1374:3
1 246:1 559:1 634:1 907:1 1292:1 1313:1 1356:1 1357:1 1374:3
1 246:1 559:1 634:1 907:1 1292:1 1313:1 1356:1 1357:1 1374:3
1 246:1 559:1 634:1 907:1 1292:1 1313:1 1356:1 1357:1 1374:3
1 246:1 559:1 1292:1 1313:1 1374:3
1 246:1 460:1 541:1 559:1 681:1 701:1 907:1 981:1 1231:1 1239:1 1241:1 1265:1 1292:1 1300:1 1313:1 1356:1 1374:2
1 246:1 349:1 406:1 559:1 634:1 681:1 701:1 907:1 978:1 981:1 1231:1 1236:1 1237:1 1239:1 1241:1 1292:1 1313:1 1354:1 1356:1 1357:1 1374:5
1 246:1 559:1 634:1 907:1 1292:1 1313:1 1356:1 1357:1 1374:3
1 1374:3
1 246:1 559:1 634:1 907:1 1292:1 1313:1 1356:1 1357:1 1374:3
1 246:1 559:1 634:1 907:1 1292:1 1313:1 1356:1 1357:1 1374:3
1 246:1 559:1 681:1 907:1 1231:1 1292:1 1313:1 1356:1 1374:2
1 1112:1 1310:1 1374:2
1 246:1 559:1 634:1 907:1 1292:1 1313:1 1356:1 1357:1 1374:3
1 246:1 460:1 541:1 559:1 681:1 907:1 1231:1 1265:1 1292:1 1300:1 1313:1 1356:1 1374:3
1 246:1 460:1 541:1 559:1 681:1 701:1 907:1 981:1 1231:1 1239:1 1241:1 1265:1 1292:1 1300:1 1313:1 1356:1 1374:2
1 246:1 349:1 406:1 559:1 634:1 681:1 701:1 907:1 978:1 981:1 1231:1 1236:1 1237:1 1239:1 1241:1 1292:1 1313:1 1354:1 1356:1 1357:1 1374:5
1 246:1 300:1 406:1 407:1 460:1 559:1 634:1 681:1 701:1 895:1 907:1 981:1 1152:1 1231:1 1235:1 1236:1 1239:1 1241:1 1265:1 1292:1 1313:1 1329:1 1334:1 1350:1 1356:1 1357:1 1374:2
1 131:1 246:1 406:1 407:1 541:1 559:1 895:1 1152:1 1225:1 1235:1 1236:1 1292:1 1300:1 1313:1 1334:1 1350:1 1374:3
1 1374:3
1 246:1 559:1 634:1 907:1 1292:1 1313:1 1356:1 1357:1 1374:3
1 246:1 559:1 634:1 907:1 1292:1 1313:1 1356:1 1357:1 1374:3
1 246:1 300:1 406:1 407:1 460:1 559:1 634:1 681:1 701:1 895:1 907:1 981:1 1152:1 1231:1 1235:1 1236:1 1239:1 1241:1 1265:1 1292:1 1313:1 1329:1 1334:1 1350:1 1356:1 1357:1 1374:2
1 246:1 559:1 634:1 907:1 1292:1 1313:1 1356:1 1357:1 1374:3
1 246:1 559:1 634:1 907:1 1292:1 1313:1 1356:1 1357:1 1374:3
1 131:1 246:1 300:1 406:1 541:1 559:1 634:1 681:1 701:1 895:1 981:1 1152:1 1225:1 1231:1 1236:1 1239:1 1241:1 1292:1 1300:1 1313:1 1329:1 1334:1 1350:1 1357:1 1374:2
1 246:1 559:1 681:1 907:1 1231:1 1292:1 1313:1 1356:1 1374:3
1 701:1 1241:1 1374:2
1 246:1 300:1 406:1 407:1 460:1 559:1 634:1 681:1 701:1 895:1 907:1 981:1 1152:1 1231:1 1235:1 1236:1 1239:1 1241:1 1265:1 1292:1 1313:1 1329:1 1334:1 1350:1 1356:1 1357:1 1374:2
1 701:1 1241:1 1374:3
1 246:1 559:1 1292:1 1313:1 1374:1
1 246:1 559:1 634:1 907:1 1292:1 1313:1 1356:1 1357:1 1374:3
1 246:1 559:1 634:1 907:1 1292:1 1313:1 1356:1 1357:1 1374:3
1 131:1 559:1 621:1 681:1 907:1 981:1 1225:1 1231:1 1239:1 1313:1 1348:1 1356:1 1374:2
1 131:1 246:1 300:1 407:1 541:1 559:1 634:1 681:1 701:1 895:1 981:1 1225:1 1231:1 1235:1 1239:1 1241:1 1292:1 1300:1 1313:1 1329:1 1350:1 1357:1 1374:2
1 246:1 559:1 634:1 907:1 1292:1 1313:1 1356:1 1357:1 1374:3
1 246:1 559:1 634:1 907:1 1292:1 1313:1 1356:1 1357:1 1374:3
1 246:1 559:1 634:1 907:1 1292:1 1313:1 1356:1 1357:1 1374:3
1 246:1 559:1 681:1 1231:1 1292:1 1313:1 1374:2
1 246:1 300:1 406:1 407:1 460:1 559:1 634:1 681:1 701:1 895:1 907:1 981:1 1152:1 1231:1 1235:1 1236:1 1239:1 1241:1 1265:1 1292:1 1313:1 1329:1 1334:1 1350:1 1356:1 1357:1 1374:2
1 246:1 559:1 634:1 907:1 1292:1 1313:1 1356:1 1357:1 1374:3
1 246:1 559:1 634:1 907:1 1292:1 1313:1 1356:1 1357:1 1374:3
1 246:1 559:1 681:1 907:1 1231:1 1292:1 1313:1 1356:1 1374:4
1 246:1 559:1 634:1 907:1 1292:1 1313:1 1356:1 1357:1 1374:3
1 131:1 246:1 406:1 407:1 541:1 559:1 895:1 1152:1 1225:1 1235:1 1236:1 1292:1 1300:1 1313:1 1334:1 1350:1 1374:3
1 246:1 559:1 634:1 907:1 1292:1 1313:1 1356:1 1357:1 1374:3
1 131:1 246:1 300:1 406:1 407:1 460:1 541:1 559:1 621:1 634:1 681:1 701:1 895:1 907:1 978:1 981:1 1152:1 1225:1 1231:1 1235:1 1236:1 1237:1 1239:1 1241:1 1265:1 1292:1 1300:1 1313:1 1329:1 1334:1 1348:1 1350:1 1356:1 1357:1 1374:1
1 246:1 460:1 541:1 559:1 681:1 701:1 907:1 981:1 1231:1 1239:1 1241:1 1265:1 1292:1 1300:1 1313:1 1356:1 1374:2
1 246:1 559:1 634:1 907:1 1292:1 1313:1 1356:1 1357:1 1374:3
1 246:1 365:1 460:1 541:1 559:1 681:1 701:1 907:1 978:1 981:1 1231:1 1237:1 1239:1 1241:1 1265:1 1292:1 1300:1 1313:1 1356:1 1370:1 1374:2
1 246:1 460:1 541:1 559:1 681:1 701:1 907:1 978:1 981:1 1231:1 1237:1 1239:1 1241:1 1265:1 1292:1 1300:1 1313:1 1356:1 1374:2
1 131:1 246:1 300:1 407:1 541:1 559:1 634:1 681:1 701:1 895:1 981:1 1225:1 1231:1 1235:1 1239:1 1241:1 1292:1 1300:1 1313:1 1329:1 1350:1 1357:1 1374:1
1 246:1 559:1 1292:1 1313:1 1374:2
1 1374:4
1 246:1 559:1 634:1 907:1 1292:1 1313:1 1356:1 1357:1 1374:3
1 246:1 300:1 406:1 407:1 460:1 559:1 634:1 681:1 701:1 895:1 907:1 981:1 1152:1 1231:1 1235:1 1236:1 1239:1 1241:1 1265:1 1292:1 1313:1 1329:1 1334:1 1350:1 1356:1 1357:1 1374:2
1 246:1 559:1 634:1 907:1 1292:1 1313:1 1356:1 1357:1 1374:3
1 131:1 246:1 300:1 406:1 407:1 460:1 541:1 559:1 621:1 634:1 681:1 701:1 895:1 907:1 978:1 981:1 1152:1 1225:1 1231:1 1235:1 1236:1 1237:1 1239:1 1241:1 1265:1 1292:1 1300:1 1313:1 1329:1 1334:1 1348:1 1350:1 1356:1 1357:1 1374:2
1 246:1 559:1 634:1 907:1 1292:1 1313:1 1356:1 1357:1 1374:3
1 131:1 559:1 621:1 681:1 907:1 981:1 1225:1 1231:1 1239:1 1313:1 1348:1 1356:1 1374:2
1 131:1 246:1 406:1 407:1 541:1 559:1 895:1 1152:1 1225:1 1235:1 1236:1 1292:1 1300:1 1313:1 1334:1 1350:1 1374:3
1 246:1 559:1 1292:1 1313:1 1374:2
1 246:1 559:1 634:1 907:1 1292:1 1313:1 1356:1 1357:1 1374:2
1 246:1 559:1 1292:1 1313:1 1374:2
1 246:1 559:1 634:1 907:1 1292:1 1313:1 1356:1 1357:1 1374:3
1 131:1 246:1 300:1 406:1 407:1 460:1 541:1 559:1 621:1 634:1 681:1 701:1 895:1 907:1 978:1 981:1 1152:1 1225:1 1231:1 1235:1 1236:1 1237:1 1239:1 1241:1 1265:1 1292:1 1300:1 1313:1 1329:1 1334:1 1348:1 1350:1 1356:1 1357:1 1374:1
1 1374:3
1 246:1 559:1 681:1 701:1 907:1 1231:1 1241:1 1292:1 1313:1 1356:1 1374:2
1 131:1 246:1 300:1 407:1 541:1 559:1 634:1 681:1 701:1 895:1 981:1 1225:1 1231:1 1235:1 1239:1 1241:1 1292:1 1300:1 1313:1 1329:1 1350:1 1357:1 1374:1
1 246:1 300:1 406:1 407:1 460:1 559:1 634:1 681:1 701:1 895:1 907:1 981:1 1152:1 1231:1 1235:1 1236:1 1239:1 1241:1 1265:1 1292:1 1313:1 1329:1 1334:1 1350:1 1356:1 1357:1 1374:1
1 246:1 559:1 634:1 907:1 1292:1 1313:1 1356:1 1357:1 1374:3
1 246:1 460:1 541:1 559:1 681:1 701:1 907:1 978:1 981:1 1231:1 1237:1 1239:1 1241:1 1265:1 1292:1 1300:1 1313:1 1356:1 1374:2
1 246:1 559:1 634:1 907:1 1292:1 1313:1 1356:1 1357:1 1374:3
1 246:1 559:1 634:1 907:1 1292:1 1313:1 1356:1 1357:1 1374:3
1 246:1 559:1 634:1 907:1 1292:1 1313:1 1356:1 1357:1 1374:3
1 1374:3
1 131:1 246:1 300:1 406:1 407:1 460:1 541:1 559:1 621:1 634:1 681:1 701:1 895:1 907:1 978:1 981:1 1152:1 1225:1 1231:1 1235:1 1236:1 1237:1 1239:1 1241:1 1265:1 1292:1 1300:1 1313:1 1329:1 1334:1 1348:1 1350:1 1356:1 1357:1 1374:2
1 246:1 559:1 634:1 907:1 1292:1 1313:1 1356:1 1357:1 1374:3
1 1374:3
1 246:1 541:1 559:1 681:1 701:1 907:1 1231:1 1241:1 1292:1 1300:1 1313:1 1356:1 1374:3
1 246:1 541:1 559:1 681:1 907:1 1231:1 1292:1 1300:1 1313:1 1356:1 1374:2
1 701:1 1241:1 1374:3
1 246:1 559:1 907:1 1292:1 1313:1 1356:1 1374:3
1 246:1 559:1 634:1 907:1 1292:1 1313:1 1356:1 1357:1 1374:3
1 1374:3
1 1374:3
1 131:1 246:1 300:1 406:1 407:1 460:1 541:1 559:1 621:1 634:1 681:1 701:1 895:1 907:1 978:1 981:1 1152:1 1225:1 1231:1 1235:1 1236:1 1237:1 1239:1 1241:1 1265:1 1292:1 1300:1 1313:1 1329:1 1334:1 1348:1 1350:1 1356:1 1357:1 1374:2
1 246:1 559:1 634:1 907:1 1292:1 1313:1 1356:1 1357:1 1374:3
1 246:1 559:1 634:1 907:1 1292:1 1313:1 1356:1 1357:1 1374:3
1 246:1 559:1 634:1 907:1 1292:1 1313:1 1356:1 1357:1 1374:3
1 246:1 559:1 634:1 907:1 1292:1 1313:1 1356:1 1357:1 1374:3
1 246:1 559:1 634:1 907:1 1292:1 1313:1 1356:1 1357:1 1374:3
1 246:1 559:1 634:1 907:1 1292:1 1313:1 1356:1 1357:1 1374:3
1 246:1 559:1 634:1 907:1 1292:1 1313:1 1356:1 1357:1 1374:3
1 131:1 246:1 300:1 406:1 407:1 460:1 541:1 559:1 621:1 634:1 681:1 701:1 895:1 907:1 978:1 981:1 1152:1 1225:1 1231:1 1235:1 1236:1 1237:1 1239:1 1241:1 1265:1 1292:1 1300:1 1313:1 1329:1 1334:1 1348:1 1350:1 1356:1 1357:1 1374:2
1 246:1 559:1 634:1 907:1 1292:1 1313:1 1356:1 1357:1 1374:3
1 246:1 559:1 681:1 907:1 1231:1 1292:1 1313:1 1356:1 1374:2
1 559:1 681:1 1231:1 1313:1 1374:3
1 246:1 559:1 907:1 1292:1 1313:1 1356:1 1374:3
1 246:1 559:1 634:1 907:1 1292:1 1313:1 1356:1 1357:1 1374:3
1 246:1 365:1 460:1 541:1 559:1 681:1 978:1 1231:1 1237:1 1265:1 1292:1 1300:1 1313:1 1370:1 1374:2
1 246:1 559:1 634:1 907:1 1292:1 1313:1 1356:1 1357:1 1374:3
1 246:1 365:1 460:1 541:1 559:1 681:1 978:1 981:1 1231:1 1237:1 1239:1 1265:1 1292:1 1300:1 1313:1 1370:1 1374:3
1 246:1 559:1 634:1 907:1 1292:1 1313:1 1356:1 1357:1 1374:3
1 131:1 246:1 300:1 406:1 407:1 460:1 541:1 559:1 621:1 634:1 681:1 701:1 895:1 907:1 978:1 981:1 1152:1 1225:1 1231:1 1235:1 1236:1 1237:1 1239:1 1241:1 1265:1 1292:1 1300:1 1313:1 1329:1 1334:1 1348:1 1350:1 1356:1 1357:1 1374:2
1 1374:3
1 246:1 349:1 406:1 559:1 634:1 681:1 701:1 907:1 978:1 981:1 1231:1 1236:1 1237:1 1239:1 1241:1 1292:1 1313:1 1354:1 1356:1 1357:1 1374:5
1 246:1 300:1 406:1 541:1 559:1 634:1 681:1 701:1 1231:1 1236:1 1241:1 1292:1 1300:1 1313:1 1329:1 1357:1 1374:2
1 246:1 559:1 634:1 907:1 1292:1 1313:1 1356:1 1357:1 1374:3
1 246:1 559:1 681:1 907:1 1231:1 1292:1 1313:1 1356:1 1374:3
1 246:1 559:1 621:1 681:1 701:1 907:1 978:1 1231:1 1237:1 1241:1 1292:1 1313:1 1348:1 1356:1 1374:1
1 131:1 246:1 300:1 406:1 407:1 541:1 559:1 681:1 895:1 978:1 981:1 1152:1 1225:1 1231:1 1235:1 1236:1 1237:1 1239:1 1292:1 1300:1 1313:1 1329:1 1334:1 1350:1 1374:2
1 246:1 559:1 634:1 907:1 1292:1 1313:1 1356:1 1357:1 1374:3
1 131:1 246:1 300:1 406:1 407:1 460:1 541:1 559:1 621:1 634:1 681:1 701:1 895:1 907:1 978:1 981:1 1152:1 1225:1 1231:1 1235:1 1236:1 1237:1 1239:1 1241:1 1265:1 1292:1 1300:1 1313:1 1329:1 1334:1 1348:1 1350:1 1356:1 1357:1 1374:2
1 1374:3
1 246:1 559:1 634:1 907:1 1292:1 1313:1 1356:1 1357:1 1374:3
1 246:1 559:1 634:1 907:1 1292:1 1313:1 1356:1 1357:1 1374:3
1 246:1 541:1 559:1 681:1 701:1 907:1 978:1 981:1 1231:1 1237:1 1239:1 1241:1 1292:1 1300:1 1313:1 1356:1 1374:2
1 131:1 246:1 300:1 407:1 541:1 559:1 634:1 681:1 701:1 895:1 981:1 1225:1 1231:1 1235:1 1239:1 1241:1 1292:1 1300:1 1313:1 1329:1 1350:1 1357:1 1374:2
1 246:1 559:1 634:1 907:1 1292:1 1313:1 1356:1 1357:1 1374:3
1 246:1 559:1 1292:1 1313:1 1374:2
1 246:1 559:1 634:1 907:1 1292:1 1313:1 1356:1 1357:1 1374:3
1 246:1 559:1 634:1 907:1 1292:1 1313:1 1356:1 1357:1 1374:3
1 246:1 559:1 634:1 907:1 1292:1 1313:1 1356:1 1357:1 1374:3
1 246:1 559:1 634:1 907:1 1292:1 1313:1 1356:1 1357:1 1374:3
1 246:1 559:1 634:1 907:1 1292:1 1313:1 1356:1 1357:1 1374:3
1 246:1 559:1 634:1 907:1 1292:1 1313:1 1356:1 1357:1 1374:3
1 246:1 559:1 634:1 907:1 1292:1 1313:1 1356:1 1357:1 1374:3
1 246:1 460:1 541:1 559:1 681:1 907:1 1231:1 1265:1 1292:1 1300:1 1313:1 1356:1 1374:2
1 246:1 460:1 541:1 559:1 681:1 701:1 907:1 981:1 1231:1 1239:1 1241:1 1265:1 1292:1 1300:1 1313:1 1356:1 1374:2 1376:110
1 246:1 559:1 634:1 907:1 1292:1 1313:1 1356:1 1357:1 1374:3
1 246:1 559:1 681:1 1231:1 1292:1 1313:1 1374:2
1 246:1 559:1 634:1 907:1 1292:1 1313:1 1356:1 1357:1 1374:3
1 246:1 559:1 634:1 907:1 1292:1 1313:1 1356:1 1357:1 1374:3
1 246:1 559:1 1292:1 1313:1 1374:2
1 701:1 1241:1 1374:3
1 131:1 246:1 300:1 406:1 407:1 460:1 541:1 559:1 621:1 634:1 681:1 701:1 895:1 907:1 978:1 981:1 1152:1 1225:1 1231:1 1235:1 1236:1 1237:1 1239:1 1241:1 1265:1 1292:1 1300:1 1313:1 1329:1 1334:1 1348:1 1350:1 1356:1 1357:1 1374:2
1 246:1 559:1 634:1 907:1 1292:1 1313:1 1356:1 1357:1 1374:3
1 246:1 559:1 634:1 907:1 1292:1 1313:1 1356:1 1357:1 1374:3
1 131:1 246:1 300:1 406:1 407:1 460:1 541:1 559:1 621:1 634:1 681:1 701:1 895:1 907:1 978:1 981:1 1152:1 1225:1 1231:1 1235:1 1236:1 1237:1 1239:1 1241:1 1265:1 1292:1 1300:1 1313:1 1329:1 1334:1 1348:1 1350:1 1356:1 1357:1 1374:1
1 246:1 300:1 406:1 407:1 460:1 559:1 634:1 681:1 701:1 895:1 907:1 981:1 1152:1 1231:1 1235:1 1236:1 1239:1 1241:1 1265:1 1292:1 1313:1 1329:1 1334:1 1350:1 1356:1 1357:1 1374:2
1 1374:3
1 1374:3
1 1374:3
1 246:1 559:1 634:1 907:1 1292:1 1313:1 1356:1 1357:1 1374:3
1 246:1 460:1 541:1 559:1 681:1 701:1 907:1 978:1 981:1 1231:1 1237:1 1239:1 1241:1 1265:1 1292:1 1300:1 1313:1 1356:1 1374:2
1 246:1 365:1 541:1 559:1 681:1 907:1 978:1 981:1 1231:1 1237:1 1239:1 1292:1 1300:1 1313:1 1356:1 1370:1 1374:3
1 246:1 460:1 541:1 559:1 681:1 701:1 907:1 981:1 1231:1 1239:1 1241:1 1265:1 1292:1 1300:1 1313:1 1356:1 1374:2
1 131:1 246:1 300:1 406:1 407:1 460:1 541:1 559:1 621:1 634:1 681:1 701:1 895:1 907:1 978:1 981:1 1152:1 1225:1 1231:1 1235:1 1236:1 1237:1 1239:1 1241:1 1265:1 1292:1 1300:1 1313:1 1329:1 1334:1 1348:1 1350:1 1356:1 1357:1 1374:2
1 701:1 1241:1 1374:3
1 246:2 349:1 511:1 541:1 559:2 681:1 1231:1 1286:1 1292:2 1300:1 1313:2 1354:1 1374:9 1376:1
1 246:1 559:1 634:1 907:1 1292:1 1313:1 1356:1 1357:1 1374:3
1 246:1 559:1 634:1 907:1 1292:1 1313:1 1356:1 1357:1 1374:3
1 246:1 559:1 634:1 907:1 1292:1 1313:1 1356:1 1357:1 1374:3
1 1374:3
1 131:1 246:1 406:1 407:1 541:1 559:1 895:1 1152:1 1225:1 1235:1 1236:1 1292:1 1300:1 1313:1 1334:1 1350:1 1374:3
1 246:1 267:1 349:1 541:1 559:1 606:1 681:1 741:1 981:1 1231:1 1239:1 1258:1 1292:1 1300:1 1301:1 1313:1 1343:1 1354:1 1374:4
1 131:1 246:1 300:1 407:1 541:1 559:1 634:1 681:1 701:1 895:1 981:1 1225:1 1231:1 1235:1 1239:1 1241:1 1292:1 1300:1 1313:1 1329:1 1350:1 1357:1 1374:2
1 246:1 300:1 406:1 407:1 460:1 559:1 634:1 681:1 701:1 895:1 907:1 981:1 1152:1 1231:1 1235:1 1236:1 1239:1 1241:1 1265:1 1292:1 1313:1 1329:1 1334:1 1350:1 1356:1 1357:1 1374:2
1 246:1 559:1 634:1 907:1 1292:1 1313:1 1356:1 1357:1 1374:3
1 246:1 559:1 681:1 907:1 1231:1 1292:1 1313:1 1356:1 1374:3
1 131:1 246:1 406:1 407:1 541:1 559:1 895:1 1152:1 1225:1 1235:1 1236:1 1292:1 1300:1 1313:1 1334:1 1350:1 1374:3
1 1374:3
1 131:1 246:1 300:1 406:1 407:1 460:1 541:1 559:1 621:1 634:1 681:1 701:1 895:1 907:1 978:1 981:1 1152:1 1225:1 1231:1 1235:1 1236:1 1237:1 1239:1 1241:1 1265:1 1292:1 1300:1 1313:1 1329:1 1334:1 1348:1 1350:1 1356:1 1357:1 1374:2
1 246:1 559:1 634:1 907:1 1292:1 1313:1 1356:1 1357:1 1374:3
1 246:1 559:1 634:1 907:1 1292:1 1313:1 1356:1 1357:1 1374:3
1 701:1 1241:1 1374:3
1 246:1 559:1 1292:1 1313:1 1374:3
1 246:1 559:1 634:1 907:1 1292:1 1313:1 1356:1 1357:1 1374:3
1 131:1 246:1 300:1 406:1 407:1 460:1 541:1 559:1 621:1 634:1 681:1 701:1 895:1 907:1 978:1 981:1 1152:1 1225:1 1231:1 1235:1 1236:1 1237:1 1239:1 1241:1 1265:1 1292:1 1300:1 1313:1 1329:1 1334:1 1348:1 1350:1 1356:1 1357:1 1374:2
1 131:1 246:1 300:1 406:1 407:1 460:1 541:1 559:1 621:1 634:1 681:1 701:1 895:1 907:1 978:1 981:1 1152:1 1225:1 1231:1 1235:1 1236:1 1237:1 1239:1 1241:1 1265:1 1292:1 1300:1 1313:1 1329:1 1334:1 1348:1 1350:1 1356:1 1357:1 1374:2
1 1374:3
1 246:1 559:1 634:1 907:1 1292:1 1313:1 1356:1 1357:1 1374:3
1 1374:3
1 246:1 559:1 634:1 907:1 1292:1 1313:1 1356:1 1357:1 1374:3
1 1374:3
1 246:1 559:1 634:1 907:1 1292:1 1313:1 1356:1 1357:1 1374:3
1 246:1 559:1 634:1 907:1 1292:1 1313:1 1356:1 1357:1 1374:3
1 246:1 300:1 406:1 407:1 460:1 559:1 634:1 681:1 701:1 895:1 907:1 981:1 1152:1 1231:1 1235:1 1236:1 1239:1 1241:1 1265:1 1292:1 1313:1 1329:1 1334:1 1350:1 1356:1 1357:1 1374:2
1 246:1 559:1 634:1 907:1 1292:1 1313:1 1356:1 1357:1 1374:3
1 246:1 559:1 634:1 907:1 1292:1 1313:1 1356:1 1357:1 1374:3
1 131:1 246:1 300:1 406:1 407:1 460:1 541:1 559:1 621:1 634:1 681:1 701:1 895:1 907:1 978:1 981:1 1152:1 1225:1 1231:1 1235:1 1236:1 1237:1 1239:1 1241:1 1265:1 1292:1 1300:1 1313:1 1329:1 1334:1 1348:1 1350:1 1356:1 1357:1 1374:2
1 246:1 559:1 634:1 907:1 1292:1 1313:1 1356:1 1357:1 1374:3
1 131:1 246:1 541:1 559:1 681:1 981:1 1152:1 1225:1 1231:1 1239:1 1292:1 1300:1 1313:1 1334:1 1374:2
1 246:1 559:1 681:1 907:1 1231:1 1292:1 1313:1 1356:1 1374:3
1 246:1 559:1 681:1 907:1 1231:1 1292:1 1313:1 1356:1 1374:2
1 131:1 246:1 300:1 407:1 541:1 559:1 634:1 681:1 701:1 895:1 981:1 1225:1 1231:1 1235:1 1239:1 1241:1 1292:1 1300:1 1313:1 1329:1 1350:1 1357:1 1374:1
1 246:1 460:1 541:1 559:1 681:1 701:1 907:1 978:1 981:1 1231:1 1237:1 1239:1 1241:1 1265:1 1292:1 1300:1 1313:1 1356:1 1374:2
1 246:1 300:1 406:1 407:1 460:1 559:1 634:1 681:1 701:1 895:1 907:1 981:1 1152:1 1231:1 1235:1 1236:1 1239:1 1241:1 1265:1 1292:1 1313:1 1329:1 1334:1 1350:1 1356:1 1357:1 1374:2
1 1374:3
1 246:1 300:1 406:1 407:1 460:1 559:1 621:1 634:1 681:1 701:1 895:1 907:1 981:1 1152:1 1231:1 1235:1 1236:1 1239:1 1241:1 1265:1 1292:1 1313:1 1329:1 1334:1 1348:1 1350:1 1356:1 1357:1 1374:1
1 246:1 559:1 1292:1 1313:1 1374:2
1 246:1 559:1 634:1 907:1 1292:1 1313:1 1356:1 1357:1 1374:3
1 246:1 349:1 460:1 541:1 559:1 681:1 701:1 907:1 978:1 981:1 1231:1 1237:1 1239:1 1241:1 1265:1 1292:1 1300:1 1313:1 1354:1 1356:1 1374:4
1 559:1 681:1 907:1 1231:1 1313:1 1356:1 1374:3
1 246:1 559:1 681:1 907:1 1231:1 1292:1 1313:1 1356:1 1374:2
1 246:1 559:1 634:1 907:1 1292:1 1313:1 1356:1 1357:1 1374:3
1 246:1 559:1 634:1 907:1 1292:1 1313:1 1356:1 1357:1 1374:3
1 246:1 559:1 1292:1 1313:1 1374:2
1 246:1 559:1 634:1 907:1 1292:1 1313:1 1356:1 1357:1 1374:3
1 246:1 559:1 634:1 907:1 1292:1 1313:1 1356:1 1357:1 1374:3
1 246:1 460:1 541:1 559:1 681:1 701:1 907:1 978:1 981:1 1231:1 1237:1 1239:1 1241:1 1265:1 1292:1 1300:1 1313:1 1356:1 1374:2
1 1374:3
1 246:1 559:1 634:1 907:1 1292:1 1313:1 1356:1 1357:1 1374:3
1 246:1 559:1 634:1 907:1 1292:1 1313:1 1356:1 1357:1 1374:3
1 559:1 681:1 907:1 1231:1 1313:1 1356:1 1374:3
1 246:1 559:1 634:1 907:1 1292:1 1313:1 1356:1 1357:1 1374:3
1 131:1 246:1 300:1 406:1 407:1 460:1 541:1 559:1 621:1 634:1 681:1 701:1 895:1 907:1 978:1 981:1 1152:1 1225:1 1231:1 1235:1 1236:1 1237:1 1239:1 1241:1 1265:1 1292:1 1300:1 1313:1 1329:1 1334:1 1348:1 1350:1 1356:1 1357:1 1374:2
1 559:1 1313:1 1374:2
1 246:1 559:1 634:1 907:1 1292:1 1313:1 1356:1 1357:1 1374:3
1 246:1 559:1 634:1 907:1 1292:1 1313:1 1356:1 1357:1 1374:3
1 246:1 559:1 634:1 907:1 1292:1 1313:1 1356:1 1357:1 1374:3
1 246:1 559:1 634:1 907:1 1292:1 1313:1 1356:1 1357:1 1374:3
1 1374:3
1 246:1 349:1 406:1 559:1 634:1 681:1 701:1 907:1 978:1 981:1 1231:1 1236:1 1237:1 1239:1 1241:1 1292:1 1313:1 1354:1 1356:1 1357:1 1374:5
1 246:1 460:1 541:1 559:1 681:1 701:1 907:1 978:1 981:1 1231:1 1237:1 1239:1 1241:1 1265:1 1292:1 1300:1 1313:1 1356:1 1374:2
1 246:1 300:1 406:1 407:1 460:1 559:1 634:1 681:1 701:1 895:1 907:1 981:1 1152:1 1231:1 1235:1 1236:1 1239:1 1241:1 1265:1 1292:1 1313:1 1329:1 1334:1 1350:1 1356:1 1357:1 1374:1
1 246:1 559:1 634:1 907:1 1292:1 1313:1 1356:1 1357:1 1374:3
1 131:1 246:1 300:1 406:1 407:1 460:1 541:1 559:1 621:1 634:1 681:1 701:1 895:1 907:1 978:1 981:1 1152:1 1225:1 1231:1 1235:1 1236:1 1237:1 1239:1 1241:1 1265:1 1292:1 1300:1 1313:1 1329:1 1334:1 1348:1 1350:1 1356:1 1357:1 1374:1
1 246:1 559:1 1292:1 1313:1 1374:2 1376:1
1 246:1 300:1 406:1 407:1 460:1 559:1 634:1 681:1 701:1 895:1 907:1 981:1 1152:1 1231:1 1235:1 1236:1 1239:1 1241:1 1265:1 1292:1 1313:1 1329:1 1334:1 1350:1 1356:1 1357:1 1374:2
1 246:1 559:1 681:1 907:1 1231:1 1292:1 1313:1 1356:1 1374:2
1 131:1 246:1 300:1 406:1 407:1 460:1 541:1 559:1 621:1 634:1 681:1 701:1 895:1 907:1 978:1 981:1 1152:1 1225:1 1231:1 1235:1 1236:1 1237:1 1239:1 1241:1 1265:1 1292:1 1300:1 1313:1 1329:1 1334:1 1348:1 1350:1 1356:1 1357:1 1374:2
1 701:1 1241:1 1374:3
1 246:1 559:1 634:1 907:1 1292:1 1313:1 1356:1 1357:1 1374:3
1 246:1 559:1 634:1 907:1 1292:1 1313:1 1356:1 1357:1 1374:3
1 701:1 1241:1 1374:3
1 246:1 559:1 681:1 907:1 1231:1 1292:1 1313:1 1356:1 1374:3
1 246:1 460:1 541:1 559:1 681:1 701:1 907:1 978:1 981:1 1231:1 1237:1 1239:1 1241:1 1265:1 1292:1 1300:1 1313:1 1356:1 1374:2
1 246:1 559:1 634:1 907:1 1292:1 1313:1 1356:1 1357:1 1374:3
1 246:1 559:1 634:1 907:1 1292:1 1313:1 1356:1 1357:1 1374:3
1 246:1 300:1 406:1 460:1 559:1 634:1 681:1 701:1 1231:1 1236:1 1241:1 1265:1 1292:1 1313:1 1329:1 1357:1 1374:2
1 246:1 349:1 541:1 559:1 681:1 907:1 1231:1 1292:1 1300:1 1313:1 1354:1 1356:1 1374:4
1 246:1 559:1 634:1 907:1 1292:1 1313:1 1356:1 1357:1 1374:3
1 131:1 246:1 300:1 406:1 407:1 460:1 541:1 559:1 621:1 634:1 681:1 701:1 895:1 907:1 978:1 981:1 1152:1 1225:1 1231:1 1235:1 1236:1 1237:1 1239:1 1241:1 1265:1 1292:1 1300:1 1313:1 1329:1 1334:1 1348:1 1350:1 1356:1 1357:1 1374:2
1 246:1 559:1 634:1 907:1 1292:1 1313:1 1356:1 1357:1 1374:3
1 246:1 349:1 406:1 559:1 634:1 681:1 701:1 907:1 978:1 981:1 1231:1 1236:1 1237:1 1239:1 1241:1 1292:1 1313:1 1354:1 1356:1 1357:1 1374:5
1 1374:3
1 1374:3
1 246:1 559:1 634:1 907:1 1292:1 1313:1 1356:1 1357:1 1374:3
1 246:1 559:1 634:1 907:1 1292:1 1313:1 1356:1 1357:1 1374:3
1 246:1 460:1 541:1 559:1 681:1 701:1 907:1 981:1 1231:1 1239:1 1241:1 1265:1 1292:1 1300:1 1313:1 1356:1 1374:2
1 131:1 246:1 300:1 406:1 541:1 559:1 634:1 681:1 701:1 895:1 981:1 1152:1 1225:1 1231:1 1236:1 1239:1 1241:1 1292:1 1300:1 1313:1 1329:1 1334:1 1350:1 1357:1 1374:1
1 246:1 559:1 634:1 907:1 1292:1 1313:1 1356:1 1357:1 1374:3
1 246:1 559:1 634:1 907:1 1292:1 1313:1 1356:1 1357:1 1374:3
1 701:1 1241:1 1374:3
1 246:1 300:1 406:1 407:1 460:1 559:1 621:1 634:1 681:1 701:1 895:1 907:1 981:1 1152:1 1231:1 1235:1 1236:1 1239:1 1241:1 1265:1 1292:1 1313:1 1329:1 1334:1 1348:1 1350:1 1356:1 1357:1 1374:2
1 246:1 559:1 634:1 907:1 1292:1 1313:1 1356:1 1357:1 1374:3
1 246:1 559:1 634:1 907:1 1292:1 1313:1 1356:1 1357:1 1374:3
1 246:1 300:1 406:1 407:1 460:1 559:1 634:1 681:1 701:1 895:1 907:1 981:1 1152:1 1231:1 1235:1 1236:1 1239:1 1241:1 1265:1 1292:1 1313:1 1329:1 1334:1 1350:1 1356:1 1357:1 1374:2
1 246:1 559:1 634:1 907:1 1292:1 1313:1 1356:1 1357:1 1374:3
1 1374:3
1 131:1 246:1 300:1 406:1 407:1 460:1 541:1 559:1 621:1 634:1 681:1 701:1 895:1 907:1 978:1 981:1 1152:1 1225:1 1231:1 1235:1 1236:1 1237:1 1239:1 1241:1 1265:1 1292:1 1300:1 1313:1 1329:1 1334:1 1348:1 1350:1 1356:1 1357:1 1374:2
1 246:1 559:1 1292:1 1313:1 1374:1
1 246:1 559:1 1292:1 1313:1 1374:1
1 559:1 681:1 907:1 1231:1 1313:1 1356:1 1374:3
1 701:1 1241:1 1374:3
1 246:1 559:1 681:1 907:1 1231:1 1292:1 1313:1 1356:1 1374:4
1 246:1 559:1 634:1 907:1 1292:1 1313:1 1356:1 1357:1 1374:3
1 246:1 559:1 634:1 907:1 1292:1 1313:1 1356:1 1357:1 1374:3
1 131:1 246:1 300:1 406:1 407:1 460:1 541:1 559:1 621:1 634:1 681:1 701:1 895:1 907:1 978:1 981:1 1152:1 1225:1 1231:1 1235:1 1236:1 1237:1 1239:1 1241:1 1265:1 1292:1 1300:1 1313:1 1329:1 1334:1 1348:1 1350:1 1356:1 1357:1 1374:1
1 246:1 559:1 634:1 907:1 1292:1 1313:1 1356:1 1357:1 1374:3
1 701:1 1241:1 1374:3
1 246:1 559:1 634:1 907:1 1292:1 1313:1 1356:1 1357:1 1374:3
1 1374:3
1 1374:3
1 246:1 559:1 634:1 907:1 1292:1 1313:1 1356:1 1357:1 1374:3
1 131:1 246:1 300:1 406:1 407:1 460:1 541:1 559:1 621:1 634:1 681:1 701:1 895:1 907:1 978:1 981:1 1152:1 1225:1 1231:1 1235:1 1236:1 1237:1 1239:1 1241:1 1265:1 1292:1 1300:1 1313:1 1329:1 1334:1 1348:1 1350:1 1356:1 1357:1 1374:2
1 246:1 559:1 681:1 907:1 1231:1 1292:1 1313:1 1356:1 1374:2
1 246:1 559:1 634:1 907:1 1292:1 1313:1 1356:1 1357:1 1374:3
1 246:1 559:1 634:1 907:1 1292:1 1313:1 1356:1 1357:1 1374:3
1 246:1 559:1 634:1 907:1 1292:1 1313:1 1356:1 1357:1 1374:3
1 246:1 559:1 634:1 907:1 1292:1 1313:1 1356:1 1357:1 1374:3
1 246:1 559:1 634:1 907:1 1292:1 1313:1 1356:1 1357:1 1374:3
1 246:1 559:1 634:1 907:1 1292:1 1313:1 1356:1 1357:1 1374:3
1 246:1 559:1 634:1 907:1 1292:1 1313:1 1356:1 1357:1 1374:3
1 246:1 365:1 460:1 541:1 559:1 681:1 701:1 907:1 978:1 981:1 1231:1 1237:1 1239:1 1241:1 1265:1 1292:1 1300:1 1313:1 1356:1 1370:1 1374:3
1 1374:3
1 1374:3
1 131:1 246:1 300:1 406:1 407:1 460:1 541:1 559:1 621:1 634:1 681:1 701:1 895:1 907:1 978:1 981:1 1152:1 1225:1 1231:1 1235:1 1236:1 1237:1 1239:1 1241:1 1265:1 1292:1 1300:1 1313:1 1329:1 1334:1 1348:1 1350:1 1356:1 1357:1 1374:1
1 701:1 1241:1 1374:3
1 246:1 559:1 634:1 907:1 1292:1 1313:1 1356:1 1357:1 1374:3
1 246:1 559:1 634:1 907:1 1292:1 1313:1 1356:1 1357:1 1374:3
1 246:1 300:1 406:1 407:1 460:1 559:1 634:1 681:1 701:1 895:1 907:1 981:1 1152:1 1231:1 1235:1 1236:1 1239:1 1241:1 1265:1 1292:1 1313:1 1329:1 1334:1 1350:1 1356:1 1357:1 1374:2
1 246:1 559:1 634:1 907:1 1292:1 1313:1 1356:1 1357:1 1374:3
1 246:1 559:1 634:1 907:1 1292:1 1313:1 1356:1 1357:1 1374:3
1 246:1 460:1 541:1 559:1 681:1 701:1 907:1 978:1 981:1 1231:1 1237:1 1239:1 1241:1 1265:1 1292:1 1300:1 1313:1 1356:1 1374:2
1 246:1 559:1 681:1 907:1 1231:1 1292:1 1313:1 1356:1 1374:6
1 246:1 559:1 634:1 907:1 1292:1 1313:1 1356:1 1357:1 1374:3
1 246:1 460:1 541:1 559:1 681:1 701:1 907:1 981:1 1231:1 1239:1 1241:1 1265:1 1292:1 1300:1 1313:1 1356:1 1374:4
1 246:1 559:1 634:1 907:1 1292:1 1313:1 1356:1 1357:1 1374:3
1 246:1 300:1 406:1 407:1 460:1 559:1 634:1 681:1 701:1 895:1 907:1 981:1 1152:1 1231:1 1235:1 1236:1 1239:1 1241:1 1265:1 1292:1 1313:1 1329:1 1334:1 1350:1 1356:1 1357:1 1374:1
1 246:1 559:1 634:1 907:1 1292:1 1313:1 1356:1 1357:1 1374:3
1 131:1 246:1 300:1 406:1 407:1 460:1 541:1 559:1 621:1 634:1 681:1 701:1 895:1 907:1 978:1 981:1 1152:1 1225:1 1231:1 1235:1 1236:1 1237:1 1239:1 1241:1 1265:1 1292:1 1300:1 1313:1 1329:1 1334:1 1348:1 1350:1 1356:1 1357:1 1374:2
1 246:1 559:1 681:1 907:1 1231:1 1292:1 1313:1 1356:1 1374:2
1 246:1 460:1 541:1 559:1 681:1 907:1 981:1 1231:1 1239:1 1265:1 1292:1 1300:1 1313:1 1356:1 1374:2
1 246:2 349:1 511:1 541:1 559:2 681:1 1231:1 1286:1 1292:2 1300:1 1313:2 1354:1 1374:9 1376:1
1 246:1 559:1 634:1 907:1 1292:1 1313:1 1356:1 1357:1 1374:3
1 131:1 246:1 300:1 406:1 407:1 460:1 541:1 559:1 621:1 634:1 681:1 701:1 895:1 907:1 978:1 981:1 1152:1 1225:1 1231:1 1235:1 1236:1 1237:1 1239:1 1241:1 1265:1 1292:1 1300:1 1313:1 1329:1 1334:1 1348:1 1350:1 1356:1 1357:1 1374:1
1 246:1 559:1 634:1 907:1 1292:1 1313:1 1356:1 1357:1 1374:3
1 1374:3
1 701:1 1241:1 1374:3
1 246:1 559:1 634:1 907:1 1292:1 1313:1 1356:1 1357:1 1374:3
1 246:1 559:1 634:1 907:1 1292:1 1313:1 1356:1 1357:1 1374:3
1 701:1 1241:1 1374:3
1 246:1 541:1 559:1 681:1 907:1 1231:1 1292:1 1300:1 1313:1 1356:1 1374:3
1 1374:3
1 131:1 246:1 406:1 407:1 541:1 559:1 895:1 1152:1 1225:1 1235:1 1236:1 1292:1 1300:1 1313:1 1334:1 1350:1 1374:3
1 131:1 246:1 300:1 406:1 407:1 460:1 541:1 559:1 621:1 634:1 681:1 701:1 895:1 907:1 978:1 981:1 1152:1 1225:1 1231:1 1235:1 1236:1 1237:1 1239:1 1241:1 1265:1 1292:1 1300:1 1313:1 1329:1 1334:1 1348:1 1350:1 1356:1 1357:1 1374:1
1 246:1 559:1 634:1 907:1 1292:1 1313:1 1356:1 1357:1 1374:3
1 246:1 559:1 634:1 907:1 1292:1 1313:1 1356:1 1357:1 1374:3
1 246:1 541:1 559:1 681:1 907:1 1231:1 1292:1 1300:1 1313:1 1356:1 1374:3
1 246:1 559:1 634:1 907:1 1292:1 1313:1 1356:1 1357:1 1374:3
1 246:1 559:1 634:1 907:1 1292:1 1313:1 1356:1 1357:1 1374:3
1 246:1 559:1 681:1 907:1 1231:1 1292:1 1313:1 1356:1 1374:2
1 246:1 559:1 634:1 907:1 1292:1 1313:1 1356:1 1357:1 1374:3
1 246:1 559:1 634:1 907:1 1292:1 1313:1 1356:1 1357:1 1374:3
1 246:1 559:1 634:1 907:1 1292:1 1313:1 1356:1 1357:1 1374:3
1 246:1 559:1 681:1 907:1 1231:1 1292:1 1313:1 1356:1 1374:3
1 131:1 246:1 300:1 406:1 407:1 460:1 541:1 559:1 621:1 634:1 681:1 701:1 895:1 907:1 978:1 981:1 1152:1 1225:1 1231:1 1235:1 1236:1 1237:1 1239:1 1241:1 1265:1 1292:1 1300:1 1313:1 1329:1 1334:1 1348:1 1350:1 1356:1 1357:1 1374:2
1 246:1 559:1 634:1 907:1 1292:1 1313:1 1356:1 1357:1 1374:3
1 246:1 559:1 634:1 907:1 1292:1 1313:1 1356:1 1357:1 1374:3
1 246:1 300:1 406:1 407:1 460:1 559:1 634:1 681:1 701:1 895:1 907:1 981:1 1152:1 1231:1 1235:1 1236:1 1239:1 1241:1 1265:1 1292:1 1313:1 1329:1 1334:1 1350:1 1356:1 1357:1 1374:2
1 246:1 559:1 634:1 907:1 1292:1 1313:1 1356:1 1357:1 1374:3
1 246:1 559:1 634:1 907:1 1292:1 1313:1 1356:1 1357:1 1374:3
1 1374:3
1 1374:3
1 246:1 460:1 541:1 559:1 681:1 701:1 907:1 978:1 981:1 1231:1 1237:1 1239:1 1241:1 1265:1 1292:1 1300:1 1313:1 1356:1 1374:2
1 246:1 559:1 634:1 907:1 1292:1 1313:1 1356:1 1357:1 1374:3
1 246:1 559:1 634:1 907:1 1292:1 1313:1 1356:1 1357:1 1374:3
1 246:1 559:1 634:1 907:1 1292:1 1313:1 1356:1 1357:1 1374:3
1 701:1 1241:1 1374:3
1 246:1 559:1 634:1 907:1 1292:1 1313:1 1356:1 1357:1 1374:3
1 1374:3
1 246:1 559:1 634:1 907:1 1292:1 1313:1 1356:1 1357:1 1374:3
1 1374:3
1 246:1 300:1 406:1 407:1 460:1 559:1 634:1 681:1 701:1 895:1 907:1 981:1 1152:1 1231:1 1235:1 1236:1 1239:1 1241:1 1265:1 1292:1 1313:1 1329:1 1334:1 1350:1 1356:1 1357:1 1374:1
1 246:1 349:1 460:1 541:1 559:1 681:1 907:1 1231:1 1265:1 1292:1 1300:1 1313:1 1354:1 1356:1 1374:2
1 246:1 559:1 634:1 907:1 1292:1 1313:1 1356:1 1357:1 1374:3
1 131:1 246:1 300:1 406:1 407:1 460:1 541:1 559:1 621:1 634:1 681:1 701:1 895:1 907:1 978:1 981:1 1152:1 1225:1 1231:1 1235:1 1236:1 1237:1 1239:1 1241:1 1265:1 1292:1 1300:1 1313:1 1329:1 1334:1 1348:1 1350:1 1356:1 1357:1 1374:2
1 246:1 559:1 634:1 907:1 1292:1 1313:1 1356:1 1357:1 1374:3
1 246:1 559:1 634:1 907:1 1292:1 1313:1 1356:1 1357:1 1374:3
1 246:1 559:1 681:1 907:1 1231:1 1292:1 1313:1 1356:1 1374:3
1 246:1 559:1 634:1 907:1 1292:1 1313:1 1356:1 1357:1 1374:3
1 246:1 300:1 406:1 407:1 460:1 559:1 634:1 681:1 701:1 895:1 907:1 981:1 1152:1 1231:1 1235:1 1236:1 1239:1 1241:1 1265:1 1292:1 1313:1 1329:1 1334:1 1350:1 1356:1 1357:1 1374:2
1 246:1 559:1 634:1 907:1 1292:1 1313:1 1356:1 1357:1 1374:3
1 246:1 559:1 634:1 907:1 1292:1 1313:1 1356:1 1357:1 1374:3
1 246:1 559:1 634:1 907:1 1292:1 1313:1 1356:1 1357:1 1374:3
1 131:1 559:1 621:1 681:1 907:1 981:1 1225:1 1231:1 1239:1 1313:1 1348:1 1356:1 1374:2
1 246:1 559:1 634:1 907:1 1292:1 1313:1 1356:1 1357:1 1374:3
1 246:1 559:1 634:1 907:1 1292:1 1313:1 1356:1 1357:1 1374:3
1 246:1 559:1 634:1 907:1 1292:1 1313:1 1356:1 1357:1 1374:3
1 246:1 559:1 1292:1 1313:1 1374:2
1 701:1 1241:1 1374:3
1 246:1 559:1 907:1 1292:1 1313:1 1356:1 1374:3
1 246:1 559:1 634:1 907:1 1292:1 1313:1 1356:1 1357:1 1374:3
1 131:1 246:1 541:1 559:1 681:1 981:1 1152:1 1225:1 1231:1 1239:1 1292:1 1300:1 1313:1 1334:1 1374:1
1 701:1 1241:1 1374:3
1 246:1 559:1 681:1 907:1 1231:1 1292:1 1313:1 1356:1 1374:6
1 246:1 559:1 634:1 907:1 1292:1 1313:1 1356:1 1357:1 1374:3
1 246:1 460:1 541:1 559:1 681:1 701:1 907:1 978:1 981:1 1231:1 1237:1 1239:1 1241:1 1265:1 1292:1 1300:1 1313:1 1356:1 1374:2
1 246:1 559:1 634:1 907:1 1292:1 1313:1 1356:1 1357:1 1374:3
1 246:1 559:1 634:1 907:1 1292:1 1313:1 1356:1 1357:1 1374:3
1 246:1 559:1 634:1 907:1 1292:1 1313:1 1356:1 1357:1 1374:3
1 246:1 559:1 634:1 907:1 1292:1 1313:1 1356:1 1357:1 1374:3
1 131:1 559:1 621:1 681:1 907:1 981:1 1225:1 1231:1 1239:1 1313:1 1348:1 1356:1 1374:1
1 1374:3
1 246:1 559:1 634:1 907:1 1292:1 1313:1 1356:1 1357:1 1374:3
1 246:1 559:1 634:1 907:1 1292:1 1313:1 1356:1 1357:1 1374:3
1 246:1 559:1 681:1 907:1 981:1 1231:1 1239:1 1292:1 1313:1 1356:1 1374:4
1 128:1 131:1 162:1 227:1 246:1 267:1 308:1 349:1 460:1 486:1 559:1 574:1 656:1 661:1 681:1 699:1 755:1 911:1 981:1 1177:1 1207:1 1218:1 1223:1 1224:1 1225:1 1231:1 1238:1 1239:1 1240:1 1242:1 1244:1 1262:1 1265:1 1266:1 1275:1 1277:1 1279:1 1282:1 1292:1 1298:1 1301:1 1308:1 1313:1 1318:1 1323:1 1327:1 1332:1 1335:1 1336:1 1344:1 1347:1 1354:1 1360:1 1368:1 1369:1 1373:1 1374:2 1376:254
1 131:1 246:1 300:1 406:1 407:1 460:1 541:1 559:1 621:1 634:1 681:1 701:1 895:1 907:1 978:1 981:1 1152:1 1225:1 1231:1 1235:1 1236:1 1237:1 1239:1 1241:1 1265:1 1292:1 1300:1 1313:1 1329:1 1334:1 1348:1 1350:1 1356:1 1357:1 1374:2
1 131:1 246:1 406:1 407:1 541:1 559:1 895:1 1152:1 1225:1 1235:1 1236:1 1292:1 1300:1 1313:1 1334:1 1350:1 1374:3
1 559:1 1313:1 1374:4
1 131:1 246:1 300:1 406:1 407:1 460:1 541:1 559:1 621:1 634:1 681:1 701:1 895:1 907:1 978:1 981:1 1152:1 1225:1 1231:1 1235:1 1236:1 1237:1 1239:1 1241:1 1265:1 1292:1 1300:1 1313:1 1329:1 1334:1 1348:1 1350:1 1356:1 1357:1 1374:2
1 246:1 559:1 634:1 907:1 1292:1 1313:1 1356:1 1357:1 1374:3
1 246:1 541:1 559:1 681:1 701:1 907:1 1231:1 1241:1 1292:1 1300:1 1313:1 1356:1 1374:4
1 246:1 559:1 634:1 907:1 1292:1 1313:1 1356:1 1357:1 1374:3
1 246:1 559:1 634:1 907:1 1292:1 1313:1 1356:1 1357:1 1374:3
1 246:1 559:1 634:1 907:1 1292:1 1313:1 1356:1 1357:1 1374:3
1 246:1 559:1 681:1 701:1 907:1 1231:1 1241:1 1292:1 1313:1 1356:1 1374:2
1 246:1 559:1 634:1 907:1 1292:1 1313:1 1356:1 1357:1 1374:3
1 246:1 460:1 541:1 559:1 681:1 907:1 981:1 1231:1 1239:1 1265:1 1292:1 1300:1 1313:1 1356:1 1374:3
1 246:1 460:1 541:1 559:1 681:1 907:1 1231:1 1265:1 1292:1 1300:1 1313:1 1356:1 1374:2
1 131:1 246:1 300:1 406:1 407:1 460:1 541:1 559:1 621:1 634:1 681:1 701:1 895:1 907:1 978:1 981:1 1152:1 1225:1 1231:1 1235:1 1236:1 1237:1 1239:1 1241:1 1265:1 1292:1 1300:1 1313:1 1329:1 1334:1 1348:1 1350:1 1356:1 1357:1 1374:2
1 246:1 559:1 634:1 907:1 1292:1 1313:1 1356:1 1357:1 1374:3
1 246:1 559:1 907:1 1292:1 1313:1 1356:1 1374:2
1 246:1 559:1 634:1 907:1 1292:1 1313:1 1356:1 1357:1 1374:3
1 246:1 559:1 634:1 907:1 1292:1 1313:1 1356:1 1357:1 1374:3
1 246:1 559:1 634:1 907:1 1292:1 1313:1 1356:1 1357:1 1374:3
1 1374:2
1 246:1 559:1 634:1 907:1 1292:1 1313:1 1356:1 1357:1 1374:3
1 701:1 1241:1 1374:3
1 246:1 559:1 634:1 907:1 1292:1 1313:1 1356:1 1357:1 1374:3
1 131:1 246:1 406:1 407:1 541:1 559:1 895:1 1152:1 1225:1 1235:1 1236:1 1292:1 1300:1 1313:1 1334:1 1350:1 1374:3
1 246:1 559:1 634:1 907:1 1292:1 1313:1 1356:1 1357:1 1374:3
1 246:1 559:1 634:1 907:1 1292:1 1313:1 1356:1 1357:1 1374:3
1 246:1 559:1 634:1 907:1 1292:1 1313:1 1356:1 1357:1 1374:3
1 246:1 559:1 634:1 907:1 1292:1 1313:1 1356:1 1357:1 1374:3
1 246:1 349:1 406:1 559:1 634:1 681:1 701:1 907:1 978:1 981:1 1231:1 1236:1 1237:1 1239:1 1241:1 1292:1 1313:1 1354:1 1356:1 1357:1 1374:5
1 1374:3
1 246:1 559:1 634:1 907:1 1292:1 1313:1 1356:1 1357:1 1374:3
1 1374:3
1 246:1 559:1 634:1 907:1 1292:1 1313:1 1356:1 1357:1 1374:3
1 246:1 559:1 634:1 907:1 1292:1 1313:1 1356:1 1357:1 1374:3
1 246:1 559:1 634:1 907:1 1292:1 1313:1 1356:1 1357:1 1374:3
1 246:1 559:1 1292:1 1313:1 1374:1
1 246:1 559:1 634:1 907:1 1292:1 1313:1 1356:1 1357:1 1374:3
1 246:1 559:1 634:1 907:1 1292:1 1313:1 1356:1 1357:1 1374:3
1 246:1 460:1 541:1 559:1 681:1 907:1 1231:1 1265:1 1292:1 1300:1 1313:1 1356:1 1374:2
1 246:1 559:1 634:1 907:1 1292:1 1313:1 1356:1 1357:1 1374:3
1 131:1 246:1 300:1 406:1 407:1 460:1 541:1 559:1 621:1 634:1 681:1 701:1 895:1 907:1 978:1 981:1 1152:1 1225:1 1231:1 1235:1 1236:1 1237:1 1239:1 1241:1 1265:1 1292:1 1300:1 1313:1 1329:1 1334:1 1348:1 1350:1 1356:1 1357:1 1374:2
1 246:1 559:1 681:1 907:1 1231:1 1292:1 1313:1 1356:1 1374:3
1 246:1 559:1 634:1 907:1 1292:1 1313:1 1356:1 1357:1 1374:3
1 1374:3
1 131:1 246:1 300:1 406:1 407:1 460:1 541:1 559:1 621:1 634:1 681:1 701:1 895:1 907:1 978:1 981:1 1152:1 1225:1 1231:1 1235:1 1236:1 1237:1 1239:1 1241:1 1265:1 1292:1 1300:1 1313:1 1329:1 1334:1 1348:1 1350:1 1356:1 1357:1 1374:2
1 246:1 559:1 681:1 1231:1 1292:1 1313:1 1374:5
1 131:1 246:1 407:1 460:1 541:1 559:1 634:1 681:1 701:1 837:1 907:1 981:1 1207:1 1225:1 1231:1 1235:1 1239:1 1241:1 1265:1 1292:1 1300:1 1302:1 1313:1 1356:1 1357:1 1369:1 1374:2 1376:43
1 1374:3
1 246:1 559:1 634:1 907:1 1292:1 1313:1 1356:1 1357:1 1374:3
1 246:1 559:1 907:1 1292:1 1313:1 1356:1 1374:2
1 246:1 300:1 406:1 407:1 460:1 559:1 634:1 681:1 701:1 895:1 907:1 981:1 1152:1 1231:1 1235:1 1236:1 1239:1 1241:1 1265:1 1292:1 1313:1 1329:1 1334:1 1350:1 1356:1 1357:1 1374:2
1 246:1 559:1 634:1 907:1 1292:1 1313:1 1356:1 1357:1 1374:3
1 246:1 267:1 349:1 541:1 559:1 681:1 981:1 1231:1 1239:1 1292:1 1300:1 1301:1 1313:1 1354:1 1374:4
1 246:1 460:1 541:1 559:1 681:1 701:1 907:1 981:1 1231:1 1239:1 1241:1 1265:1 1292:1 1300:1 1313:1 1356:1 1374:2
1 246:1 559:1 634:1 907:1 1292:1 1313:1 1356:1 1357:1 1374:3
1 246:1 559:1 634:1 907:1 1292:1 1313:1 1356:1 1357:1 1374:3
1 246:1 559:1 634:1 907:1 1292:1 1313:1 1356:1 1357:1 1374:3
1 246:1 559:1 634:1 907:1 1292:1 1313:1 1356:1 1357:1 1374:3
1 246:1 559:1 634:1 907:1 1292:1 1313:1 1356:1 1357:1 1374:3
1 246:1 559:1 634:1 907:1 1292:1 1313:1 1356:1 1357:1 1374:3
1 246:1 559:1 634:1 907:1 1292:1 1313:1 1356:1 1357:1 1374:3
1 246:1 559:1 634:1 907:1 1292:1 1313:1 1356:1 1357:1 1374:3
1 246:1 559:1 1292:1 1313:1 1374:2
1 1374:3
1 246:1 559:1 634:1 907:1 1292:1 1313:1 1356:1 1357:1 1374:3
1 246:1 559:1 681:1 907:1 1231:1 1292:1 1313:1 1356:1 1374:6
1 1374:3
1 246:1 559:1 681:1 1231:1 1292:1 1313:1 1374:2
1 246:1 559:1 634:1 907:1 1292:1 1313:1 1356:1 1357:1 1374:3
1 246:1 559:1 634:1 907:1 1292:1 1313:1 1356:1 1357:1 1374:3
1 246:1 300:1 406:1 407:1 460:1 559:1 634:1 681:1 701:1 895:1 907:1 981:1 1152:1 1231:1 1235:1 1236:1 1239:1 1241:1 1265:1 1292:1 1313:1 1329:1 1334:1 1350:1 1356:1 1357:1 1374:1
1 246:1 559:1 634:1 907:1 1292:1 1313:1 1356:1 1357:1 1374:3
1 246:1 349:1 365:1 559:1 681:1 699:1 907:1 1231:1 1240:1 1292:1 1313:1 1354:1 1356:1 1370:1 1374:2 1376:1
1 1374:4
1 246:1 559:1 681:1 907:1 1231:1 1292:1 1313:1 1356:1 1374:2
1 246:1 460:1 541:1 559:1 681:1 907:1 1231:1 1265:1 1292:1 1300:1 1313:1 1356:1 1374:3
1 246:1 559:1 634:1 907:1 1292:1 1313:1 1356:1 1357:1 1374:3
1 246:1 559:1 634:1 907:1 1292:1 1313:1 1356:1 1357:1 1374:2
1 131:1 246:1 406:1 407:1 541:1 559:1 895:1 1152:1 1225:1 1235:1 1236:1 1292:1 1300:1 1313:1 1334:1 1350:1 1374:3
1 246:1 559:1 634:1 907:1 1292:1 1313:1 1356:1 1357:1 1374:3
1 246:1 559:1 1292:1 1313:1 1374:3
1 246:1 349:1 406:1 559:1 634:1 681:1 701:1 907:1 978:1 981:1 1231:1 1236:1 1237:1 1239:1 1241:1 1292:1 1313:1 1354:1 1356:1 1357:1 1374:5
1 246:1 559:1 907:1 1292:1 1313:1 1356:1 1374:3
1 246:1 559:1 634:1 907:1 1292:1 1313:1 1356:1 1357:1 1374:3
1 246:1 460:1 541:1 559:1 681:1 701:1 907:1 981:1 1231:1 1239:1 1241:1 1265:1 1292:1 1300:1 1313:1 1356:1 1374:3
1 246:1 559:1 634:1 907:1 1292:1 1313:1 1356:1 1357:1 1374:3
1 246:1 300:1 559:1 621:1 634:1 681:1 981:1 1152:1 1231:1 1239:1 1292:1 1313:1 1329:1 1334:1 1348:1 1357:1 1374:2
1 1374:3
1 701:1 1241:1 1374:3
1 246:1 559:1 634:1 907:1 1292:1 1313:1 1356:1 1357:1 1374:3
1 246:1 559:1 1292:1 1313:1 1374:2
1 246:1 559:1 634:1 907:1 1292:1 1313:1 1356:1 1357:1 1374:3
1 131:1 246:1 406:1 407:1 541:1 559:1 895:1 1152:1 1225:1 1235:1 1236:1 1292:1 1300:1 1313:1 1334:1 1350:1 1374:3
1 131:1 246:1 300:1 406:1 407:1 460:1 541:1 559:1 621:1 634:1 681:1 701:1 895:1 907:1 978:1 981:1 1152:1 1225:1 1231:1 1235:1 1236:1 1237:1 1239:1 1241:1 1265:1 1292:1 1300:1 1313:1 1329:1 1334:1 1348:1 1350:1 1356:1 1357:1 1374:2
1 1374:3
1 246:1 460:1 541:1 559:1 681:1 701:1 907:1 978:1 981:1 1231:1 1237:1 1239:1 1241:1 1265:1 1292:1 1300:1 1313:1 1356:1 1374:2
1 246:1 559:1 634:1 907:1 1292:1 1313:1 1356:1 1357:1 1374:3
1 1374:3
1 246:1 300:1 406:1 407:1 460:1 559:1 634:1 681:1 701:1 895:1 907:1 981:1 1152:1 1231:1 1235:1 1236:1 1239:1 1241:1 1265:1 1292:1 1313:1 1329:1 1334:1 1350:1 1356:1 1357:1 1374:2
1 246:1 559:1 634:1 907:1 1292:1 1313:1 1356:1 1357:1 1374:3
1 246:1 559:1 681:1 907:1 1231:1 1292:1 1313:1 1356:1 1374:3
1 246:1 559:1 634:1 907:1 1292:1 1313:1 1356:1 1357:1 1374:3
1 131:1 246:1 406:1 407:1 541:1 559:1 895:1 1152:1 1225:1 1235:1 1236:1 1292:1 1300:1 1313:1 1334:1 1350:1 1374:3
1 1374:3
1 246:1 559:1 634:1 907:1 1292:1 1313:1 1356:1 1357:1 1374:3
1 246:1 559:1 634:1 907:1 1292:1 1313:1 1356:1 1357:1 1374:3
1 131:1 246:1 300:1 406:1 407:1 460:1 541:1 559:1 621:1 634:1 681:1 701:1 895:1 907:1 978:1 981:1 1152:1 1225:1 1231:1 1235:1 1236:1 1237:1 1239:1 1241:1 1265:1 1292:1 1300:1 1313:1 1329:1 1334:1 1348:1 1350:1 1356:1 1357:1 1374:2
1 246:1 559:1 681:1 907:1 1231:1 1292:1 1313:1 1356:1 1374:3
1 246:1 559:1 1292:1 1313:1 1374:2
1 246:1 559:1 634:1 907:1 1292:1 1313:1 1356:1 1357:1 1374:3
1 131:1 246:1 300:1 406:1 407:1 460:1 541:1 559:1 621:1 634:1 681:1 701:1 895:1 907:1 978:1 981:1 1152:1 1225:1 1231:1 1235:1 1236:1 1237:1 1239:1 1241:1 1265:1 1292:1 1300:1 1313:1 1329:1 1334:1 1348:1 1350:1 1356:1 1357:1 1374:1
1 131:1 246:1 406:1 407:1 541:1 559:1 895:1 1152:1 1225:1 1235:1 1236:1 1292:1 1300:1 1313:1 1334:1 1350:1 1374:3
1 246:1 559:1 634:1 907:1 1292:1 1313:1 1356:1 1357:1 1374:3
1 246:1 559:1 634:1 907:1 1292:1 1313:1 1356:1 1357:1 1374:3
1 246:1 559:1 634:1 907:1 1292:1 1313:1 1356:1 1357:1 1374:3
1 246:1 559:1 634:1 907:1 1292:1 1313:1 1356:1 1357:1 1374:3
1 246:1 559:1 634:1 907:1 1292:1 1313:1 1356:1 1357:1 1374:3
1 246:1 559:1 634:1 907:1 1292:1 1313:1 1356:1 1357:1 1374:3
1 246:1 559:1 1292:1 1313:1 1374:2
1 246:1 460:1 541:1 559:1 681:1 701:1 907:1 978:1 981:1 1231:1 1237:1 1239:1 1241:1 1265:1 1292:1 1300:1 1313:1 1356:1 1374:2
1 246:1 559:1 634:1 907:1 1292:1 1313:1 1356:1 1357:1 1374:3
1 246:1 559:1 634:1 907:1 1292:1 1313:1 1356:1 1357:1 1374:3
1 246:1 559:1 681:1 907:1 1231:1 1292:1 1313:1 1356:1 1374:4
1 131:1 246:1 406:1 407:1 541:1 559:1 895:1 1152:1 1225:1 1235:1 1236:1 1292:1 1300:1 1313:1 1334:1 1350:1 1374:3
1 246:1 559:1 634:1 907:1 1292:1 1313:1 1356:1 1357:1 1374:3
1 131:1 246:1 300:1 406:1 407:1 460:1 541:1 559:1 621:1 634:1 681:1 701:1 895:1 907:1 978:1 981:1 1152:1 1225:1 1231:1 1235:1 1236:1 1237:1 1239:1 1241:1 1265:1 1292:1 1300:1 1313:1 1329:1 1334:1 1348:1 1350:1 1356:1 1357:1 1374:2
1 246:1 559:1 634:1 907:1 1292:1 1313:1 1356:1 1357:1 1374:4
1 131:1 246:1 300:1 406:1 407:1 460:1 541:1 559:1 621:1 634:1 681:1 701:1 895:1 907:1 978:1 981:1 1152:1 1225:1 1231:1 1235:1 1236:1 1237:1 1239:1 1241:1 1265:1 1292:1 1300:1 1313:1 1329:1 1334:1 1348:1 1350:1 1356:1 1357:1 1374:2
1 246:1 559:1 634:1 907:1 1292:1 1313:1 1356:1 1357:1 1374:3
1 246:1 300:1 406:1 407:1 460:1 559:1 634:1 681:1 701:1 895:1 907:1 981:1 1152:1 1231:1 1235:1 1236:1 1239:1 1241:1 1265:1 1292:1 1313:1 1329:1 1334:1 1350:1 1356:1 1357:1 1374:2
1 246:1 559:1 681:1 701:1 907:1 1231:1 1241:1 1292:1 1313:1 1356:1 1374:2
1 246:1 559:1 681:1 907:1 1231:1 1292:1 1313:1 1356:1 1374:3
1 246:1 559:1 634:1 907:1 1292:1 1313:1 1356:1 1357:1 1374:3
1 246:1 559:1 634:1 907:1 1292:1 1313:1 1356:1 1357:1 1374:3
1 246:1 541:1 559:1 681:1 907:1 1231:1 1292:1 1300:1 1313:1 1356:1 1374:3
1 246:1 460:1 541:1 559:1 681:1 907:1 1231:1 1265:1 1292:1 1300:1 1313:1 1356:1 1374:2
1 246:1 559:1 634:1 907:1 1292:1 1313:1 1356:1 1357:1 1374:3
1 131:1 559:1 621:1 681:1 907:1 981:1 1225:1 1231:1 1239:1 1313:1 1348:1 1356:1 1374:1
1 246:1 559:1 634:1 907:1 1292:1 1313:1 1356:1 1357:1 1374:3
1 246:1 559:1 634:1 907:1 1292:1 1313:1 1356:1 1357:1 1374:3
1 131:1 246:1 300:1 406:1 407:1 460:1 541:1 559:1 621:1 634:1 681:1 701:1 895:1 907:1 978:1 981:1 1152:1 1225:1 1231:1 1235:1 1236:1 1237:1 1239:1 1241:1 1265:1 1292:1 1300:1 1313:1 1329:1 1334:1 1348:1 1350:1 1356:1 1357:1 1374:2
1 246:1 559:1 634:1 907:1 1292:1 1313:1 1356:1 1357:1 1374:3
1 1374:3
1 246:1 559:1 1292:1 1313:1 1374:2
1 246:1 559:1 634:1 907:1 1292:1 1313:1 1356:1 1357:1 1374:3
1 246:1 559:1 634:1 907:1 1292:1 1313:1 1356:1 1357:1 1374:3
1 246:1 559:1 634:1 907:1 1292:1 1313:1 1356:1 1357:1 1374:3
1 131:1 246:1 300:1 406:1 407:1 460:1 541:1 559:1 621:1 634:1 681:1 701:1 895:1 907:1 978:1 981:1 1152:1 1225:1 1231:1 1235:1 1236:1 1237:1 1239:1 1241:1 1265:1 1292:1 1300:1 1313:1 1329:1 1334:1 1348:1 1350:1 1356:1 1357:1 1374:2
1 246:1 559:1 907:1 1292:1 1313:1 1356:1 1374:3
1 246:1 460:1 541:1 559:1 681:1 701:1 907:1 978:1 1231:1 1237:1 1241:1 1265:1 1292:1 1300:1 1313:1 1356:1 1374:4
1 246:1 300:1 406:1 407:1 460:1 559:1 634:1 681:1 701:1 895:1 907:1 981:1 1152:1 1231:1 1235:1 1236:1 1239:1 1241:1 1265:1 1292:1 1313:1 1329:1 1334:1 1350:1 1356:1 1357:1 1374:2
1 1374:3
1 246:1 559:1 634:1 907:1 1292:1 1313:1 1356:1 1357:1 1374:3
1 131:1 246:1 300:1 406:1 407:1 460:1 541:1 559:1 621:1 634:1 681:1 701:1 895:1 907:1 978:1 981:1 1152:1 1225:1 1231:1 1235:1 1236:1 1237:1 1239:1 1241:1 1265:1 1292:1 1300:1 1313:1 1329:1 1334:1 1348:1 1350:1 1356:1 1357:1 1374:2
1 246:1 541:1 559:1 681:1 701:1 907:1 1231:1 1241:1 1292:1 1300:1 1313:1 1356:1 1374:2
1 246:1 559:1 634:1 907:1 1292:1 1313:1 1356:1 1357:1 1374:3
1 246:1 559:1 634:1 907:1 1292:1 1313:1 1356:1 1357:1 1374:3
1 246:1 349:1 541:1 559:1 634:1 656:1 681:1 701:1 907:1 978:1 1231:1 1237:1 1241:1 1252:1 1292:1 1300:1 1313:1 1354:1 1356:1 1357:1 1373:1 1374:4 1376:1
1 246:1 559:1 634:1 907:1 1292:1 1313:1 1356:1 1357:1 1374:3
1 246:1 559:1 634:1 907:1 1292:1 1313:1 1356:1 1357:1 1374:3
1 246:1 300:1 406:1 407:1 460:1 559:1 634:1 681:1 701:1 895:1 907:1 981:1 1152:1 1231:1 1235:1 1236:1 1239:1 1241:1 1265:1 1292:1 1313:1 1329:1 1334:1 1350:1 1356:1 1357:1 1374:2
1 246:1 559:1 634:1 907:1 1292:1 1313:1 1356:1 1357:1 1374:3
1 131:1 246:1 300:1 406:1 407:1 460:1 541:1 559:1 621:1 634:1 681:1 701:1 895:1 907:1 978:1 981:1 1152:1 1225:1 1231:1 1235:1 1236:1 1237:1 1239:1 1241:1 1265:1 1292:1 1300:1 1313:1 1329:1 1334:1 1348:1 1350:1 1356:1 1357:1 1374:2
1 246:1 559:1 634:1 907:1 1292:1 1313:1 1356:1 1357:1 1374:3
1 246:1 460:1 541:1 559:1 681:1 701:1 907:1 981:1 1231:1 1239:1 1241:1 1265:1 1292:1 1300:1 1313:1 1356:1 1374:2
1 1374:2
1 131:1 246:1 300:1 406:1 407:1 460:1 541:1 559:1 621:1 634:1 681:1 701:1 895:1 907:1 978:1 981:1 1152:1 1225:1 1231:1 1235:1 1236:1 1237:1 1239:1 1241:1 1265:1 1292:1 1300:1 1313:1 1329:1 1334:1 1348:1 1350:1 1356:1 1357:1 1374:2
1 246:1 559:1 681:1 701:1 907:1 1231:1 1241:1 1292:1 1313:1 1356:1 1374:2
1 246:1 349:1 365:1 460:1 541:1 559:1 681:1 907:1 978:1 981:1 1231:1 1237:1 1239:1 1265:1 1292:1 1300:1 1313:1 1354:1 1356:1 1370:1 1374:2
1 131:1 246:1 541:1 559:1 681:1 701:1 907:1 981:1 1225:1 1231:1 1239:1 1241:1 1292:1 1300:1 1313:1 1356:1 1374:3 1376:1
1 1374:3
1 246:1 559:1 634:1 907:1 1292:1 1313:1 1356:1 1357:1 1374:3
1 131:1 246:1 300:1 406:1 407:1 460:1 541:1 559:1 621:1 634:1 681:1 701:1 895:1 907:1 978:1 981:1 1152:1 1225:1 1231:1 1235:1 1236:1 1237:1 1239:1 1241:1 1265:1 1292:1 1300:1 1313:1 1329:1 1334:1 1348:1 1350:1 1356:1 1357:1 1374:2
1 701:1 1241:1 1374:3
1 246:1 349:1 460:1 541:1 559:1 681:1 907:1 1231:1 1265:1 1292:1 1300:1 1313:1 1354:1 1356:1 1374:2
1 246:1 559:1 634:1 907:1 1292:1 1313:1 1356:1 1357:1 1374:3
1 1374:3
1 246:1 559:1 634:1 907:1 1292:1 1313:1 1356:1 1357:1 1374:3
1 1374:3
1 246:1 460:1 541:1 559:1 681:1 701:1 907:1 981:1 1231:1 1239:1 1241:1 1265:1 1292:1 1300:1 1313:1 1356:1 1374:2
1 131:1 559:1 621:1 681:1 907:1 981:1 1225:1 1231:1 1239:1 1313:1 1348:1 1356:1 1374:2
1 246:1 559:1 634:1 907:1 1292:1 1313:1 1356:1 1357:1 1374:3
1 131:1 246:1 300:1 406:1 407:1 460:1 541:1 559:1 621:1 634:1 681:1 701:1 895:1 907:1 978:1 981:1 1152:1 1225:1 1231:1 1235:1 1236:1 1237:1 1239:1 1241:1 1265:1 1292:1 1300:1 1313:1 1329:1 1334:1 1348:1 1350:1 1356:1 1357:1 1374:1
1 246:1 559:1 634:1 907:1 1292:1 1313:1 1356:1 1357:1 1374:3
1 246:1 559:1 634:1 907:1 1292:1 1313:1 1356:1 1357:1 1374:3
1 246:1 559:1 681:1 907:1 1231:1 1292:1 1313:1 1356:1 1374:2
1 246:1 541:1 559:1 681:1 907:1 1231:1 1292:1 1300:1 1313:1 1356:1 1374:2
1 246:1 559:1 634:1 907:1 1292:1 1313:1 1356:1 1357:1 1374:3
1 246:1 300:1 406:1 407:1 460:1 559:1 634:1 681:1 701:1 895:1 907:1 981:1 1152:1 1231:1 1235:1 1236:1 1239:1 1241:1 1265:1 1292:1 1313:1 1329:1 1334:1 1350:1 1356:1 1357:1 1374:1
1 246:1 300:1 406:1 407:1 460:1 559:1 634:1 681:1 701:1 895:1 907:1 981:1 1152:1 1231:1 1235:1 1236:1 1239:1 1241:1 1265:1 1292:1 1313:1 1329:1 1334:1 1350:1 1356:1 1357:1 1374:1
1 131:1 559:1 621:1 681:1 907:1 981:1 1225:1 1231:1 1239:1 1313:1 1348:1 1356:1 1374:2
1 246:1 300:1 406:1 407:1 460:1 559:1 634:1 681:1 701:1 895:1 907:1 981:1 1152:1 1231:1 1235:1 1236:1 1239:1 1241:1 1265:1 1292:1 1313:1 1329:1 1334:1 1350:1 1356:1 1357:1 1374:2
1 246:1 559:1 634:1 907:1 1292:1 1313:1 1356:1 1357:1 1374:3
1 131:1 246:1 300:1 406:1 407:1 460:1 541:1 559:1 621:1 634:1 681:1 701:1 895:1 907:1 978:1 981:1 1152:1 1225:1 1231:1 1235:1 1236:1 1237:1 1239:1 1241:1 1265:1 1292:1 1300:1 1313:1 1329:1 1334:1 1348:1 1350:1 1356:1 1357:1 1374:2
1 246:1 559:1 634:1 907:1 1292:1 1313:1 1356:1 1357:1 1374:3
1 246:1 559:1 634:1 907:1 1292:1 1313:1 1356:1 1357:1 1374:3
1 1374:3
1 246:1 559:1 681:1 907:1 1231:1 1292:1 1313:1 1356:1 1374:6
1 246:1 559:1 681:1 907:1 1231:1 1292:1 1313:1 1356:1 1374:3
1 246:1 559:1 634:1 907:1 1292:1 1313:1 1356:1 1357:1 1374:3
1 246:1 559:1 634:1 907:1 1292:1 1313:1 1356:1 1357:1 1374:3
1 246:1 559:1 634:1 907:1 1292:1 1313:1 1356:1 1357:1 1374:3
1 246:1 559:1 634:1 907:1 1292:1 1313:1 1356:1 1357:1 1374:3
1 246:1 300:1 406:1 407:1 460:1 559:1 634:1 681:1 701:1 895:1 907:1 981:1 1152:1 1231:1 1235:1 1236:1 1239:1 1241:1 1265:1 1292:1 1313:1 1329:1 1334:1 1350:1 1356:1 1357:1 1374:2
1 1374:3
1 246:1 300:1 406:1 407:1 460:1 559:1 634:1 681:1 701:1 895:1 907:1 981:1 1152:1 1231:1 1235:1 1236:1 1239:1 1241:1 1265:1 1292:1 1313:1 1329:1 1334:1 1350:1 1356:1 1357:1 1374:2
1 246:1 559:1 634:1 907:1 1292:1 1313:1 1356:1 1357:1 1374:3
1 246:1 460:1 541:1 559:1 681:1 701:1 907:1 978:1 981:1 1231:1 1237:1 1239:1 1241:1 1265:1 1292:1 1300:1 1313:1 1356:1 1374:4
1 246:1 559:1 907:1 1292:1 1313:1 1356:1 1374:2
1 246:1 300:1 406:1 407:1 460:1 559:1 634:1 681:1 701:1 895:1 907:1 981:1 1152:1 1231:1 1235:1 1236:1 1239:1 1241:1 1265:1 1292:1 1313:1 1329:1 1334:1 1350:1 1356:1 1357:1 1374:2
1 246:1 559:1 634:1 907:1 1292:1 1313:1 1356:1 1357:1 1374:3
1 246:1 559:1 1292:1 1313:1 1374:1
1 131:1 559:1 621:1 681:1 907:1 981:1 1225:1 1231:1 1239:1 1313:1 1348:1 1356:1 1374:2
1 131:1 246:1 406:1 407:1 541:1 559:1 895:1 1152:1 1225:1 1235:1 1236:1 1292:1 1300:1 1313:1 1334:1 1350:1 1374:3
1 246:1 460:1 541:1 559:1 681:1 907:1 1231:1 1265:1 1292:1 1300:1 1313:1 1356:1 1374:2
1 246:1 300:1 406:1 407:1 460:1 559:1 634:1 681:1 701:1 895:1 907:1 981:1 1152:1 1231:1 1235:1 1236:1 1239:1 1241:1 1265:1 1292:1 1313:1 1329:1 1334:1 1350:1 1356:1 1357:1 1374:1
1 246:1 559:1 634:1 907:1 1292:1 1313:1 1356:1 1357:1 1374:3
1 246:1 559:1 634:1 907:1 1292:1 1313:1 1356:1 1357:1 1374:3
1 246:1 559:1 634:1 907:1 1292:1 1313:1 1356:1 1357:1 1374:3
1 246:1 559:1 634:1 907:1 1292:1 1313:1 1356:1 1357:1 1374:3
1 246:1 541:1 559:1 681:1 907:1 1231:1 1292:1 1300:1 1313:1 1356:1 1374:2
1 246:1 559:1 634:1 907:1 1292:1 1313:1 1356:1 1357:1 1374:3
1 246:1 460:1 541:1 559:1 681:1 907:1 1231:1 1265:1 1292:1 1300:1 1313:1 1356:1 1374:2
1 246:1 559:1 634:1 907:1 1292:1 1313:1 1356:1 1357:1 1374:3
1 246:1 559:1 634:1 907:1 1292:1 1313:1 1356:1 1357:1 1374:3
1 701:1 1241:1 1374:3
1 246:1 559:1 634:1 907:1 1292:1 1313:1 1356:1 1357:1 1374:3
1 246:1 559:1 634:1 907:1 1292:1 1313:1 1356:1 1357:1 1374:3
1 246:1 559:1 634:1 907:1 1292:1 1313:1 1356:1 1357:1 1374:3
1 246:1 559:1 634:1 907:1 1292:1 1313:1 1356:1 1357:1 1374:3
1 246:1 559:1 634:1 907:1 1292:1 1313:1 1356:1 1357:1 1374:3
1 246:1 460:1 541:1 559:1 681:1 701:1 907:1 981:1 1231:1 1239:1 1241:1 1265:1 1292:1 1300:1 1313:1 1356:1 1374:2
1 246:1 559:1 634:1 907:1 1292:1 1313:1 1356:1 1357:1 1374:3
1 246:1 559:1 634:1 907:1 1292:1 1313:1 1356:1 1357:1 1374:3
1 131:1 246:1 300:1 406:1 407:1 460:1 541:1 559:1 621:1 634:1 681:1 701:1 895:1 907:1 978:1 981:1 1152:1 1225:1 1231:1 1235:1 1236:1 1237:1 1239:1 1241:1 1265:1 1292:1 1300:1 1313:1 1329:1 1334:1 1348:1 1350:1 1356:1 1357:1 1374:2
1 131:1 246:1 300:1 406:1 407:1 460:1 541:1 559:1 621:1 634:1 681:1 701:1 895:1 907:1 978:1 981:1 1152:1 1225:1 1231:1 1235:1 1236:1 1237:1 1239:1 1241:1 1265:1 1292:1 1300:1 1313:1 1329:1 1334:1 1348:1 1350:1 1356:1 1357:1 1374:2
1 246:1 559:1 634:1 907:1 1292:1 1313:1 1356:1 1357:1 1374:3
1 246:1 559:1 1292:1 1313:1 1374:3
1 246:1 300:1 406:1 407:1 460:1 559:1 621:1 634:1 681:1 701:1 895:1 907:1 981:1 1152:1 1231:1 1235:1 1236:1 1239:1 1241:1 1265:1 1292:1 1313:1 1329:1 1334:1 1348:1 1350:1 1356:1 1357:1 1374:1
1 131:1 246:1 300:1 406:1 407:1 460:1 541:1 559:1 621:1 634:1 681:1 701:1 895:1 907:1 978:1 981:1 1152:1 1225:1 1231:1 1235:1 1236:1 1237:1 1239:1 1241:1 1265:1 1292:1 1300:1 1313:1 1329:1 1334:1 1348:1 1350:1 1356:1 1357:1 1374:2
1 246:1 559:1 634:1 907:1 1292:1 1313:1 1356:1 1357:1 1374:3
1 246:1 541:1 559:1 681:1 701:1 907:1 1231:1 1241:1 1292:1 1300:1 1313:1 1356:1 1374:4
1 246:1 559:1 681:1 907:1 1231:1 1292:1 1313:1 1356:1 1374:2
1 701:1 1241:1 1374:3
1 246:1 559:1 634:1 907:1 1292:1 1313:1 1356:1 1357:1 1374:3
1 131:1 246:1 300:1 406:1 407:1 460:1 541:1 559:1 621:1 634:1 681:1 701:1 895:1 907:1 978:1 981:1 1152:1 1225:1 1231:1 1235:1 1236:1 1237:1 1239:1 1241:1 1265:1 1292:1 1300:1 1313:1 1329:1 1334:1 1348:1 1350:1 1356:1 1357:1 1374:1
1 229:1 246:1 460:1 498:1 559:1 699:1 741:1 907:1 978:1 981:1 1207:1 1237:1 1239:1 1240:1 1253:1 1258:1 1265:1 1280:1 1281:1 1292:1 1313:1 1356:1 1369:1 1374:4
1 246:1 559:1 634:1 907:1 1292:1 1313:1 1356:1 1357:1 1374:3
1 246:1 300:1 406:1 407:1 460:1 559:1 634:1 681:1 701:1 895:1 907:1 981:1 1152:1 1231:1 1235:1 1236:1 1239:1 1241:1 1265:1 1292:1 1313:1 1329:1 1334:1 1350:1 1356:1 1357:1 1374:2
1 246:1 559:1 634:1 907:1 1292:1 1313:1 1356:1 1357:1 1374:3
1 246:1 559:1 634:1 907:1 1292:1 1313:1 1356:1 1357:1 1374:3
1 246:1 559:1 634:1 907:1 1292:1 1313:1 1356:1 1357:1 1374:3
1 246:1 559:1 681:1 907:1 1231:1 1292:1 1313:1 1356:1 1374:2
1 701:1 1241:1 1374:3
1 131:1 246:1 300:1 406:1 407:1 460:1 541:1 559:1 621:1 634:1 681:1 701:1 895:1 907:1 978:1 981:1 1152:1 1225:1 1231:1 1235:1 1236:1 1237:1 1239:1 1241:1 1265:1 1292:1 1300:1 1313:1 1329:1 1334:1 1348:1 1350:1 1356:1 1357:1 1374:2
1 131:1 559:1 621:1 681:1 907:1 981:1 1225:1 1231:1 1239:1 1313:1 1348:1 1356:1 1374:2
1 246:1 559:1 634:1 907:1 1292:1 1313:1 1356:1 1357:1 1374:3
1 246:1 559:1 634:1 907:1 1292:1 1313:1 1356:1 1357:1 1374:3
1 246:1 559:1 681:1 907:1 1231:1 1292:1 1313:1 1356:1 1374:5
1 246:1 559:1 634:1 907:1 1292:1 1313:1 1356:1 1357:1 1374:3
1 246:1 349:1 460:1 541:1 559:1 681:1 907:1 1231:1 1265:1 1292:1 1300:1 1313:1 1354:1 1356:1 1374:2
1 701:1 1241:1 1374:3
1 246:1 559:1 634:1 907:1 1292:1 1313:1 1356:1 1357:1 1374:2
1 246:1 559:1 634:1 907:1 1292:1 1313:1 1356:1 1357:1 1374:3
1 131:1 246:1 300:1 406:1 407:1 460:1 541:1 559:1 621:1 634:1 681:1 701:1 895:1 907:1 978:1 981:1 1152:1 1225:1 1231:1 1235:1 1236:1 1237:1 1239:1 1241:1 1265:1 1292:1 1300:1 1313:1 1329:1 1334:1 1348:1 1350:1 1356:1 1357:1 1374:2
1 701:1 1241:1 1374:3
1 246:1 365:1 460:1 541:1 559:1 681:1 701:1 907:1 978:1 981:1 1231:1 1237:1 1239:1 1241:1 1265:1 1292:1 1300:1 1313:1 1356:1 1370:1 1374:3
1 246:1 559:1 634:1 907:1 1292:1 1313:1 1356:1 1357:1 1374:3
1 246:1 460:1 541:1 559:1 681:1 701:1 907:1 981:1 1231:1 1239:1 1241:1 1265:1 1292:1 1300:1 1313:1 1356:1 1374:2
1 246:1 559:1 634:1 907:1 1292:1 1313:1 1356:1 1357:1 1374:3
1 131:1 246:1 406:1 407:1 541:1 559:1 895:1 1152:1 1225:1 1235:1 1236:1 1292:1 1300:1 1313:1 1334:1 1350:1 1374:3
1 246:1 559:1 634:1 907:1 1292:1 1313:1 1356:1 1357:1 1374:3
1 246:1 559:1 634:1 907:1 1292:1 1313:1 1356:1 1357:1 1374:3
1 131:1 246:1 300:1 406:1 407:1 460:1 541:1 559:1 621:1 634:1 681:1 701:1 895:1 907:1 978:1 981:1 1152:1 1225:1 1231:1 1235:1 1236:1 1237:1 1239:1 1241:1 1265:1 1292:1 1300:1 1313:1 1329:1 1334:1 1348:1 1350:1 1356:1 1357:1 1374:2
1 246:1 300:1 406:1 407:1 460:1 559:1 634:1 681:1 701:1 895:1 907:1 981:1 1152:1 1231:1 1235:1 1236:1 1239:1 1241:1 1265:1 1292:1 1313:1 1329:1 1334:1 1350:1 1356:1 1357:1 1374:2
1 246:1 559:1 634:1 907:1 1292:1 1313:1 1356:1 1357:1 1374:3
1 246:1 349:1 406:1 541:1 559:1 981:1 1236:1 1239:1 1292:1 1300:1 1313:1 1354:1 1374:4 1376:1
1 246:1 559:1 681:1 907:1 1231:1 1292:1 1313:1 1356:1 1374:2
1 246:1 559:1 634:1 907:1 1292:1 1313:1 1356:1 1357:1 1374:3
1 131:1 559:1 621:1 681:1 907:1 981:1 1225:1 1231:1 1239:1 1313:1 1348:1 1356:1 1374:1
1 246:1 559:1 634:1 907:1 1292:1 1313:1 1356:1 1357:1 1374:3
1 131:1 246:1 300:1 406:1 407:1 460:1 541:1 559:1 621:1 634:1 681:1 701:1 895:1 907:1 978:1 981:1 1152:1 1225:1 1231:1 1235:1 1236:1 1237:1 1239:1 1241:1 1265:1 1292:1 1300:1 1313:1 1329:1 1334:1 1348:1 1350:1 1356:1 1357:1 1374:2
1 246:1 559:1 634:1 907:1 1292:1 1313:1 1356:1 1357:1 1374:3
1 246:1 349:1 365:1 460:1 541:1 559:1 681:1 701:1 907:1 978:1 981:1 1231:1 1237:1 1239:1 1241:1 1265:1 1292:1 1300:1 1313:1 1354:1 1356:1 1370:1 1374:2
1 246:1 559:1 634:1 907:1 1292:1 1313:1 1356:1 1357:1 1374:3
1 1374:4
1 246:1 559:1 634:1 907:1 1292:1 1313:1 1356:1 1357:1 1374:3
1 246:1 460:1 541:1 559:1 681:1 701:1 907:1 978:1 981:1 1231:1 1237:1 1239:1 1241:1 1265:1 1292:1 1300:1 1313:1 1356:1 1374:2
1 246:1 460:1 541:1 559:1 681:1 701:1 907:1 978:1 981:1 1231:1 1237:1 1239:1 1241:1 1265:1 1292:1 1300:1 1313:1 1356:1 1374:2
1 681:1 1231:1 1374:3
1 246:1 559:1 1292:1 1313:1 1374:3
1 246:1 559:1 634:1 907:1 1292:1 1313:1 1356:1 1357:1 1374:3
1 246:1 559:1 634:1 907:1 1292:1 1313:1 1356:1 1357:1 1374:3
1 1374:2
1 246:1 349:1 460:1 541:1 559:1 681:1 907:1 1231:1 1265:1 1292:1 1300:1 1313:1 1354:1 1356:1 1374:2
1 131:1 246:1 406:1 407:1 541:1 559:1 895:1 1152:1 1225:1 1235:1 1236:1 1292:1 1300:1 1313:1 1334:1 1350:1 1374:3
1 1374:3
1 246:1 559:1 1292:1 1313:1 1374:2
1 246:1 300:1 406:1 407:1 460:1 559:1 621:1 634:1 681:1 701:1 895:1 907:1 981:1 1152:1 1231:1 1235:1 1236:1 1239:1 1241:1 1265:1 1292:1 1313:1 1329:1 1334:1 1348:1 1350:1 1356:1 1357:1 1374:1
1 246:1 559:1 681:1 907:1 981:1 1231:1 1239:1 1292:1 1313:1 1356:1 1374:4
1 246:1 559:1 634:1 907:1 1292:1 1313:1 1356:1 1357:1 1374:3
1 246:1 559:1 681:1 1231:1 1292:1 1313:1 1374:2
1 701:1 1241:1 1374:3
1 246:1 559:1 634:1 907:1 1292:1 1313:1 1356:1 1357:1 1374:3
1 246:1 559:1 634:1 907:1 1292:1 1313:1 1356:1 1357:1 1374:3
1 246:1 541:1 559:1 681:1 701:1 907:1 1231:1 1241:1 1292:1 1300:1 1313:1 1356:1 1374:4
1 246:1 559:1 634:1 907:1 1292:1 1313:1 1356:1 1357:1 1374:3
1 246:1 460:1 541:1 559:1 681:1 907:1 1231:1 1265:1 1292:1 1300:1 1313:1 1356:1 1374:2
1 246:1 559:1 1292:1 1313:1 1374:3
1 246:1 559:1 634:1 907:1 1292:1 1313:1 1356:1 1357:1 1374:3
1 1374:3
1 246:1 559:1 634:1 907:1 1292:1 1313:1 1356:1 1357:1 1374:3
1 1374:3
1 246:1 559:1 634:1 907:1 1292:1 1313:1 1356:1 1357:1 1374:3
1 246:1 559:1 634:1 907:1 1292:1 1313:1 1356:1 1357:1 1374:3
1 131:1 246:1 300:1 406:1 407:1 460:1 541:1 559:1 621:1 634:1 681:1 701:1 895:1 907:1 978:1 981:1 1152:1 1225:1 1231:1 1235:1 1236:1 1237:1 1239:1 1241:1 1265:1 1292:1 1300:1 1313:1 1329:1 1334:1 1348:1 1350:1 1356:1 1357:1 1374:2
1 246:1 559:1 634:1 907:1 1292:1 1313:1 1356:1 1357:1 1374:3
1 246:1 559:1 634:1 907:1 1292:1 1313:1 1356:1 1357:1 1374:3
1 246:1 559:1 681:1 907:1 1231:1 1292:1 1313:1 1356:1 1374:2
1 246:1 300:1 406:1 407:1 460:1 559:1 634:1 681:1 701:1 895:1 907:1 981:1 1152:1 1231:1 1235:1 1236:1 1239:1 1241:1 1265:1 1292:1 1313:1 1329:1 1334:1 1350:1 1356:1 1357:1 1374:2
1 246:1 559:1 634:1 907:1 1292:1 1313:1 1356:1 1357:1 1374:3
1 246:1 559:1 634:1 907:1 1292:1 1313:1 1356:1 1357:1 1374:3
1 246:1 559:1 634:1 907:1 1292:1 1313:1 1356:1 1357:1 1374:3
1 246:1 559:1 634:1 907:1 1292:1 1313:1 1356:1 1357:1 1374:3
1 246:1 559:1 634:1 907:1 1292:1 1313:1 1356:1 1357:1 1374:3
1 246:1 460:1 541:1 559:1 681:1 701:1 907:1 978:1 981:1 1231:1 1237:1 1239:1 1241:1 1265:1 1292:1 1300:1 1313:1 1356:1 1374:2
1 1374:3
1 701:1 1241:1 1374:3
1 246:1 460:1 541:1 559:1 681:1 701:1 907:1 978:1 1231:1 1237:1 1241:1 1265:1 1292:1 1300:1 1313:1 1356:1 1374:4
1 246:1 559:1 634:1 907:1 1292:1 1313:1 1356:1 1357:1 1374:3
1 246:1 365:1 460:1 541:1 559:1 681:1 701:1 907:1 978:1 981:1 1231:1 1237:1 1239:1 1241:1 1265:1 1292:1 1300:1 1313:1 1356:1 1370:1 1374:2
1 246:1 300:1 406:1 407:1 460:1 559:1 634:1 681:1 701:1 895:1 907:1 981:1 1152:1 1231:1 1235:1 1236:1 1239:1 1241:1 1265:1 1292:1 1313:1 1329:1 1334:1 1350:1 1356:1 1357:1 1374:2
1 246:1 460:1 541:1 559:1 681:1 907:1 1231:1 1265:1 1292:1 1300:1 1313:1 1356:1 1374:2
1 246:1 541:1 559:1 681:1 907:1 1231:1 1292:1 1300:1 1313:1 1356:1 1374:2
1 131:1 246:1 406:1 407:1 541:1 559:1 895:1 1152:1 1225:1 1235:1 1236:1 1292:1 1300:1 1313:1 1334:1 1350:1 1374:3
1 131:1 246:1 300:1 406:1 407:1 460:1 541:1 559:1 621:1 634:1 681:1 701:1 895:1 907:1 978:1 981:1 1152:1 1225:1 1231:1 1235:1 1236:1 1237:1 1239:1 1241:1 1265:1 1292:1 1300:1 1313:1 1329:1 1334:1 1348:1 1350:1 1356:1 1357:1 1374:2
1 246:1 559:1 634:1 907:1 1292:1 1313:1 1356:1 1357:1 1374:3
1 246:1 559:1 634:1 907:1 1292:1 1313:1 1356:1 1357:1 1374:3
1 246:1 559:1 634:1 907:1 1292:1 1313:1 1356:1 1357:1 1374:3
1 246:1 559:1 634:1 907:1 1292:1 1313:1 1356:1 1357:1 1374:3
1 131:1 246:1 541:1 559:1 681:1 981:1 1152:1 1225:1 1231:1 1239:1 1292:1 1300:1 1313:1 1334:1 1374:2
1 246:1 559:1 634:1 907:1 1292:1 1313:1 1356:1 1357:1 1374:3
1 1374:3
1 246:1 559:1 634:1 907:1 1292:1 1313:1 1356:1 1357:1 1374:3
1 246:1 349:1 406:1 559:1 634:1 681:1 701:1 907:1 978:1 981:1 1231:1 1236:1 1237:1 1239:1 1241:1 1292:1 1313:1 1354:1 1356:1 1357:1 1374:5
1 246:1 559:1 634:1 907:1 1292:1 1313:1 1356:1 1357:1 1374:3
1 246:1 559:1 634:1 907:1 1292:1 1313:1 1356:1 1357:1 1374:3
1 131:1 559:1 621:1 681:1 907:1 981:1 1225:1 1231:1 1239:1 1313:1 1348:1 1356:1 1374:2
1 246:1 559:1 634:1 907:1 1292:1 1313:1 1356:1 1357:1 1374:3
1 246:1 559:1 634:1 907:1 1292:1 1313:1 1356:1 1357:1 1374:3
1 246:1 559:1 634:1 907:1 1292:1 1313:1 1356:1 1357:1 1374:3
1 131:1 246:1 300:1 406:1 407:1 460:1 541:1 559:1 621:1 634:1 681:1 701:1 895:1 907:1 978:1 981:1 1152:1 1225:1 1231:1 1235:1 1236:1 1237:1 1239:1 1241:1 1265:1 1292:1 1300:1 1313:1 1329:1 1334:1 1348:1 1350:1 1356:1 1357:1 1374:2
1 131:1 246:1 300:1 406:1 541:1 559:1 634:1 681:1 701:1 895:1 981:1 1152:1 1225:1 1231:1 1236:1 1239:1 1241:1 1292:1 1300:1 1313:1 1329:1 1334:1 1350:1 1357:1 1374:2
1 701:1 1241:1 1374:3
1 246:1 559:1 634:1 907:1 1292:1 1313:1 1356:1 1357:1 1374:3
1 246:1 300:1 406:1 407:1 460:1 559:1 634:1 681:1 701:1 895:1 907:1 981:1 1152:1 1231:1 1235:1 1236:1 1239:1 1241:1 1265:1 1292:1 1313:1 1329:1 1334:1 1350:1 1356:1 1357:1 1374:1
1 246:1 559:1 1292:1 1313:1 1374:2
1 246:1 460:1 541:1 559:1 681:1 701:1 907:1 981:1 1231:1 1239:1 1241:1 1265:1 1292:1 1300:1 1313:1 1356:1 1374:2
1 246:1 559:1 634:1 907:1 1292:1 1313:1 1356:1 1357:1 1374:3
1 246:1 559:1 634:1 907:1 1292:1 1313:1 1356:1 1357:1 1374:3
1 131:1 246:1 300:1 406:1 407:1 460:1 541:1 559:1 621:1 634:1 681:1 701:1 895:1 907:1 978:1 981:1 1152:1 1225:1 1231:1 1235:1 1236:1 1237:1 1239:1 1241:1 1265:1 1292:1 1300:1 1313:1 1329:1 1334:1 1348:1 1350:1 1356:1 1357:1 1374:2
1 131:1 246:1 300:1 406:1 407:1 460:1 541:1 559:1 621:1 634:1 681:1 701:1 895:1 907:1 978:1 981:1 1152:1 1225:1 1231:1 1235:1 1236:1 1237:1 1239:1 1241:1 1265:1 1292:1 1300:1 1313:1 1329:1 1334:1 1348:1 1350:1 1356:1 1357:1 1374:2
1 246:1 559:1 634:1 907:1 1292:1 1313:1 1356:1 1357:1 1374:3
1 131:1 246:1 300:1 406:1 407:1 460:1 541:1 559:1 621:1 634:1 681:1 701:1 895:1 907:1 978:1 981:1 1152:1 1225:1 1231:1 1235:1 1236:1 1237:1 1239:1 1241:1 1265:1 1292:1 1300:1 1313:1 1329:1 1334:1 1348:1 1350:1 1356:1 1357:1 1374:2
1 131:1 246:1 300:1 406:1 407:1 460:1 541:1 559:1 621:1 634:1 681:1 701:1 895:1 907:1 978:1 981:1 1152:1 1225:1 1231:1 1235:1 1236:1 1237:1 1239:1 1241:1 1265:1 1292:1 1300:1 1313:1 1329:1 1334:1 1348:1 1350:1 1356:1 1357:1 1374:2
1 246:1 559:1 634:1 907:1 1292:1 1313:1 1356:1 1357:1 1374:3
1 701:1 1241:1 1374:3
1 246:1 349:1 406:1 559:1 634:1 681:1 701:1 907:1 978:1 981:1 1231:1 1236:1 1237:1 1239:1 1241:1 1292:1 1313:1 1354:1 1356:1 1357:1 1374:5
1 246:1 559:1 634:1 907:1 1292:1 1313:1 1356:1 1357:1 1374:3
1 246:1 559:1 634:1 907:1 1292:1 1313:1 1356:1 1357:1 1374:3
1 246:1 559:1 634:1 907:1 1292:1 1313:1 1356:1 1357:1 1374:3
1 701:1 1241:1 1374:2
1 246:1 559:1 1292:1 1313:1 1374:2
1 246:1 559:1 681:1 907:1 1231:1 1292:1 1313:1 1356:1 1374:5
1 131:1 246:1 406:1 407:1 541:1 559:1 895:1 1152:1 1225:1 1235:1 1236:1 1292:1 1300:1 1313:1 1334:1 1350:1 1374:3
1 246:1 559:1 681:1 907:1 1231:1 1292:1 1313:1 1356:1 1374:2
1 246:1 349:1 406:1 559:1 634:1 681:1 701:1 907:1 978:1 981:1 1231:1 1236:1 1237:1 1239:1 1241:1 1292:1 1313:1 1354:1 1356:1 1357:1 1374:4
1 131:1 246:1 300:1 406:1 407:1 460:1 541:1 559:1 621:1 634:1 681:1 701:1 895:1 907:1 978:1 981:1 1152:1 1225:1 1231:1 1235:1 1236:1 1237:1 1239:1 1241:1 1265:1 1292:1 1300:1 1313:1 1329:1 1334:1 1348:1 1350:1 1356:1 1357:1 1374:2
1 246:1 559:1 634:1 907:1 1292:1 1313:1 1356:1 1357:1 1374:3
1 246:1 559:1 634:1 907:1 1292:1 1313:1 1356:1 1357:1 1374:3
1 131:1 246:1 300:1 406:1 407:1 460:1 541:1 559:1 621:1 634:1 681:1 701:1 895:1 907:1 978:1 981:1 1152:1 1225:1 1231:1 1235:1 1236:1 1237:1 1239:1 1241:1 1265:1 1292:1 1300:1 1313:1 1329:1 1334:1 1348:1 1350:1 1356:1 1357:1 1374:2
1 246:1 559:1 907:1 1292:1 1313:1 1356:1 1374:3
1 131:1 246:1 300:1 406:1 407:1 460:1 541:1 559:1 621:1 634:1 681:1 701:1 895:1 907:1 978:1 981:1 1152:1 1225:1 1231:1 1235:1 1236:1 1237:1 1239:1 1241:1 1265:1 1292:1 1300:1 1313:1 1329:1 1334:1 1348:1 1350:1 1356:1 1357:1 1374:2
1 246:1 300:1 406:1 460:1 559:1 634:1 681:1 701:1 1231:1 1236:1 1241:1 1265:1 1292:1 1313:1 1329:1 1357:1 1374:2
1 131:1 559:1 621:1 681:1 907:1 981:1 1225:1 1231:1 1239:1 1313:1 1348:1 1356:1 1374:1
1 246:1 300:1 406:1 407:1 460:1 559:1 634:1 681:1 701:1 895:1 907:1 981:1 1152:1 1231:1 1235:1 1236:1 1239:1 1241:1 1265:1 1292:1 1313:1 1329:1 1334:1 1350:1 1356:1 1357:1 1374:2
1 246:1 559:1 634:1 907:1 1292:1 1313:1 1356:1 1357:1 1374:3
1 246:1 559:1 634:1 907:1 1292:1 1313:1 1356:1 1357:1 1374:3
1 246:1 300:1 406:1 407:1 460:1 559:1 634:1 681:1 701:1 895:1 907:1 981:1 1152:1 1231:1 1235:1 1236:1 1239:1 1241:1 1265:1 1292:1 1313:1 1329:1 1334:1 1350:1 1356:1 1357:1 1374:2
1 246:1 365:1 460:1 559:1 681:1 1231:1 1265:1 1292:1 1313:1 1370:1 1374:2
1 131:1 246:1 300:1 406:1 407:1 460:1 541:1 559:1 621:1 634:1 681:1 701:1 895:1 907:1 978:1 981:1 1152:1 1225:1 1231:1 1235:1 1236:1 1237:1 1239:1 1241:1 1265:1 1292:1 1300:1 1313:1 1329:1 1334:1 1348:1 1350:1 1356:1 1357:1 1374:2
1 131:1 246:1 300:1 406:1 407:1 460:1 541:1 559:1 621:1 634:1 681:1 701:1 895:1 907:1 978:1 981:1 1152:1 1225:1 1231:1 1235:1 1236:1 1237:1 1239:1 1241:1 1265:1 1292:1 1300:1 1313:1 1329:1 1334:1 1348:1 1350:1 1356:1 1357:1 1374:2
1 246:1 559:1 634:1 907:1 1292:1 1313:1 1356:1 1357:1 1374:3
1 246:1 559:1 634:1 907:1 1292:1 1313:1 1356:1 1357:1 1374:3
1 131:1 246:1 300:1 406:1 407:1 460:1 541:1 559:1 621:1 634:1 681:1 701:1 895:1 907:1 978:1 981:1 1152:1 1225:1 1231:1 1235:1 1236:1 1237:1 1239:1 1241:1 1265:1 1292:1 1300:1 1313:1 1329:1 1334:1 1348:1 1350:1 1356:1 1357:1 1374:2
1 131:1 246:1 406:1 407:1 541:1 559:1 895:1 1152:1 1225:1 1235:1 1236:1 1292:1 1300:1 1313:1 1334:1 1350:1 1374:3
1 246:1 559:1 1292:1 1313:1 1374:2
1 246:1 559:1 634:1 907:1 1292:1 1313:1 1356:1 1357:1 1374:3
1 1374:2
1 246:1 559:1 634:1 907:1 1292:1 1313:1 1356:1 1357:1 1374:3
1 1374:3
1 246:1 559:1 634:1 907:1 1292:1 1313:1 1356:1 1357:1 1374:3
1 246:1 559:1 634:1 907:1 1292:1 1313:1 1356:1 1357:1 1374:3
1 701:1 1241:1 1374:3
1 131:1 246:1 541:1 559:1 681:1 981:1 1152:1 1225:1 1231:1 1239:1 1292:1 1300:1 1313:1 1334:1 1374:1
1 1374:2
1 246:1 559:1 634:1 907:1 1292:1 1313:1 1356:1 1357:1 1374:3
1 246:1 559:1 681:1 907:1 1231:1 1292:1 1313:1 1356:1 1374:2
1 246:1 559:1 634:1 907:1 1292:1 1313:1 1356:1 1357:1 1374:3
1 246:1 365:1 460:1 541:1 559:1 681:1 978:1 1231:1 1237:1 1265:1 1292:1 1300:1 1313:1 1370:1 1374:2
1 1374:3
1 246:1 559:1 634:1 907:1 1292:1 1313:1 1356:1 1357:1 1374:3
1 246:1 559:1 634:1 907:1 1292:1 1313:1 1356:1 1357:1 1374:3
1 131:1 246:1 300:1 406:1 407:1 460:1 541:1 559:1 621:1 634:1 681:1 701:1 895:1 907:1 978:1 981:1 1152:1 1225:1 1231:1 1235:1 1236:1 1237:1 1239:1 1241:1 1265:1 1292:1 1300:1 1313:1 1329:1 1334:1 1348:1 1350:1 1356:1 1357:1 1374:2
1 246:1 559:1 634:1 907:1 1292:1 1313:1 1356:1 1357:1 1374:3
1 246:1 559:1 634:1 907:1 1292:1 1313:1 1356:1 1357:1 1374:3
1 1374:3
1 246:1 559:1 634:1 907:1 1292:1 1313:1 1356:1 1357:1 1374:3
1 246:1 559:1 907:1 1292:1 1313:1 1356:1 1374:3
1 246:1 559:1 634:1 907:1 1292:1 1313:1 1356:1 1357:1 1374:2
1 701:1 1241:1 1374:3
1 246:1 559:1 907:1 1292:1 1313:1 1356:1 1374:3
1 246:1 559:1 681:1 907:1 1231:1 1292:1 1313:1 1356:1 1374:4
1 246:1 460:1 541:1 559:1 681:1 907:1 1231:1 1265:1 1292:1 1300:1 1313:1 1356:1 1374:5
1 246:1 559:1 634:1 907:1 1292:1 1313:1 1356:1 1357:1 1374:3
1 246:1 559:1 681:1 907:1 1231:1 1292:1 1313:1 1356:1 1374:1
1 701:1 1241:1 1374:3
1 1374:3
1 701:1 1241:1 1374:3
1 246:1 559:1 634:1 907:1 1292:1 1313:1 1356:1 1357:1 1374:3
1 246:1 300:1 406:1 460:1 559:1 634:1 681:1 701:1 1231:1 1236:1 1241:1 1265:1 1292:1 1313:1 1329:1 1357:1 1374:2
1 131:1 246:1 300:1 406:1 407:1 460:1 541:1 559:1 621:1 634:1 681:1 701:1 895:1 907:1 978:1 981:1 1152:1 1225:1 1231:1 1235:1 1236:1 1237:1 1239:1 1241:1 1265:1 1292:1 1300:1 1313:1 1329:1 1334:1 1348:1 1350:1 1356:1 1357:1 1374:2
1 1374:3
1 246:1 300:1 406:1 407:1 460:1 559:1 634:1 681:1 701:1 895:1 907:1 981:1 1152:1 1231:1 1235:1 1236:1 1239:1 1241:1 1265:1 1292:1 1313:1 1329:1 1334:1 1350:1 1356:1 1357:1 1374:2
1 1374:3
1 246:1 300:1 406:1 407:1 460:1 559:1 634:1 681:1 701:1 895:1 907:1 981:1 1152:1 1231:1 1235:1 1236:1 1239:1 1241:1 1265:1 1292:1 1313:1 1329:1 1334:1 1350:1 1356:1 1357:1 1374:2
1 128:1 131:1 175:1 240:1 246:1 267:1 308:1 334:1 349:1 394:1 460:1 479:1 486:1 507:1 541:1 559:1 582:1 606:1 634:1 649:1 656:1 681:1 689:1 699:1 701:1 741:1 755:1 824:1 840:1 907:1 981:1 1056:1 1092:1 1197:1 1207:1 1215:1 1223:1 1225:1 1228:1 1229:1 1231:1 1234:1 1239:1 1240:1 1241:1 1250:1 1251:1 1253:1 1258:1 1263:1 1265:1 1266:1 1272:1 1273:1 1275:1 1283:1 1290:1 1292:1 1295:1 1299:1 1300:1 1301:1 1305:1 1313:1 1314:1 1326:1 1331:1 1335:1 1343:1 1346:1 1351:1 1354:1 1356:1 1357:1 1358:1 1362:1 1367:1 1369:1 1373:1 1374:3 1376:256
1 246:1 559:1 1292:1 1313:1 1374:2
1 246:1 559:1 681:1 907:1 1231:1 1292:1 1313:1 1356:1 1374:5
1 246:1 541:1 559:1 681:1 907:1 1231:1 1292:1 1300:1 1313:1 1356:1 1374:2
1 246:1 559:1 634:1 907:1 1292:1 1313:1 1356:1 1357:1 1374:3
1 1374:3
1 131:1 246:1 300:1 406:1 407:1 460:1 541:1 559:1 621:1 634:1 681:1 701:1 895:1 907:1 978:1 981:1 1152:1 1225:1 1231:1 1235:1 1236:1 1237:1 1239:1 1241:1 1265:1 1292:1 1300:1 1313:1 1329:1 1334:1 1348:1 1350:1 1356:1 1357:1 1374:2
1 246:1 559:1 634:1 907:1 1292:1 1313:1 1356:1 1357:1 1374:3
1 246:1 559:1 634:1 907:1 1292:1 1313:1 1356:1 1357:1 1374:3
1 246:1 559:1 634:1 907:1 1292:1 1313:1 1356:1 1357:1 1374:3
1 246:1 559:1 634:1 907:1 1292:1 1313:1 1356:1 1357:1 1374:3
1 246:1 559:1 907:1 1292:1 1313:1 1356:1 1374:3
1 246:1 300:1 406:1 407:1 460:1 559:1 634:1 681:1 701:1 895:1 907:1 981:1 1152:1 1231:1 1235:1 1236:1 1239:1 1241:1 1265:1 1292:1 1313:1 1329:1 1334:1 1350:1 1356:1 1357:1 1374:1
1 246:1 559:1 634:1 907:1 1292:1 1313:1 1356:1 1357:1 1374:3
1 246:1 559:1 634:1 907:1 1292:1 1313:1 1356:1 1357:1 1374:3
1 131:1 246:1 300:1 406:1 407:1 460:1 541:1 559:1 621:1 634:1 681:1 701:1 895:1 907:1 978:1 981:1 1152:1 1225:1 1231:1 1235:1 1236:1 1237:1 1239:1 1241:1 1265:1 1292:1 1300:1 1313:1 1329:1 1334:1 1348:1 1350:1 1356:1 1357:1 1374:2
1 246:1 365:1 460:1 541:1 559:1 681:1 701:1 907:1 978:1 981:1 1231:1 1237:1 1239:1 1241:1 1265:1 1292:1 1300:1 1313:1 1356:1 1370:1 1374:2
1 1374:3
1 246:1 559:1 681:1 907:1 1231:1 1292:1 1313:1 1356:1 1374:5
1 246:1 559:1 634:1 907:1 1292:1 1313:1 1356:1 1357:1 1374:3
1 246:1 559:1 634:1 907:1 1292:1 1313:1 1356:1 1357:1 1374:3
1 131:1 246:1 406:1 407:1 541:1 559:1 895:1 1152:1 1225:1 1235:1 1236:1 1292:1 1300:1 1313:1 1334:1 1350:1 1374:3
1 246:1 559:1 634:1 907:1 1292:1 1313:1 1356:1 1357:1 1374:3
1 1374:3
1 246:1 559:1 1292:1 1313:1 1374:2
1 246:1 559:1 634:1 907:1 1292:1 1313:1 1356:1 1357:1 1374:3
1 246:1 559:1 681:1 907:1 1231:1 1292:1 1313:1 1356:1 1374:2
1 1374:3
1 246:1 460:1 541:1 559:1 681:1 701:1 907:1 978:1 981:1 1231:1 1237:1 1239:1 1241:1 1265:1 1292:1 1300:1 1313:1 1356:1 1374:4
1 246:1 559:1 1292:1 1313:1 1374:2
1 246:1 559:1 907:1 1292:1 1313:1 1356:1 1374:2
1 1374:3
1 246:1 559:1 634:1 907:1 1292:1 1313:1 1356:1 1357:1 1374:3
1 246:1 559:1 634:1 907:1 1292:1 1313:1 1356:1 1357:1 1374:3
1 1374:3
1 246:1 559:1 634:1 907:1 1292:1 1313:1 1356:1 1357:1 1374:3
1 246:1 559:1 634:1 907:1 1292:1 1313:1 1356:1 1357:1 1374:3
1 246:1 541:1 559:1 681:1 907:1 1231:1 1292:1 1300:1 1313:1 1356:1 1374:2
1 1374:3
1 246:1 559:1 634:1 907:1 1292:1 1313:1 1356:1 1357:1 1374:3
1 246:1 559:1 634:1 907:1 1292:1 1313:1 1356:1 1357:1 1374:3
1 131:1 246:1 300:1 406:1 407:1 460:1 541:1 559:1 621:1 634:1 681:1 701:1 895:1 907:1 978:1 981:1 1152:1 1225:1 1231:1 1235:1 1236:1 1237:1 1239:1 1241:1 1265:1 1292:1 1300:1 1313:1 1329:1 1334:1 1348:1 1350:1 1356:1 1357:1 1374:2
1 246:1 559:1 634:1 907:1 1292:1 1313:1 1356:1 1357:1 1374:3
1 1374:3
1 246:1 559:1 634:1 907:1 1292:1 1313:1 1356:1 1357:1 1374:3
1 131:1 246:1 406:1 407:1 541:1 559:1 895:1 1152:1 1225:1 1235:1 1236:1 1292:1 1300:1 1313:1 1334:1 1350:1 1374:3
1 246:1 300:1 406:1 407:1 460:1 559:1 634:1 681:1 701:1 895:1 907:1 981:1 1152:1 1231:1 1235:1 1236:1 1239:1 1241:1 1265:1 1292:1 1313:1 1329:1 1334:1 1350:1 1356:1 1357:1 1374:2
1 246:1 559:1 681:1 907:1 1231:1 1292:1 1313:1 1356:1 1374:2
1 1374:3
1 246:1 559:1 681:1 907:1 1231:1 1292:1 1313:1 1356:1 1374:5
1 246:1 300:1 406:1 407:1 460:1 559:1 621:1 634:1 681:1 701:1 895:1 907:1 981:1 1152:1 1231:1 1235:1 1236:1 1239:1 1241:1 1265:1 1292:1 1313:1 1329:1 1334:1 1348:1 1350:1 1356:1 1357:1 1374:1
1 246:1 559:1 634:1 907:1 1292:1 1313:1 1356:1 1357:1 1374:3
1 1374:3
1 1374:3
1 246:1 559:1 634:1 907:1 1292:1 1313:1 1356:1 1357:1 1374:3
1 246:1 559:1 634:1 907:1 1292:1 1313:1 1356:1 1357:1 1374:3
1 246:1 559:1 634:1 907:1 1292:1 1313:1 1356:1 1357:1 1374:3
1 246:1 300:1 406:1 407:1 460:1 559:1 634:1 681:1 701:1 895:1 907:1 981:1 1152:1 1231:1 1235:1 1236:1 1239:1 1241:1 1265:1 1292:1 1313:1 1329:1 1334:1 1350:1 1356:1 1357:1 1374:2
1 1374:3
1 246:1 559:1 634:1 907:1 1292:1 1313:1 1356:1 1357:1 1374:3
1 246:1 460:1 541:1 559:1 681:1 701:1 907:1 978:1 981:1 1231:1 1237:1 1239:1 1241:1 1265:1 1292:1 1300:1 1313:1 1356:1 1374:2
1 131:1 246:1 300:1 406:1 407:1 460:1 541:1 559:1 621:1 634:1 681:1 701:1 895:1 907:1 978:1 981:1 1152:1 1225:1 1231:1 1235:1 1236:1 1237:1 1239:1 1241:1 1265:1 1292:1 1300:1 1313:1 1329:1 1334:1 1348:1 1350:1 1356:1 1357:1 1374:2
1 246:1 300:1 406:1 407:1 460:1 559:1 634:1 681:1 701:1 895:1 907:1 981:1 1152:1 1231:1 1235:1 1236:1 1239:1 1241:1 1265:1 1292:1 1313:1 1329:1 1334:1 1350:1 1356:1 1357:1 1374:1
1 246:1 559:1 634:1 907:1 1292:1 1313:1 1356:1 1357:1 1374:3
1 246:1 559:1 634:1 907:1 1292:1 1313:1 1356:1 1357:1 1374:3
1 246:1 349:1 460:1 541:1 559:1 634:1 681:1 907:1 1231:1 1265:1 1292:1 1300:1 1313:1 1354:1 1356:1 1357:1 1374:4
1 1374:3
1 131:1 246:1 300:1 406:1 407:1 460:1 541:1 559:1 621:1 634:1 681:1 701:1 895:1 907:1 978:1 981:1 1152:1 1225:1 1231:1 1235:1 1236:1 1237:1 1239:1 1241:1 1265:1 1292:1 1300:1 1313:1 1329:1 1334:1 1348:1 1350:1 1356:1 1357:1 1374:1
1 131:1 246:1 300:1 406:1 407:1 460:1 541:1 559:1 621:1 634:1 681:1 701:1 895:1 907:1 978:1 981:1 1152:1 1225:1 1231:1 1235:1 1236:1 1237:1 1239:1 1241:1 1265:1 1292:1 1300:1 1313:1 1329:1 1334:1 1348:1 1350:1 1356:1 1357:1 1374:2
1 246:1 460:1 541:1 559:1 681:1 701:1 907:1 1231:1 1241:1 1265:1 1292:1 1300:1 1313:1 1356:1 1374:5
1 246:1 559:1 681:1 701:1 907:1 1231:1 1241:1 1292:1 1313:1 1356:1 1374:2
1 246:1 460:1 541:1 559:1 681:1 907:1 981:1 1231:1 1239:1 1265:1 1292:1 1300:1 1313:1 1356:1 1374:2
1 246:1 559:1 634:1 907:1 1292:1 1313:1 1356:1 1357:1 1374:3
1 701:1 1241:1 1374:3
1 246:1 559:1 634:1 907:1 1292:1 1313:1 1356:1 1357:1 1374:3
1 131:1 246:1 300:1 406:1 541:1 559:1 634:1 681:1 701:1 895:1 981:1 1152:1 1225:1 1231:1 1236:1 1239:1 1241:1 1292:1 1300:1 1313:1 1329:1 1334:1 1350:1 1357:1 1374:1
1 131:1 559:1 621:1 681:1 907:1 981:1 1225:1 1231:1 1239:1 1313:1 1348:1 1356:1 1374:2
1 246:1 349:1 406:1 559:1 634:1 681:1 701:1 907:1 978:1 981:1 1231:1 1236:1 1237:1 1239:1 1241:1 1292:1 1313:1 1354:1 1356:1 1357:1 1374:5
1 1374:3
1 1374:3
1 246:1 559:1 634:1 907:1 1292:1 1313:1 1356:1 1357:1 1374:3
1 246:1 349:1 365:1 460:1 541:1 559:1 681:1 907:1 978:1 981:1 1231:1 1237:1 1239:1 1265:1 1292:1 1300:1 1313:1 1354:1 1356:1 1370:1 1374:2
1 246:1 559:1 634:1 907:1 1292:1 1313:1 1356:1 1357:1 1374:3
1 246:1 559:1 634:1 907:1 1292:1 1313:1 1356:1 1357:1 1374:3
1 1374:3
1 131:1 246:1 406:1 407:1 541:1 559:1 895:1 1152:1 1225:1 1235:1 1236:1 1292:1 1300:1 1313:1 1334:1 1350:1 1374:3
1 246:1 559:1 634:1 907:1 1292:1 1313:1 1356:1 1357:1 1374:3
1 131:1 246:1 349:1 559:1 1225:1 1292:1 1313:1 1354:1 1374:2 1376:1
1 1374:3
1 246:1 559:1 681:1 907:1 1231:1 1292:1 1313:1 1356:1 1374:2
1 246:1 559:1 634:1 907:1 1292:1 1313:1 1356:1 1357:1 1374:3
1 1374:3
1 246:1 559:1 634:1 907:1 1292:1 1313:1 1356:1 1357:1 1374:3
1 246:1 300:1 406:1 407:1 460:1 559:1 634:1 681:1 701:1 895:1 907:1 981:1 1152:1 1231:1 1235:1 1236:1 1239:1 1241:1 1265:1 1292:1 1313:1 1329:1 1334:1 1350:1 1356:1 1357:1 1374:2
1 246:1 300:1 406:1 407:1 460:1 559:1 634:1 681:1 701:1 895:1 907:1 981:1 1152:1 1231:1 1235:1 1236:1 1239:1 1241:1 1265:1 1292:1 1313:1 1329:1 1334:1 1350:1 1356:1 1357:1 1374:2
1 246:1 460:1 541:1 559:1 681:1 701:1 907:1 978:1 981:1 1231:1 1237:1 1239:1 1241:1 1265:1 1292:1 1300:1 1313:1 1356:1 1374:2
1 246:1 559:1 634:1 907:1 1292:1 1313:1 1356:1 1357:1 1374:3
1 246:1 460:1 541:1 559:1 681:1 701:1 907:1 1231:1 1241:1 1265:1 1292:1 1300:1 1313:1 1356:1 1374:6
1 131:1 246:1 541:1 559:1 681:1 981:1 1152:1 1225:1 1231:1 1239:1 1292:1 1300:1 1313:1 1334:1 1374:1
1 246:1 559:1 634:1 907:1 1292:1 1313:1 1356:1 1357:1 1374:3
1 1374:3
1 131:1 246:1 300:1 406:1 407:1 460:1 541:1 559:1 621:1 634:1 681:1 701:1 895:1 907:1 978:1 981:1 1152:1 1225:1 1231:1 1235:1 1236:1 1237:1 1239:1 1241:1 1265:1 1292:1 1300:1 1313:1 1329:1 1334:1 1348:1 1350:1 1356:1 1357:1 1374:2
1 246:1 559:1 634:1 907:1 1292:1 1313:1 1356:1 1357:1 1374:3
1 246:1 559:1 634:1 907:1 1292:1 1313:1 1356:1 1357:1 1374:3
1 131:1 246:1 300:1 406:1 407:1 541:1 559:1 681:1 895:1 978:1 981:1 1152:1 1225:1 1231:1 1235:1 1236:1 1237:1 1239:1 1292:1 1300:1 1313:1 1329:1 1334:1 1350:1 1374:2
1 246:1 559:1 634:1 907:1 1292:1 1313:1 1356:1 1357:1 1374:3
1 246:1 559:1 634:1 907:1 1292:1 1313:1 1356:1 1357:1 1374:3
1 246:1 559:1 634:1 907:1 1292:1 1313:1 1356:1 1357:1 1374:3
1 246:1 559:1 634:1 907:1 1292:1 1313:1 1356:1 1357:1 1374:3
1 246:1 559:1 634:1 907:1 1292:1 1313:1 1356:1 1357:1 1374:3
1 246:1 559:1 907:1 1292:1 1313:1 1356:1 1374:2
1 701:1 1241:1 1374:3
1 246:1 559:1 681:1 907:1 981:1 1231:1 1239:1 1292:1 1313:1 1356:1 1374:4
1 246:1 559:1 681:1 907:1 1231:1 1292:1 1313:1 1356:1 1374:6
1 246:1 559:1 634:1 907:1 1292:1 1313:1 1356:1 1357:1 1374:3
1 246:1 559:1 681:1 907:1 1231:1 1292:1 1313:1 1356:1 1374:4
1 246:1 559:1 634:1 907:1 1292:1 1313:1 1356:1 1357:1 1374:3
1 701:1 1241:1 1374:3
1 246:1 559:1 634:1 907:1 1292:1 1313:1 1356:1 1357:1 1374:3
1 246:1 559:1 634:1 907:1 1292:1 1313:1 1356:1 1357:1 1374:3
1 246:1 559:1 634:1 907:1 1292:1 1313:1 1356:1 1357:1 1374:3
1 246:1 460:1 541:1 559:1 681:1 701:1 907:1 981:1 1231:1 1239:1 1241:1 1265:1 1292:1 1300:1 1313:1 1356:1 1374:2
1 246:1 559:1 634:1 907:1 1292:1 1313:1 1356:1 1357:1 1374:3
1 246:1 559:1 634:1 907:1 1292:1 1313:1 1356:1 1357:1 1374:3
1 246:1 559:1 634:1 907:1 1292:1 1313:1 1356:1 1357:1 1374:3
1 246:1 559:1 634:1 907:1 1292:1 1313:1 1356:1 1357:1 1374:3
1 246:1 559:1 634:1 907:1 1292:1 1313:1 1356:1 1357:1 1374:3
1 246:1 365:1 460:1 541:1 559:1 681:1 701:1 907:1 978:1 981:1 1231:1 1237:1 1239:1 1241:1 1265:1 1292:1 1300:1 1313:1 1356:1 1370:1 1374:3
1 246:1 559:1 634:1 907:1 1292:1 1313:1 1356:1 1357:1 1374:3
1 1374:3
1 246:1 300:1 406:1 541:1 559:1 634:1 681:1 701:1 1231:1 1236:1 1241:1 1292:1 1300:1 1313:1 1329:1 1357:1 1374:2
1 128:1 246:1 460:1 559:1 576:1 681:1 1207:1 1223:1 1231:1 1265:1 1292:1 1313:1 1325:1 1369:1 1374:3 1376:1
1 246:1 460:1 541:1 559:1 681:1 907:1 1231:1 1265:1 1292:1 1300:1 1313:1 1356:1 1374:2
1 246:1 559:1 634:1 907:1 1292:1 1313:1 1356:1 1357:1 1374:3
1 246:1 460:1 541:1 559:1 681:1 701:1 907:1 981:1 1231:1 1239:1 1241:1 1265:1 1292:1 1300:1 1313:1 1356:1 1374:2
1 246:1 559:1 681:1 907:1 1231:1 1292:1 1313:1 1356:1 1374:2
1 246:1 559:1 634:1 907:1 1292:1 1313:1 1356:1 1357:1 1374:3
1 246:1 349:1 406:1 559:1 634:1 681:1 701:1 907:1 978:1 981:1 1231:1 1236:1 1237:1 1239:1 1241:1 1292:1 1313:1 1354:1 1356:1 1357:1 1374:5
1 246:1 559:1 634:1 907:1 1292:1 1313:1 1356:1 1357:1 1374:3
1 246:1 559:1 634:1 907:1 1292:1 1313:1 1356:1 1357:1 1374:3
1 131:1 246:1 406:1 407:1 541:1 559:1 895:1 1152:1 1225:1 1235:1 1236:1 1292:1 1300:1 1313:1 1334:1 1350:1 1374:3
1 131:1 246:1 300:1 406:1 407:1 460:1 541:1 559:1 621:1 634:1 681:1 701:1 895:1 907:1 978:1 981:1 1152:1 1225:1 1231:1 1235:1 1236:1 1237:1 1239:1 1241:1 1265:1 1292:1 1300:1 1313:1 1329:1 1334:1 1348:1 1350:1 1356:1 1357:1 1374:2
1 131:1 246:1 300:1 406:1 407:1 460:1 541:1 559:1 621:1 634:1 681:1 701:1 895:1 907:1 978:1 981:1 1152:1 1225:1 1231:1 1235:1 1236:1 1237:1 1239:1 1241:1 1265:1 1292:1 1300:1 1313:1 1329:1 1334:1 1348:1 1350:1 1356:1 1357:1 1374:2
1 246:1 559:1 634:1 907:1 1292:1 1313:1 1356:1 1357:1 1374:3
1 701:1 1241:1 1374:3
1 246:1 559:1 1292:1 1313:1 1374:1
1 246:1 559:1 634:1 907:1 1292:1 1313:1 1356:1 1357:1 1374:3
1 246:1 559:1 634:1 907:1 1292:1 1313:1 1356:1 1357:1 1374:3
1 246:1 300:1 406:1 407:1 460:1 559:1 621:1 634:1 681:1 701:1 895:1 907:1 981:1 1152:1 1231:1 1235:1 1236:1 1239:1 1241:1 1265:1 1292:1 1313:1 1329:1 1334:1 1348:1 1350:1 1356:1 1357:1 1374:1
1 246:1 559:1 634:1 907:1 1292:1 1313:1 1356:1 1357:1 1374:3
1 131:1 246:1 300:1 406:1 541:1 559:1 634:1 681:1 701:1 895:1 981:1 1152:1 1225:1 1231:1 1236:1 1239:1 1241:1 1292:1 1300:1 1313:1 1329:1 1334:1 1350:1 1357:1 1374:1
1 131:1 559:1 621:1 681:1 907:1 981:1 1225:1 1231:1 1239:1 1313:1 1348:1 1356:1 1374:2
1 131:1 246:1 406:1 407:1 541:1 559:1 895:1 1152:1 1225:1 1235:1 1236:1 1292:1 1300:1 1313:1 1334:1 1350:1 1374:3
1 246:1 559:1 634:1 907:1 1292:1 1313:1 1356:1 1357:1 1374:3
1 246:1 559:1 1292:1 1313:1 1374:2
1 246:1 559:1 634:1 907:1 1292:1 1313:1 1356:1 1357:1 1374:3
1 246:1 559:1 634:1 907:1 1292:1 1313:1 1356:1 1357:1 1374:3
1 246:1 300:1 406:1 407:1 460:1 559:1 634:1 681:1 701:1 895:1 907:1 981:1 1152:1 1231:1 1235:1 1236:1 1239:1 1241:1 1265:1 1292:1 1313:1 1329:1 1334:1 1350:1 1356:1 1357:1 1374:2
1 246:1 300:1 406:1 407:1 460:1 559:1 634:1 681:1 701:1 895:1 907:1 981:1 1152:1 1231:1 1235:1 1236:1 1239:1 1241:1 1265:1 1292:1 1313:1 1329:1 1334:1 1350:1 1356:1 1357:1 1374:2
1 246:1 559:1 634:1 907:1 1292:1 1313:1 1356:1 1357:1 1374:3
1 246:1 559:1 634:1 907:1 1292:1 1313:1 1356:1 1357:1 1374:3
1 131:1 246:1 300:1 406:1 407:1 460:1 541:1 559:1 621:1 634:1 681:1 701:1 895:1 907:1 978:1 981:1 1152:1 1225:1 1231:1 1235:1 1236:1 1237:1 1239:1 1241:1 1265:1 1292:1 1300:1 1313:1 1329:1 1334:1 1348:1 1350:1 1356:1 1357:1 1374:2
1 246:1 559:1 634:1 907:1 1292:1 1313:1 1356:1 1357:1 1374:3
1 131:1 246:1 406:1 407:1 541:1 559:1 895:1 1152:1 1225:1 1235:1 1236:1 1292:1 1300:1 1313:1 1334:1 1350:1 1374:3
1 131:1 246:1 300:1 406:1 407:1 460:1 541:1 559:1 621:1 634:1 681:1 701:1 895:1 907:1 978:1 981:1 1152:1 1225:1 1231:1 1235:1 1236:1 1237:1 1239:1 1241:1 1265:1 1292:1 1300:1 1313:1 1329:1 1334:1 1348:1 1350:1 1356:1 1357:1 1374:2
1 131:1 246:1 406:1 407:1 541:1 559:1 895:1 1152:1 1225:1 1235:1 1236:1 1292:1 1300:1 1313:1 1334:1 1350:1 1374:3
1 246:1 559:1 634:1 907:1 1292:1 1313:1 1356:1 1357:1 1374:3
1 246:1 559:1 681:1 907:1 1231:1 1292:1 1313:1 1356:1 1374:2
1 131:1 246:1 300:1 406:1 407:1 460:1 541:1 559:1 621:1 634:1 681:1 701:1 895:1 907:1 978:1 981:1 1152:1 1225:1 1231:1 1235:1 1236:1 1237:1 1239:1 1241:1 1265:1 1292:1 1300:1 1313:1 1329:1 1334:1 1348:1 1350:1 1356:1 1357:1 1374:2
1 131:1 246:1 300:1 406:1 407:1 460:1 541:1 559:1 621:1 634:1 681:1 701:1 895:1 907:1 978:1 981:1 1152:1 1225:1 1231:1 1235:1 1236:1 1237:1 1239:1 1241:1 1265:1 1292:1 1300:1 1313:1 1329:1 1334:1 1348:1 1350:1 1356:1 1357:1 1374:2
1 246:1 559:1 634:1 907:1 1292:1 1313:1 1356:1 1357:1 1374:3
1 246:1 559:1 634:1 907:1 1292:1 1313:1 1356:1 1357:1 1374:3
1 246:1 559:1 634:1 907:1 1292:1 1313:1 1356:1 1357:1 1374:3
1 246:1 559:1 681:1 907:1 1231:1 1292:1 1313:1 1356:1 1374:2
1 246:1 300:1 406:1 407:1 460:1 559:1 634:1 681:1 701:1 895:1 907:1 981:1 1152:1 1231:1 1235:1 1236:1 1239:1 1241:1 1265:1 1292:1 1313:1 1329:1 1334:1 1350:1 1356:1 1357:1 1374:1
1 246:1 559:1 634:1 907:1 1292:1 1313:1 1356:1 1357:1 1374:3
1 246:1 559:1 634:1 907:1 1292:1 1313:1 1356:1 1357:1 1374:3
1 701:1 1241:1 1374:3
1 246:1 365:1 541:1 559:1 681:1 701:1 907:1 978:1 981:1 1231:1 1237:1 1239:1 1241:1 1292:1 1300:1 1313:1 1356:1 1370:1 1374:3
1 246:1 559:1 1292:1 1313:1 1374:2
1 246:1 559:1 634:1 907:1 1292:1 1313:1 1356:1 1357:1 1374:3
1 1374:3
1 1374:3
1 131:1 246:1 300:1 406:1 407:1 460:1 541:1 559:1 621:1 634:1 681:1 701:1 895:1 907:1 978:1 981:1 1152:1 1225:1 1231:1 1235:1 1236:1 1237:1 1239:1 1241:1 1265:1 1292:1 1300:1 1313:1 1329:1 1334:1 1348:1 1350:1 1356:1 1357:1 1374:1
1 246:1 460:1 541:1 559:1 681:1 701:1 907:1 978:1 981:1 1231:1 1237:1 1239:1 1241:1 1265:1 1292:1 1300:1 1313:1 1356:1 1374:2
1 246:1 559:1 634:1 907:1 1292:1 1313:1 1356:1 1357:1 1374:3
1 246:1 559:1 634:1 907:1 1292:1 1313:1 1356:1 1357:1 1374:3
1 246:1 300:1 406:1 407:1 460:1 559:1 634:1 681:1 701:1 895:1 907:1 981:1 1152:1 1231:1 1235:1 1236:1 1239:1 1241:1 1265:1 1292:1 1313:1 1329:1 1334:1 1350:1 1356:1 1357:1 1374:2
1 246:1 559:1 634:1 907:1 1292:1 1313:1 1356:1 1357:1 1374:3
1 246:1 559:1 634:1 907:1 1292:1 1313:1 1356:1 1357:1 1374:3
1 246:1 559:1 907:1 1292:1 1313:1 1356:1 1374:3
1 246:1 559:1 634:1 907:1 1292:1 1313:1 1356:1 1357:1 1374:3
1 246:1 559:1 634:1 907:1 1292:1 1313:1 1356:1 1357:1 1374:3
1 246:1 559:1 634:1 907:1 1292:1 1313:1 1356:1 1357:1 1374:3
1 246:1 559:1 634:1 907:1 1292:1 1313:1 1356:1 1357:1 1374:3
1 1374:3
1 246:1 559:1 634:1 907:1 1292:1 1313:1 1356:1 1357:1 1374:3
1 131:1 246:1 300:1 406:1 407:1 460:1 541:1 559:1 621:1 634:1 681:1 701:1 895:1 907:1 978:1 981:1 1152:1 1225:1 1231:1 1235:1 1236:1 1237:1 1239:1 1241:1 1265:1 1292:1 1300:1 1313:1 1329:1 1334:1 1348:1 1350:1 1356:1 1357:1 1374:2
1 701:1 1241:1 1374:3
1 246:1 300:1 406:1 407:1 460:1 559:1 634:1 681:1 701:1 895:1 907:1 981:1 1152:1 1231:1 1235:1 1236:1 1239:1 1241:1 1265:1 1292:1 1313:1 1329:1 1334:1 1350:1 1356:1 1357:1 1374:2
1 246:1 460:1 541:1 559:1 681:1 701:1 907:1 981:1 1231:1 1239:1 1241:1 1265:1 1292:1 1300:1 1313:1 1356:1 1374:2
1 246:1 559:1 634:1 907:1 1292:1 1313:1 1356:1 1357:1 1374:3
1 1374:3
1 246:1 559:1 634:1 907:1 1292:1 1313:1 1356:1 1357:1 1374:3
1 246:1 559:1 634:1 907:1 1292:1 1313:1 1356:1 1357:1 1374:3
1 701:1 1241:1 1374:3
1 246:1 460:1 541:1 559:1 681:1 701:1 907:1 978:1 981:1 1231:1 1237:1 1239:1 1241:1 1265:1 1292:1 1300:1 1313:1 1356:1 1374:4
1 131:1 246:1 300:1 406:1 407:1 460:1 541:1 559:1 621:1 634:1 681:1 701:1 895:1 907:1 978:1 981:1 1152:1 1225:1 1231:1 1235:1 1236:1 1237:1 1239:1 1241:1 1265:1 1292:1 1300:1 1313:1 1329:1 1334:1 1348:1 1350:1 1356:1 1357:1 1374:1
1 131:1 246:1 300:1 406:1 407:1 460:1 541:1 559:1 621:1 634:1 681:1 701:1 895:1 907:1 978:1 981:1 1152:1 1225:1 1231:1 1235:1 1236:1 1237:1 1239:1 1241:1 1265:1 1292:1 1300:1 1313:1 1329:1 1334:1 1348:1 1350:1 1356:1 1357:1 1374:1
1 246:1 559:1 634:1 907:1 1292:1 1313:1 1356:1 1357:1 1374:3
1 1374:3
1 131:1 559:1 621:1 681:1 907:1 981:1 1225:1 1231:1 1239:1 1313:1 1348:1 1356:1 1374:2
1 131:1 246:1 300:1 406:1 407:1 460:1 541:1 559:1 621:1 634:1 681:1 701:1 895:1 907:1 978:1 981:1 1152:1 1225:1 1231:1 1235:1 1236:1 1237:1 1239:1 1241:1 1265:1 1292:1 1300:1 1313:1 1329:1 1334:1 1348:1 1350:1 1356:1 1357:1 1374:2
1 246:1 460:1 541:1 559:1 681:1 701:1 907:1 981:1 1231:1 1239:1 1241:1 1265:1 1292:1 1300:1 1313:1 1356:1 1374:2
1 246:1 559:1 634:1 907:1 1292:1 1313:1 1356:1 1357:1 1374:3
1 131:1 246:1 300:1 407:1 541:1 559:1 634:1 681:1 701:1 895:1 981:1 1225:1 1231:1 1235:1 1239:1 1241:1 1292:1 1300:1 1313:1 1329:1 1350:1 1357:1 1374:2
1 246:1 559:1 634:1 907:1 1292:1 1313:1 1356:1 1357:1 1374:3
1 246:1 559:1 634:1 907:1 1292:1 1313:1 1356:1 1357:1 1374:3
1 131:1 246:1 300:1 406:1 407:1 460:1 541:1 559:1 621:1 634:1 681:1 701:1 895:1 907:1 978:1 981:1 1152:1 1225:1 1231:1 1235:1 1236:1 1237:1 1239:1 1241:1 1265:1 1292:1 1300:1 1313:1 1329:1 1334:1 1348:1 1350:1 1356:1 1357:1 1374:2
1 701:1 1241:1 1374:3
1 246:1 559:1 634:1 907:1 1292:1 1313:1 1356:1 1357:1 1374:3
1 246:1 559:1 634:1 907:1 1292:1 1313:1 1356:1 1357:1 1374:3
1 246:1 559:1 1292:1 1313:1 1374:3
1 701:1 1241:1 1374:3
1 246:1 541:1 559:1 681:1 907:1 1231:1 1292:1 1300:1 1313:1 1356:1 1374:2
1 246:1 559:1 634:1 907:1 1292:1 1313:1 1356:1 1357:1 1374:3
1 246:1 559:1 634:1 907:1 1292:1 1313:1 1356:1 1357:1 1374:3
1 246:1 559:1 1292:1 1313:1 1374:2
1 246:1 559:1 634:1 907:1 1292:1 1313:1 1356:1 1357:1 1374:3
1 246:1 559:1 634:1 907:1 1292:1 1313:1 1356:1 1357:1 1374:3
1 131:1 246:1 300:1 406:1 407:1 460:1 541:1 559:1 621:1 634:1 681:1 701:1 895:1 907:1 978:1 981:1 1152:1 1225:1 1231:1 1235:1 1236:1 1237:1 1239:1 1241:1 1265:1 1292:1 1300:1 1313:1 1329:1 1334:1 1348:1 1350:1 1356:1 1357:1 1374:2
1 246:1 559:1 634:1 907:1 1292:1 1313:1 1356:1 1357:1 1374:3
1 246:1 559:1 634:1 907:1 1292:1 1313:1 1356:1 1357:1 1374:3
1 246:1 460:1 541:1 559:1 681:1 701:1 907:1 981:1 1231:1 1239:1 1241:1 1265:1 1292:1 1300:1 1313:1 1356:1 1374:2
1 1374:3
1 1374:3
1 246:1 559:1 681:1 907:1 1231:1 1292:1 1313:1 1356:1 1374:2
1 246:1 349:1 406:1 559:1 634:1 681:1 701:1 907:1 978:1 981:1 1231:1 1236:1 1237:1 1239:1 1241:1 1292:1 1313:1 1354:1 1356:1 1357:1 1374:5
1 1374:3
1 246:1 559:1 1292:1 1313:1 1374:3
1 246:1 460:1 541:1 559:1 681:1 907:1 981:1 1231:1 1239:1 1265:1 1292:1 1300:1 1313:1 1356:1 1374:2
1 246:1 460:1 541:1 559:1 681:1 701:1 907:1 981:1 1231:1 1239:1 1241:1 1265:1 1292:1 1300:1 1313:1 1356:1 1374:2
1 246:1 559:1 634:1 907:1 1292:1 1313:1 1356:1 1357:1 1374:3
1 246:1 349:1 541:1 559:1 681:1 907:1 1231:1 1292:1 1300:1 1313:1 1354:1 1356:1 1374:4
1 246:1 300:1 406:1 407:1 460:1 559:1 634:1 681:1 701:1 895:1 907:1 981:1 1152:1 1231:1 1235:1 1236:1 1239:1 1241:1 1265:1 1292:1 1313:1 1329:1 1334:1 1350:1 1356:1 1357:1 1374:1
1 246:1 559:1 634:1 907:1 1292:1 1313:1 1356:1 1357:1 1374:3
1 246:1 559:1 634:1 907:1 1292:1 1313:1 1356:1 1357:1 1374:3
1 131:1 246:1 300:1 406:1 407:1 460:1 541:1 559:1 621:1 634:1 681:1 701:1 895:1 907:1 978:1 981:1 1152:1 1225:1 1231:1 1235:1 1236:1 1237:1 1239:1 1241:1 1265:1 1292:1 1300:1 1313:1 1329:1 1334:1 1348:1 1350:1 1356:1 1357:1 1374:2
1 246:1 559:1 634:1 907:1 1292:1 1313:1 1356:1 1357:1 1374:3
1 246:1 365:1 460:1 541:1 559:1 681:1 701:1 907:1 978:1 981:1 1231:1 1237:1 1239:1 1241:1 1265:1 1292:1 1300:1 1313:1 1356:1 1370:1 1374:2
1 131:1 246:1 300:1 406:1 407:1 460:1 541:1 559:1 621:1 634:1 681:1 701:1 895:1 907:1 978:1 981:1 1152:1 1225:1 1231:1 1235:1 1236:1 1237:1 1239:1 1241:1 1265:1 1292:1 1300:1 1313:1 1329:1 1334:1 1348:1 1350:1 1356:1 1357:1 1374:1
1 246:1 559:1 681:1 907:1 1231:1 1292:1 1313:1 1356:1 1374:3
1 246:1 559:1 634:1 907:1 1292:1 1313:1 1356:1 1357:1 1374:3
1 246:1 406:1 559:1 981:1 1236:1 1239:1 1292:1 1313:1 1374:4 1376:2
1 246:1 559:1 634:1 907:1 1292:1 1313:1 1356:1 1357:1 1374:3
1 701:1 1241:1 1374:3
1 246:1 349:1 406:1 559:1 634:1 681:1 701:1 907:1 978:1 981:1 1231:1 1236:1 1237:1 1239:1 1241:1 1292:1 1313:1 1354:1 1356:1 1357:1 1374:5
1 246:1 559:1 634:1 907:1 1292:1 1313:1 1356:1 1357:1 1374:3
1 246:1 559:1 634:1 907:1 1292:1 1313:1 1356:1 1357:1 1374:3
1 246:1 559:1 634:1 907:1 1292:1 1313:1 1356:1 1357:1 1374:3
1 246:1 559:1 681:1 907:1 1231:1 1292:1 1313:1 1356:1 1374:4
1 246:1 559:1 634:1 907:1 1292:1 1313:1 1356:1 1357:1 1374:3
1 701:1 1241:1 1374:3
1 131:1 246:1 300:1 406:1 407:1 460:1 541:1 559:1 621:1 634:1 681:1 701:1 895:1 907:1 978:1 981:1 1152:1 1225:1 1231:1 1235:1 1236:1 1237:1 1239:1 1241:1 1265:1 1292:1 1300:1 1313:1 1329:1 1334:1 1348:1 1350:1 1356:1 1357:1 1374:2
1 246:1 559:1 634:1 907:1 1292:1 1313:1 1356:1 1357:1 1374:3
1 246:1 559:1 634:1 907:1 1292:1 1313:1 1356:1 1357:1 1374:3
1 246:1 559:1 634:1 907:1 1292:1 1313:1 1356:1 1357:1 1374:3
1 246:1 559:1 634:1 907:1 1292:1 1313:1 1356:1 1357:1 1374:3
1 131:1 246:1 406:1 407:1 541:1 559:1 895:1 1152:1 1225:1 1235:1 1236:1 1292:1 1300:1 1313:1 1334:1 1350:1 1374:3
1 246:1 559:1 634:1 907:1 1292:1 1313:1 1356:1 1357:1 1374:3
1 246:1 300:1 406:1 407:1 460:1 559:1 634:1 681:1 701:1 895:1 907:1 981:1 1152:1 1231:1 1235:1 1236:1 1239:1 1241:1 1265:1 1292:1 1313:1 1329:1 1334:1 1350:1 1356:1 1357:1 1374:2
1 131:1 246:1 300:1 406:1 407:1 460:1 541:1 559:1 621:1 634:1 681:1 701:1 895:1 907:1 978:1 981:1 1152:1 1225:1 1231:1 1235:1 1236:1 1237:1 1239:1 1241:1 1265:1 1292:1 1300:1 1313:1 1329:1 1334:1 1348:1 1350:1 1356:1 1357:1 1374:2
1 131:1 246:1 300:1 406:1 407:1 460:1 541:1 559:1 621:1 634:1 681:1 701:1 895:1 907:1 978:1 981:1 1152:1 1225:1 1231:1 1235:1 1236:1 1237:1 1239:1 1241:1 1265:1 1292:1 1300:1 1313:1 1329:1 1334:1 1348:1 1350:1 1356:1 1357:1 1374:2
1 246:1 559:1 634:1 907:1 1292:1 1313:1 1356:1 1357:1 1374:3
1 246:1 559:1 1292:1 1313:1 1374:1
1 131:1 246:1 406:1 407:1 541:1 559:1 895:1 1152:1 1225:1 1235:1 1236:1 1292:1 1300:1 1313:1 1334:1 1350:1 1374:3
1 246:1 559:1 634:1 907:1 1292:1 1313:1 1356:1 1357:1 1374:3
1 246:1 559:1 634:1 907:1 1292:1 1313:1 1356:1 1357:1 1374:3
1 246:1 559:1 634:1 907:1 1292:1 1313:1 1356:1 1357:1 1374:2
1 1374:3
1 131:1 246:1 300:1 406:1 407:1 460:1 541:1 559:1 621:1 634:1 681:1 701:1 895:1 907:1 978:1 981:1 1152:1 1225:1 1231:1 1235:1 1236:1 1237:1 1239:1 1241:1 1265:1 1292:1 1300:1 1313:1 1329:1 1334:1 1348:1 1350:1 1356:1 1357:1 1374:1
1 1374:3
1 131:1 246:1 300:1 406:1 407:1 460:1 541:1 559:1 621:1 634:1 681:1 701:1 895:1 907:1 978:1 981:1 1152:1 1225:1 1231:1 1235:1 1236:1 1237:1 1239:1 1241:1 1265:1 1292:1 1300:1 1313:1 1329:1 1334:1 1348:1 1350:1 1356:1 1357:1 1374:2
1 246:1 559:1 634:1 907:1 1292:1 1313:1 1356:1 1357:1 1374:3
1 131:1 246:1 300:1 406:1 407:1 460:1 541:1 559:1 621:1 634:1 681:1 701:1 895:1 907:1 978:1 981:1 1152:1 1225:1 1231:1 1235:1 1236:1 1237:1 1239:1 1241:1 1265:1 1292:1 1300:1 1313:1 1329:1 1334:1 1348:1 1350:1 1356:1 1357:1 1374:1
1 131:1 246:1 300:1 406:1 407:1 460:1 541:1 559:1 621:1 634:1 681:1 701:1 895:1 907:1 978:1 981:1 1152:1 1225:1 1231:1 1235:1 1236:1 1237:1 1239:1 1241:1 1265:1 1292:1 1300:1 1313:1 1329:1 1334:1 1348:1 1350:1 1356:1 1357:1 1374:2
1 246:1 349:1 406:1 559:1 634:1 681:1 701:1 907:1 978:1 981:1 1231:1 1236:1 1237:1 1239:1 1241:1 1292:1 1313:1 1354:1 1356:1 1357:1 1374:4
1 131:1 246:1 300:1 406:1 407:1 460:1 541:1 559:1 621:1 634:1 681:1 701:1 895:1 907:1 978:1 981:1 1152:1 1225:1 1231:1 1235:1 1236:1 1237:1 1239:1 1241:1 1265:1 1292:1 1300:1 1313:1 1329:1 1334:1 1348:1 1350:1 1356:1 1357:1 1374:2
1 246:1 559:1 634:1 907:1 1292:1 1313:1 1356:1 1357:1 1374:3
1 246:1 559:1 634:1 907:1 1292:1 1313:1 1356:1 1357:1 1374:3
1 246:1 559:1 634:1 907:1 1292:1 1313:1 1356:1 1357:1 1374:3
1 701:1 1241:1 1374:3
1 1374:3
1 559:1 1313:1 1318:1 1374:3 1376:4
1 246:1 559:1 634:1 907:1 1292:1 1313:1 1356:1 1357:1 1374:3
1 131:1 246:1 300:1 406:1 407:1 460:1 541:1 559:1 621:1 634:1 681:1 701:1 895:1 907:1 978:1 981:1 1152:1 1225:1 1231:1 1235:1 1236:1 1237:1 1239:1 1241:1 1265:1 1292:1 1300:1 1313:1 1329:1 1334:1 1348:1 1350:1 1356:1 1357:1 1374:2
1 246:1 559:1 634:1 907:1 1292:1 1313:1 1356:1 1357:1 1374:3
1 246:1 559:1 681:1 907:1 1231:1 1292:1 1313:1 1356:1 1374:2
1 246:1 349:1 406:1 559:1 634:1 681:1 701:1 907:1 978:1 981:1 1231:1 1236:1 1237:1 1239:1 1241:1 1292:1 1313:1 1354:1 1356:1 1357:1 1374:5
1 1374:3
1 246:1 460:1 541:1 559:1 681:1 907:1 1231:1 1265:1 1292:1 1300:1 1313:1 1356:1 1374:2
1 246:1 559:1 634:1 907:1 1292:1 1313:1 1356:1 1357:1 1374:3
1 701:1 1241:1 1374:3
1 246:1 559:1 634:1 907:1 1292:1 1313:1 1356:1 1357:1 1374:3
1 246:1 559:1 634:1 907:1 1292:1 1313:1 1356:1 1357:1 1374:3
1 131:1 246:1 406:1 407:1 541:1 559:1 895:1 1152:1 1225:1 1235:1 1236:1 1292:1 1300:1 1313:1 1334:1 1350:1 1374:3
1 246:1 559:1 634:1 907:1 1292:1 1313:1 1356:1 1357:1 1374:3
1 246:1 559:1 634:1 907:1 1292:1 1313:1 1356:1 1357:1 1374:3
1 246:1 559:1 681:1 907:1 1231:1 1292:1 1313:1 1356:1 1374:6
1 246:1 559:1 634:1 907:1 1292:1 1313:1 1356:1 1357:1 1374:3
1 246:1 559:1 634:1 907:1 1292:1 1313:1 1356:1 1357:1 1374:3
1 131:1 246:1 300:1 406:1 407:1 460:1 541:1 559:1 621:1 634:1 681:1 701:1 895:1 907:1 978:1 981:1 1152:1 1225:1 1231:1 1235:1 1236:1 1237:1 1239:1 1241:1 1265:1 1292:1 1300:1 1313:1 1329:1 1334:1 1348:1 1350:1 1356:1 1357:1 1374:1
1 246:1 559:1 634:1 907:1 1292:1 1313:1 1356:1 1357:1 1374:3
1 246:1 559:1 634:1 907:1 1292:1 1313:1 1356:1 1357:1 1374:3
1 246:1 559:1 1292:1 1313:1 1374:2
1 246:1 559:1 681:1 907:1 1231:1 1292:1 1313:1 1356:1 1374:2
1 246:1 559:1 634:1 907:1 1292:1 1313:1 1356:1 1357:1 1374:3
1 1374:3
1 246:1 559:1 634:1 907:1 1292:1 1313:1 1356:1 1357:1 1374:3
1 246:1 349:1 460:1 541:1 559:1 681:1 907:1 1231:1 1265:1 1292:1 1300:1 1313:1 1354:1 1356:1 1374:2
1 246:1 559:1 634:1 907:1 1292:1 1313:1 1356:1 1357:1 1374:3
1 246:1 559:1 634:1 907:1 1292:1 1313:1 1356:1 1357:1 1374:3
1 246:1 559:1 634:1 907:1 1292:1 1313:1 1356:1 1357:1 1374:3
1 131:1 246:1 300:1 406:1 407:1 460:1 541:1 559:1 621:1 634:1 681:1 701:1 895:1 907:1 978:1 981:1 1152:1 1225:1 1231:1 1235:1 1236:1 1237:1 1239:1 1241:1 1265:1 1292:1 1300:1 1313:1 1329:1 1334:1 1348:1 1350:1 1356:1 1357:1 1374:2
1 246:1 559:1 634:1 907:1 1292:1 1313:1 1356:1 1357:1 1374:3
1 246:1 300:1 406:1 407:1 460:1 559:1 634:1 681:1 701:1 895:1 907:1 981:1 1152:1 1231:1 1235:1 1236:1 1239:1 1241:1 1265:1 1292:1 1313:1 1329:1 1334:1 1350:1 1356:1 1357:1 1374:2
1 246:1 559:1 1292:1 1313:1 1374:1
1 246:1 559:1 634:1 907:1 1292:1 1313:1 1356:1 1357:1 1374:3
1 131:1 246:1 300:1 406:1 407:1 460:1 541:1 559:1 621:1 634:1 681:1 701:1 895:1 907:1 978:1 981:1 1152:1 1225:1 1231:1 1235:1 1236:1 1237:1 1239:1 1241:1 1265:1 1292:1 1300:1 1313:1 1329:1 1334:1 1348:1 1350:1 1356:1 1357:1 1374:2
1 246:1 559:1 634:1 907:1 1292:1 1313:1 1356:1 1357:1 1374:3
1 701:1 1241:1 1374:2
1 246:1 559:1 907:1 1292:1 1313:1 1356:1 1374:3
1 246:1 559:1 681:1 907:1 1231:1 1292:1 1313:1 1356:1 1374:2
1 246:1 267:1 349:1 541:1 559:1 681:1 981:1 1231:1 1239:1 1292:1 1300:1 1301:1 1313:1 1354:1 1374:4
1 246:1 559:1 634:1 907:1 1292:1 1313:1 1356:1 1357:1 1374:3
1 246:1 559:1 634:1 907:1 1292:1 1313:1 1356:1 1357:1 1374:3
1 246:1 559:1 681:1 907:1 1231:1 1292:1 1313:1 1356:1 1374:4
1 131:1 246:1 300:1 406:1 407:1 460:1 541:1 559:1 621:1 634:1 681:1 701:1 895:1 907:1 978:1 981:1 1152:1 1225:1 1231:1 1235:1 1236:1 1237:1 1239:1 1241:1 1265:1 1292:1 1300:1 1313:1 1329:1 1334:1 1348:1 1350:1 1356:1 1357:1 1374:2
1 246:1 460:1 541:1 559:1 681:1 701:1 907:1 978:1 1231:1 1237:1 1241:1 1265:1 1292:1 1300:1 1313:1 1356:1 1374:4
1 246:1 559:1 634:1 907:1 1292:1 1313:1 1356:1 1357:1 1374:3
1 246:1 559:1 634:1 907:1 1292:1 1313:1 1356:1 1357:1 1374:3
1 246:1 559:1 634:1 907:1 1292:1 1313:1 1356:1 1357:1 1374:3
1 131:1 246:1 541:1 559:1 681:1 981:1 1152:1 1225:1 1231:1 1239:1 1292:1 1300:1 1313:1 1334:1 1374:2
1 246:1 300:1 406:1 407:1 460:1 559:1 634:1 681:1 701:1 895:1 907:1 981:1 1152:1 1231:1 1235:1 1236:1 1239:1 1241:1 1265:1 1292:1 1313:1 1329:1 1334:1 1350:1 1356:1 1357:1 1374:1
1 227:1 246:1 267:1 365:1 407:1 460:1 541:1 559:1 621:1 634:1 640:1 681:1 701:1 810:1 907:1 981:1 1152:1 1207:1 1231:1 1235:1 1239:1 1241:1 1265:1 1279:1 1291:1 1292:1 1300:1 1301:1 1313:1 1334:1 1348:1 1356:1 1357:1 1361:1 1369:1 1370:1 1374:3 1376:1
1 246:1 559:1 634:1 907:1 1292:1 1313:1 1356:1 1357:1 1374:3
1 246:1 559:1 634:1 907:1 1292:1 1313:1 1356:1 1357:1 1374:3
1 246:1 559:1 634:1 907:1 1292:1 1313:1 1356:1 1357:1 1374:3
1 246:1 460:1 541:1 559:1 681:1 701:1 907:1 978:1 981:1 1231:1 1237:1 1239:1 1241:1 1265:1 1292:1 1300:1 1313:1 1356:1 1374:2
1 701:1 1241:1 1374:3
1 246:1 559:1 634:1 907:1 1292:1 1313:1 1356:1 1357:1 1374:3
1 701:1 1241:1 1374:2
1 246:1 559:1 634:1 907:1 1292:1 1313:1 1356:1 1357:1 1374:3
1 131:1 246:1 406:1 407:1 541:1 559:1 895:1 1152:1 1225:1 1235:1 1236:1 1292:1 1300:1 1313:1 1334:1 1350:1 1374:3
1 246:1 559:1 907:1 1292:1 1313:1 1356:1 1374:3
1 246:1 300:1 406:1 407:1 460:1 559:1 634:1 681:1 701:1 895:1 907:1 981:1 1152:1 1231:1 1235:1 1236:1 1239:1 1241:1 1265:1 1292:1 1313:1 1329:1 1334:1 1350:1 1356:1 1357:1 1374:2
1 246:1 559:1 634:1 907:1 1292:1 1313:1 1356:1 1357:1 1374:3
1 246:1 300:1 406:1 407:1 460:1 559:1 634:1 681:1 701:1 895:1 907:1 981:1 1152:1 1231:1 1235:1 1236:1 1239:1 1241:1 1265:1 1292:1 1313:1 1329:1 1334:1 1350:1 1356:1 1357:1 1374:2
1 701:1 1241:1 1374:3
1 131:1 246:1 300:1 406:1 407:1 460:1 541:1 559:1 621:1 634:1 681:1 701:1 895:1 907:1 978:1 981:1 1152:1 1225:1 1231:1 1235:1 1236:1 1237:1 1239:1 1241:1 1265:1 1292:1 1300:1 1313:1 1329:1 1334:1 1348:1 1350:1 1356:1 1357:1 1374:2
1 131:1 246:1 300:1 406:1 407:1 460:1 541:1 559:1 621:1 634:1 681:1 701:1 895:1 907:1 978:1 981:1 1152:1 1225:1 1231:1 1235:1 1236:1 1237:1 1239:1 1241:1 1265:1 1292:1 1300:1 1313:1 1329:1 1334:1 1348:1 1350:1 1356:1 1357:1 1374:2
1 246:1 559:1 634:1 907:1 1292:1 1313:1 1356:1 1357:1 1374:3
1 1374:3
1 246:1 559:1 634:1 907:1 1292:1 1313:1 1356:1 1357:1 1374:3
1 131:1 246:1 300:1 406:1 407:1 460:1 541:1 559:1 621:1 634:1 681:1 701:1 895:1 907:1 978:1 981:1 1152:1 1225:1 1231:1 1235:1 1236:1 1237:1 1239:1 1241:1 1265:1 1292:1 1300:1 1313:1 1329:1 1334:1 1348:1 1350:1 1356:1 1357:1 1374:2
1 246:1 559:1 634:1 907:1 1292:1 1313:1 1356:1 1357:1 1374:3
1 246:1 559:1 634:1 907:1 1292:1 1313:1 1356:1 1357:1 1374:3
1 131:1 246:1 406:1 407:1 541:1 559:1 895:1 1152:1 1225:1 1235:1 1236:1 1292:1 1300:1 1313:1 1334:1 1350:1 1374:3
1 246:1 559:1 634:1 907:1 1292:1 1313:1 1356:1 1357:1 1374:3
1 246:1 349:1 406:1 559:1 634:1 681:1 701:1 907:1 978:1 981:1 1231:1 1236:1 1237:1 1239:1 1241:1 1292:1 1313:1 1354:1 1356:1 1357:1 1374:5
1 246:1 559:1 681:1 907:1 1231:1 1292:1 1313:1 1356:1 1374:2
1 246:1 559:1 681:1 907:1 1231:1 1292:1 1313:1 1356:1 1374:4
1 246:1 300:1 406:1 407:1 460:1 559:1 634:1 681:1 701:1 895:1 907:1 981:1 1152:1 1231:1 1235:1 1236:1 1239:1 1241:1 1265:1 1292:1 1313:1 1329:1 1334:1 1350:1 1356:1 1357:1 1374:2
1 246:1 559:1 634:1 907:1 1292:1 1313:1 1356:1 1357:1 1374:3
1 246:1 559:1 634:1 907:1 1292:1 1313:1 1356:1 1357:1 1374:3
1 131:1 559:1 621:1 681:1 907:1 981:1 1225:1 1231:1 1239:1 1313:1 1348:1 1356:1 1374:2
1 246:1 300:1 406:1 407:1 460:1 559:1 634:1 681:1 701:1 895:1 907:1 981:1 1152:1 1231:1 1235:1 1236:1 1239:1 1241:1 1265:1 1292:1 1313:1 1329:1 1334:1 1350:1 1356:1 1357:1 1374:2
1 131:1 246:1 300:1 406:1 407:1 460:1 541:1 559:1 621:1 634:1 681:1 701:1 895:1 907:1 978:1 981:1 1152:1 1225:1 1231:1 1235:1 1236:1 1237:1 1239:1 1241:1 1265:1 1292:1 1300:1 1313:1 1329:1 1334:1 1348:1 1350:1 1356:1 1357:1 1374:2
1 246:1 460:1 541:1 559:1 681:1 701:1 907:1 1231:1 1241:1 1265:1 1292:1 1300:1 1313:1 1356:1 1374:6
1 131:1 246:1 300:1 406:1 407:1 460:1 541:1 559:1 621:1 634:1 681:1 701:1 895:1 907:1 978:1 981:1 1152:1 1225:1 1231:1 1235:1 1236:1 1237:1 1239:1 1241:1 1265:1 1292:1 1300:1 1313:1 1329:1 1334:1 1348:1 1350:1 1356:1 1357:1 1374:2
1 246:1 349:1 541:1 559:1 681:1 907:1 1231:1 1292:1 1300:1 1313:1 1354:1 1356:1 1374:4
1 246:1 559:1 634:1 907:1 1292:1 1313:1 1356:1 1357:1 1374:3
1 246:1 559:1 634:1 907:1 1292:1 1313:1 1356:1 1357:1 1374:2
1 246:1 559:1 907:1 1292:1 1313:1 1356:1 1374:3
1 246:1 559:1 634:1 907:1 1292:1 1313:1 1356:1 1357:1 1374:3
1 246:1 559:1 634:1 907:1 1292:1 1313:1 1356:1 1357:1 1374:3
1 131:1 559:1 621:1 681:1 907:1 981:1 1225:1 1231:1 1239:1 1313:1 1348:1 1356:1 1374:1
1 246:1 559:1 681:1 907:1 1231:1 1292:1 1313:1 1356:1 1374:2
1 246:1 559:1 634:1 907:1 1292:1 1313:1 1356:1 1357:1 1374:3
1 559:1 681:1 907:1 1231:1 1313:1 1356:1 1374:3
1 131:1 246:1 300:1 406:1 407:1 460:1 541:1 559:1 621:1 634:1 681:1 701:1 895:1 907:1 978:1 981:1 1152:1 1225:1 1231:1 1235:1 1236:1 1237:1 1239:1 1241:1 1265:1 1292:1 1300:1 1313:1 1329:1 1334:1 1348:1 1350:1 1356:1 1357:1 1374:2
1 246:1 559:1 681:1 907:1 981:1 1231:1 1239:1 1292:1 1313:1 1356:1 1374:4
1 131:1 246:1 300:1 406:1 407:1 460:1 541:1 559:1 621:1 634:1 681:1 701:1 895:1 907:1 978:1 981:1 1152:1 1225:1 1231:1 1235:1 1236:1 1237:1 1239:1 1241:1 1265:1 1292:1 1300:1 1313:1 1329:1 1334:1 1348:1 1350:1 1356:1 1357:1 1374:2
1 246:1 559:1 634:1 907:1 1292:1 1313:1 1356:1 1357:1 1374:3
1 246:1 559:1 634:1 907:1 1292:1 1313:1 1356:1 1357:1 1374:3
1 131:1 246:1 300:1 406:1 407:1 460:1 541:1 559:1 621:1 634:1 681:1 701:1 895:1 907:1 978:1 981:1 1152:1 1225:1 1231:1 1235:1 1236:1 1237:1 1239:1 1241:1 1265:1 1292:1 1300:1 1313:1 1329:1 1334:1 1348:1 1350:1 1356:1 1357:1 1374:2
1 246:1 559:1 681:1 907:1 1231:1 1292:1 1313:1 1356:1 1374:5
1 131:1 246:1 300:1 406:1 407:1 460:1 541:1 559:1 621:1 634:1 681:1 701:1 895:1 907:1 978:1 981:1 1152:1 1225:1 1231:1 1235:1 1236:1 1237:1 1239:1 1241:1 1265:1 1292:1 1300:1 1313:1 1329:1 1334:1 1348:1 1350:1 1356:1 1357:1 1374:2
1 246:1 559:1 681:1 907:1 1231:1 1292:1 1313:1 1356:1 1374:4
1 131:1 246:1 300:1 407:1 541:1 559:1 634:1 681:1 701:1 895:1 981:1 1225:1 1231:1 1235:1 1239:1 1241:1 1292:1 1300:1 1313:1 1329:1 1350:1 1357:1 1374:2
1 246:1 559:1 634:1 907:1 1292:1 1313:1 1356:1 1357:1 1374:3
1 246:1 559:1 907:1 1292:1 1313:1 1356:1 1374:3
1 246:1 559:1 634:1 907:1 1292:1 1313:1 1356:1 1357:1 1374:3
1 246:1 559:1 634:1 907:1 1292:1 1313:1 1356:1 1357:1 1374:3
1 246:1 559:1 634:1 907:1 1292:1 1313:1 1356:1 1357:1 1374:3
1 1374:3
1 246:1 559:1 634:1 907:1 1292:1 1313:1 1356:1 1357:1 1374:3
1 246:1 559:1 681:1 907:1 1231:1 1292:1 1313:1 1356:1 1374:4
1 1374:3
1 246:1 541:1 559:1 681:1 907:1 1231:1 1292:1 1300:1 1313:1 1356:1 1374:2
1 246:1 559:1 634:1 907:1 1292:1 1313:1 1356:1 1357:1 1374:3
1 246:1 559:1 634:1 907:1 1292:1 1313:1 1356:1 1357:1 1374:3
1 1374:3
1 246:1 300:1 406:1 407:1 460:1 559:1 634:1 681:1 701:1 895:1 907:1 981:1 1152:1 1231:1 1235:1 1236:1 1239:1 1241:1 1265:1 1292:1 1313:1 1329:1 1334:1 1350:1 1356:1 1357:1 1374:2
1 246:1 559:1 634:1 907:1 1292:1 1313:1 1356:1 1357:1 1374:3
1 246:2 349:1 511:1 541:1 559:2 681:1 1231:1 1286:1 1292:2 1300:1 1313:2 1354:1 1374:9 1376:1
1 246:1 300:1 406:1 407:1 460:1 559:1 634:1 681:1 701:1 895:1 907:1 981:1 1152:1 1231:1 1235:1 1236:1 1239:1 1241:1 1265:1 1292:1 1313:1 1329:1 1334:1 1350:1 1356:1 1357:1 1374:2
1 131:1 246:1 406:1 407:1 541:1 559:1 895:1 1152:1 1225:1 1235:1 1236:1 1292:1 1300:1 1313:1 1334:1 1350:1 1374:3
1 246:1 559:1 634:1 907:1 1292:1 1313:1 1356:1 1357:1 1374:3
1 246:1 559:1 634:1 907:1 1292:1 1313:1 1356:1 1357:1 1374:3
1 246:1 559:1 634:1 907:1 1292:1 1313:1 1356:1 1357:1 1374:3
1 246:1 349:1 460:1 541:1 559:1 681:1 907:1 1231:1 1265:1 1292:1 1300:1 1313:1 1354:1 1356:1 1374:2
1 246:1 559:1 634:1 907:1 1292:1 1313:1 1356:1 1357:1 1374:3
1 131:1 246:1 300:1 406:1 407:1 460:1 541:1 559:1 621:1 634:1 681:1 701:1 895:1 907:1 978:1 981:1 1152:1 1225:1 1231:1 1235:1 1236:1 1237:1 1239:1 1241:1 1265:1 1292:1 1300:1 1313:1 1329:1 1334:1 1348:1 1350:1 1356:1 1357:1 1374:2
1 131:1 246:1 300:1 406:1 407:1 460:1 541:1 559:1 621:1 634:1 681:1 701:1 895:1 907:1 978:1 981:1 1152:1 1225:1 1231:1 1235:1 1236:1 1237:1 1239:1 1241:1 1265:1 1292:1 1300:1 1313:1 1329:1 1334:1 1348:1 1350:1 1356:1 1357:1 1374:2
1 246:1 559:1 634:1 907:1 1292:1 1313:1 1356:1 1357:1 1374:3
1 246:1 300:1 406:1 407:1 460:1 559:1 634:1 681:1 701:1 895:1 907:1 981:1 1152:1 1231:1 1235:1 1236:1 1239:1 1241:1 1265:1 1292:1 1313:1 1329:1 1334:1 1350:1 1356:1 1357:1 1374:2
1 246:1 559:1 634:1 907:1 1292:1 1313:1 1356:1 1357:1 1374:3
1 246:1 559:1 634:1 907:1 1292:1 1313:1 1356:1 1357:1 1374:3
1 246:1 559:1 634:1 907:1 1292:1 1313:1 1356:1 1357:1 1374:3
1 246:1 559:1 634:1 907:1 1292:1 1313:1 1356:1 1357:1 1374:3
1 246:1 559:1 634:1 907:1 1292:1 1313:1 1356:1 1357:1 1374:3
1 1374:3
1 246:1 559:1 634:1 907:1 1292:1 1313:1 1356:1 1357:1 1374:2
1 246:1 460:1 541:1 559:1 681:1 701:1 907:1 981:1 1231:1 1239:1 1241:1 1265:1 1292:1 1300:1 1313:1 1356:1 1374:2
1 246:1 559:1 1292:1 1313:1 1374:3
1 246:1 559:1 681:1 907:1 1231:1 1292:1 1313:1 1356:1 1374:3
1 246:1 559:1 681:1 907:1 1231:1 1292:1 1313:1 1356:1 1374:2
1 246:1 559:1 634:1 907:1 1292:1 1313:1 1356:1 1357:1 1374:3
1 246:1 559:1 634:1 907:1 1292:1 1313:1 1356:1 1357:1 1374:3
1 246:1 559:1 634:1 907:1 1292:1 1313:1 1356:1 1357:1 1374:3
1 246:1 300:1 406:1 407:1 460:1 559:1 634:1 681:1 701:1 895:1 907:1 981:1 1152:1 1231:1 1235:1 1236:1 1239:1 1241:1 1265:1 1292:1 1313:1 1329:1 1334:1 1350:1 1356:1 1357:1 1374:1
1 246:1 559:1 634:1 907:1 1292:1 1313:1 1356:1 1357:1 1374:3
1 246:1 559:1 634:1 907:1 1292:1 1313:1 1356:1 1357:1 1374:3
1 246:1 559:1 634:1 907:1 1292:1 1313:1 1356:1 1357:1 1374:3
1 246:1 559:1 634:1 907:1 1292:1 1313:1 1356:1 1357:1 1374:3
1 131:1 246:1 300:1 406:1 407:1 460:1 541:1 559:1 621:1 634:1 681:1 701:1 895:1 907:1 978:1 981:1 1152:1 1225:1 1231:1 1235:1 1236:1 1237:1 1239:1 1241:1 1265:1 1292:1 1300:1 1313:1 1329:1 1334:1 1348:1 1350:1 1356:1 1357:1 1374:2
1 246:1 300:1 406:1 407:1 460:1 559:1 634:1 681:1 701:1 895:1 907:1 981:1 1152:1 1231:1 1235:1 1236:1 1239:1 1241:1 1265:1 1292:1 1313:1 1329:1 1334:1 1350:1 1356:1 1357:1 1374:1
1 246:1 300:1 406:1 407:1 460:1 559:1 621:1 634:1 681:1 701:1 895:1 907:1 981:1 1152:1 1231:1 1235:1 1236:1 1239:1 1241:1 1265:1 1292:1 1313:1 1329:1 1334:1 1348:1 1350:1 1356:1 1357:1 1374:1
1 246:1 365:1 460:1 541:1 559:1 681:1 701:1 907:1 978:1 981:1 1231:1 1237:1 1239:1 1241:1 1265:1 1292:1 1300:1 1313:1 1356:1 1370:1 1374:2
1 246:1 559:1 1292:1 1313:1 1374:2
1 246:1 559:1 634:1 907:1 1292:1 1313:1 1356:1 1357:1 1374:3
1 246:1 559:1 634:1 907:1 1292:1 1313:1 1356:1 1357:1 1374:3
1 246:1 300:1 406:1 407:1 460:1 559:1 634:1 681:1 701:1 895:1 907:1 981:1 1152:1 1231:1 1235:1 1236:1 1239:1 1241:1 1265:1 1292:1 1313:1 1329:1 1334:1 1350:1 1356:1 1357:1 1374:2
1 701:1 1241:1 1374:3
1 246:1 559:1 634:1 907:1 1292:1 1313:1 1356:1 1357:1 1374:3
1 246:1 559:1 634:1 907:1 1292:1 1313:1 1356:1 1357:1 1374:3
1 246:1 559:1 907:1 1292:1 1313:1 1356:1 1374:3
1 246:1 559:1 634:1 907:1 1292:1 1313:1 1356:1 1357:1 1374:3
1 246:1 559:1 634:1 907:1 1292:1 1313:1 1356:1 1357:1 1374:3
1 246:1 541:1 559:1 681:1 701:1 907:1 978:1 981:1 1231:1 1237:1 1239:1 1241:1 1292:1 1300:1 1313:1 1356:1 1374:2
1 246:1 559:1 634:1 907:1 1292:1 1313:1 1356:1 1357:1 1374:3
1 246:1 541:1 559:1 681:1 701:1 907:1 978:1 981:1 1231:1 1237:1 1239:1 1241:1 1292:1 1300:1 1313:1 1356:1 1374:2
1 246:1 559:1 634:1 907:1 1292:1 1313:1 1356:1 1357:1 1374:3
1 131:1 246:1 300:1 407:1 541:1 559:1 634:1 681:1 701:1 895:1 981:1 1225:1 1231:1 1235:1 1239:1 1241:1 1292:1 1300:1 1313:1 1329:1 1350:1 1357:1 1374:2
1 246:1 349:1 460:1 541:1 559:1 634:1 681:1 907:1 1231:1 1265:1 1292:1 1300:1 1313:1 1354:1 1356:1 1357:1 1374:4
1 246:1 365:1 460:1 541:1 559:1 681:1 701:1 907:1 978:1 981:1 1231:1 1237:1 1239:1 1241:1 1265:1 1292:1 1300:1 1313:1 1356:1 1370:1 1374:2
1 246:1 559:1 634:1 907:1 1292:1 1313:1 1356:1 1357:1 1374:3
1 131:1 246:1 300:1 406:1 407:1 460:1 541:1 559:1 621:1 634:1 681:1 701:1 895:1 907:1 978:1 981:1 1152:1 1225:1 1231:1 1235:1 1236:1 1237:1 1239:1 1241:1 1265:1 1292:1 1300:1 1313:1 1329:1 1334:1 1348:1 1350:1 1356:1 1357:1 1374:2
1 246:1 559:1 634:1 907:1 1292:1 1313:1 1356:1 1357:1 1374:3
1 246:1 279:1 349:1 486:1 541:1 559:1 681:1 701:1 907:1 970:1 981:1 1207:1 1231:1 1233:1 1239:1 1241:1 1275:1 1292:1 1300:1 1312:1 1313:1 1354:1 1356:1 1369:1 1374:2 1376:56
1 131:1 246:1 300:1 406:1 407:1 460:1 541:1 559:1 621:1 634:1 681:1 701:1 895:1 907:1 978:1 981:1 1152:1 1225:1 1231:1 1235:1 1236:1 1237:1 1239:1 1241:1 1265:1 1292:1 1300:1 1313:1 1329:1 1334:1 1348:1 1350:1 1356:1 1357:1 1374:2
1 1374:3
1 131:1 559:1 621:1 681:1 907:1 981:1 1225:1 1231:1 1239:1 1313:1 1348:1 1356:1 1374:2
1 246:1 559:1 634:1 907:1 1292:1 1313:1 1356:1 1357:1 1374:3
1 246:1 559:1 634:1 907:1 1292:1 1313:1 1356:1 1357:1 1374:3
1 701:1 1241:1 1374:3
1 1374:4
1 1374:2
1 246:1 559:1 634:1 907:1 1292:1 1313:1 1356:1 1357:1 1374:3
1 1374:3
1 246:1 559:1 634:1 907:1 1292:1 1313:1 1356:1 1357:1 1374:3
1 246:1 349:1 365:1 460:1 541:1 559:1 681:1 907:1 978:1 981:1 1231:1 1237:1 1239:1 1265:1 1292:1 1300:1 1313:1 1354:1 1356:1 1370:1 1374:2
1 246:1 559:1 634:1 907:1 1292:1 1313:1 1356:1 1357:1 1374:3
1 246:1 460:1 541:1 559:1 681:1 907:1 981:1 1231:1 1239:1 1265:1 1292:1 1300:1 1313:1 1356:1 1374:4
1 246:1 559:1 634:1 907:1 1292:1 1313:1 1356:1 1357:1 1374:3
1 246:1 559:1 634:1 907:1 1292:1 1313:1 1356:1 1357:1 1374:3
1 246:1 559:1 634:1 907:1 1292:1 1313:1 1356:1 1357:1 1374:3
1 246:1 559:1 634:1 907:1 1292:1 1313:1 1356:1 1357:1 1374:3
1 246:1 559:1 634:1 907:1 1292:1 1313:1 1356:1 1357:1 1374:3
1 246:1 559:1 634:1 907:1 1292:1 1313:1 1356:1 1357:1 1374:3
1 246:1 559:1 634:1 907:1 1292:1 1313:1 1356:1 1357:1 1374:3
1 246:1 559:1 634:1 907:1 1292:1 1313:1 1356:1 1357:1 1374:3
1 246:1 460:1 541:1 559:1 681:1 907:1 1231:1 1265:1 1292:1 1300:1 1313:1 1356:1 1374:3
1 246:1 559:1 634:1 907:1 1292:1 1313:1 1356:1 1357:1 1374:3
1 246:1 559:1 634:1 907:1 1292:1 1313:1 1356:1 1357:1 1374:3
-1 129:1 559:1 1313:1 1374:1
-1 129:1 559:1 1313:1 1374:1
-1 129:1 559:1 1313:1 1374:1
-1 129:1 559:1 1313:1 1374:1
-1 129:1 559:1 1313:1 1374:1
-1 129:1 559:1 1313:1 1374:1
-1 129:1 559:1 1313:1 1374:1
-1 129:1 559:1 1313:1 1374:1
-1 129:1 559:1 1313:1 1374:1
-1 128:1 246:1 349:1 541:1 559:1 618:1 681:1 755:1 907:1 1223:1 1231:1 1266:1 1292:1 1300:1 1313:1 1354:1 1356:1 1374:2
-1 129:1 559:1 1313:1 1374:1
-1 129:1 559:1 1313:1 1374:1
-1 129:1 559:1 1313:1 1374:1
-1 129:1 246:1 550:1 559:1 907:1 1292:1 1306:1 1313:1 1356:1 1374:1
-1 129:1 559:1 1313:1 1374:1
-1 129:1 559:1 1313:1 1374:1
-1 129:1 325:1 559:1 1313:1 1374:1
-1 129:1 559:1 1313:1 1374:1
-1 129:1 559:1 1313:1 1374:1
-1 129:1 559:1 1313:1 1374:1
-1 129:1 559:1 1313:1 1374:1
-1 129:1 559:1 1313:1 1374:1
-1 129:1 325:1 559:1 675:1 1313:1 1374:1
-1 129:1 325:1 559:1 675:1 1313:1 1374:1
-1 129:1 325:1 559:1 1313:1 1374:1
-1 129:1 559:1 1313:1 1374:1
-1 246:1 460:1 541:1 550:1 559:1 681:1 701:1 788:1 907:1 955:1 1231:1 1241:1 1265:1 1292:1 1300:1 1306:1 1313:1 1356:1 1374:2
-1 129:1 559:1 1151:1 1313:1 1374:2
-1 466:1 550:1 559:1 564:1 634:1 781:1 955:1 980:1 1108:1 1306:1 1313:1 1357:1 1374:1 1376:1
-1 246:1 349:1 541:1 559:1 681:1 981:1 1231:1 1239:1 1292:1 1300:1 1313:1 1354:1 1374:3
-1 246:1 406:1 559:1 1236:1 1292:1 1313:1 1374:4
-1 246:1 349:1 406:1 559:1 681:1 1231:1 1236:1 1292:1 1313:1 1354:1 1374:2
-1 246:1 349:1 406:1 541:1 559:1 656:1 681:1 701:1 907:1 978:1 981:1 1231:1 1236:1 1237:1 1239:1 1241:1 1292:1 1300:1 1313:1 1354:1 1356:1 1373:1 1374:3
-1 246:1 349:1 406:1 541:1 559:1 681:1 701:1 978:1 981:1 1231:1 1236:1 1237:1 1239:1 1241:1 1292:1 1300:1 1313:1 1354:1 1374:4
-1 382:1 1219:1 1374:3
-1 382:1 1219:1 1374:3
-1 246:1 247:1 388:1 395:1 406:1 541:1 559:1 576:1 672:1 681:1 907:1 981:1 1065:1 1171:1 1231:1 1236:1 1239:1 1292:1 1300:1 1313:1 1325:1 1356:1 1374:1
-1 382:1 1219:1 1374:3
-1 131:1 246:1 559:1 602:1 606:1 681:1 907:1 978:1 1225:1 1231:1 1237:1 1292:1 1313:1 1343:1 1356:1 1374:2
-1 246:1 349:1 406:1 541:1 559:1 606:1 656:1 681:1 701:1 907:1 978:1 981:1 1231:1 1236:1 1237:1 1239:1 1241:1 1292:1 1300:1 1313:1 1343:1 1354:1 1356:1 1373:1 1374:1
-1 131:1 246:1 559:1 600:1 701:1 907:1 978:1 981:1 1225:1 1237:1 1239:1 1241:1 1292:1 1313:1 1356:1 1374:2
-1 246:1 406:1 407:1 541:1 559:1 681:1 690:1 701:1 907:1 978:1 981:1 1152:1 1231:1 1235:1 1236:1 1237:1 1239:1 1241:1 1292:1 1300:1 1313:1 1334:1 1356:1 1374:2
-1 1374:1
-1 241:1 349:1 506:1 512:1 639:1 642:1 677:1 703:1 729:1 760:1 777:1 811:1 876:1 945:1 953:1 1068:1 1100:1 1104:1 1159:1 1354:1 1374:1 1376:3
-1 559:1 1313:1 1374:3
-1 246:2 406:2 559:4 634:1 681:2 701:1 907:1 978:1 1231:2 1236:2 1237:1 1241:1 1292:2 1313:4 1356:1 1357:1 1374:6
-1 131:1 246:2 406:2 541:2 559:4 681:2 701:1 907:1 1225:1 1231:2 1236:2 1241:1 1292:2 1300:2 1313:4 1356:1 1374:6
-1 349:2 559:1 634:1 1313:1 1354:2 1357:1 1374:2
-1 246:1 247:1 395:1 541:1 559:1 681:1 1231:1 1292:1 1300:1 1313:1 1374:1
-1 142:1 241:1 349:1 403:1 506:1 512:1 567:1 639:1 642:1 677:1 703:1 729:1 730:1 760:1 777:1 811:1 876:1 881:1 945:1 953:1 1100:1 1104:1 1123:1 1354:1 1374:2
-1 247:1 530:1 559:1 1313:1 1374:1
-1 382:1 1219:1 1374:2
-1 246:1 349:1 559:1 581:1 1292:1 1313:1 1354:1 1374:2
-1 246:1 349:2 541:1 559:1 681:1 755:1 907:1 1127:1 1231:1 1266:1 1292:1 1300:1 1313:1 1354:2 1356:1 1374:2
-1 382:1 1219:1 1374:2
-1 382:1 1219:1 1374:2
-1 382:1 1219:1 1374:2
-1 246:1 349:1 559:1 659:1 907:1 978:1 1237:1 1292:1 1313:1 1354:1 1356:1 1374:2
-1 246:1 349:1 559:1 1292:1 1313:1 1354:1 1374:5
-1 131:1 246:1 406:1 541:1 559:1 596:1 606:1 681:1 701:1 907:1 978:1 981:1 1197:1 1207:1 1225:1 1231:1 1236:1 1237:1 1239:1 1241:1 1292:1 1300:1 1313:1 1337:1 1343:1 1356:1 1362:1 1369:1 1374:1
-1 349:1 559:1 1313:1 1354:1 1374:2
-1 131:1 246:1 406:1 460:1 541:1 559:1 576:1 681:1 701:1 755:1 907:1 978:1 1207:1 1225:1 1231:1 1236:1 1237:1 1241:1 1265:1 1266:1 1292:1 1300:1 1313:1 1325:1 1356:1 1369:1 1374:1
-1 1112:1 1310:1 1374:1
-1 349:1 559:1 1313:1 1354:1 1374:4
-1 246:1 349:1 559:1 1292:1 1313:1 1354:1 1374:4
-1 246:1 247:1 395:1 406:1 460:1 486:1 541:1 559:1 613:1 656:1 672:1 681:1 755:1 837:1 926:1 981:1 1148:1 1231:1 1236:1 1239:1 1265:1 1266:1 1275:1 1292:1 1300:1 1302:1 1313:1 1373:1 1374:1
-1 246:1 349:1 406:1 541:1 559:1 618:1 907:1 981:1 1236:1 1239:1 1292:1 1300:1 1313:1 1354:1 1356:1 1374:2
-1 382:1 1219:1 1374:3
-1 246:1 406:1 559:1 596:1 681:1 907:1 978:1 981:1 1197:1 1231:1 1236:1 1237:1 1239:1 1292:1 1313:1 1337:1 1356:1 1362:1 1374:1
-1 246:2 406:1 559:2 681:2 701:1 1231:2 1236:1 1241:1 1292:2 1313:2 1374:7
-1 246:1 349:2 541:1 559:1 681:1 701:1 755:1 907:1 978:1 1231:1 1237:1 1241:1 1266:1 1292:1 1300:1 1313:1 1354:2 1356:1 1374:5
-1 382:1 1219:1 1374:3
-1 382:1 1219:1 1374:2
-1 131:1 246:1 406:1 486:1 541:1 559:1 681:1 907:1 981:1 1225:1 1231:1 1236:1 1239:1 1275:1 1292:1 1300:1 1313:1 1356:1 1374:2
-1 131:1 349:1 406:1 525:1 541:1 559:1 681:1 981:1 1033:1 1197:1 1225:1 1231:1 1236:1 1239:1 1294:1 1300:1 1313:1 1354:1 1362:1 1374:1
-1 246:1 325:1 486:1 541:1 559:1 675:1 681:1 981:1 1231:1 1239:1 1275:1 1292:1 1300:1 1313:1 1374:1
-1 382:1 1219:1 1374:4
-1 382:1 1219:1 1374:3
-1 246:1 406:1 541:1 559:1 681:1 701:1 907:1 978:1 981:1 1231:1 1236:1 1237:1 1239:1 1241:1 1292:1 1300:1 1313:1 1356:1 1374:1 1376:1
-1 246:1 460:1 559:1 1265:1 1292:1 1313:1 1374:1
-1 1112:1 1310:1 1374:1
-1 349:1 382:1 406:1 460:1 559:1 681:1 699:1 981:1 1219:1 1231:1 1236:1 1239:1 1240:1 1265:1 1313:1 1354:1 1374:3 1376:4
-1 246:1 406:1 541:1 559:1 584:1 681:1 701:1 907:1 978:1 1231:1 1236:1 1237:1 1241:1 1292:1 1300:1 1313:1 1356:1 1374:11
-1 382:1 1219:1 1374:3
-1 382:1 1219:1 1374:2
-1 246:1 365:1 406:1 541:1 559:1 634:1 681:1 755:1 907:1 981:1 1231:1 1236:1 1239:1 1266:1 1292:1 1300:1 1313:1 1356:1 1357:1 1370:1 1374:2
-1 246:1 541:1 559:1 681:1 907:1 981:1 1231:1 1239:1 1292:1 1300:1 1313:1 1356:1 1374:2
-1 131:1 246:3 349:1 406:3 541:1 559:4 621:1 634:1 681:2 701:1 780:1 907:1 981:1 1225:1 1231:2 1236:3 1239:1 1241:1 1292:3 1300:1 1313:4 1348:1 1354:1 1356:1 1357:1 1374:5
-1 131:1 246:3 349:1 406:3 541:1 559:4 621:1 681:2 701:1 780:1 907:1 981:1 1225:1 1231:2 1236:3 1239:1 1241:1 1292:3 1300:1 1313:4 1348:1 1354:1 1356:1 1374:5
-1 382:1 1219:1 1374:3
-1 382:1 1219:1 1374:3
-1 237:1 241:1 349:1 506:1 642:1 677:1 730:1 745:1 759:1 760:1 811:1 823:1 824:1 945:1 953:1 1022:1 1035:1 1068:1 1100:1 1123:1 1136:1 1295:1 1354:1 1374:1
-1 246:1 406:1 460:1 541:1 559:1 681:1 701:1 837:1 907:1 978:1 981:1 1152:1 1231:1 1236:1 1237:1 1239:1 1241:1 1265:1 1292:1 1300:1 1302:1 1313:1 1334:1 1356:1 1374:2
-1 214:1 246:1 541:1 559:1 681:1 701:1 780:1 907:1 978:1 981:1 1231:1 1237:1 1239:1 1241:1 1292:1 1300:1 1313:1 1356:1 1374:2
-1 382:1 1219:1 1374:3
-1 349:1 559:1 780:1 1313:1 1354:1 1374:6
-1 559:1 634:1 1313:1 1357:1 1374:2
-1 246:1 308:1 349:1 559:1 618:1 1292:1 1313:1 1335:1 1354:1 1374:2
-1 341:1 559:1 634:1 918:1 1313:1 1357:1 1374:3
-1 246:1 406:1 460:1 541:1 559:1 634:1 681:1 895:1 907:1 978:1 981:1 1231:1 1236:1 1237:1 1239:1 1265:1 1292:1 1300:1 1313:1 1350:1 1356:1 1357:1 1374:1
-1 294:1 470:1 530:1 550:1 559:1 641:1 863:1 955:1 1081:1 1133:1 1149:1 1151:1 1195:1 1306:1 1313:1 1374:2
-1 131:1 246:1 406:1 460:1 541:1 559:1 634:1 681:1 701:1 837:1 907:1 978:1 981:1 1152:1 1225:1 1231:1 1236:1 1237:1 1239:1 1241:1 1265:1 1292:1 1300:1 1302:1 1313:1 1334:1 1356:1 1357:1 1374:1
-1 559:1 1313:1 1374:2
-1 1374:4
-1 559:1 681:1 1231:1 1313:1 1374:3
-1 246:1 406:1 559:1 981:1 1236:1 1239:1 1292:1 1313:1 1374:3
-1 227:1 246:1 541:1 559:1 681:1 701:1 907:1 981:1 1189:1 1231:1 1239:1 1241:1 1279:1 1292:1 1300:1 1313:1 1356:1 1374:3
-1 187:1 241:1 349:1 420:1 506:1 512:1 567:1 639:1 642:1 677:1 703:1 759:1 760:1 777:1 786:1 811:1 876:1 945:1 953:1 1100:1 1104:1 1354:1 1374:1
-1 168:1 241:1 349:1 417:1 445:1 506:1 642:1 677:1 699:1 759:1 760:1 945:1 952:1 953:1 1022:1 1100:1 1123:1 1240:1 1354:1 1374:3
-1 168:1 241:1 245:1 267:1 349:1 417:1 445:1 506:1 551:1 607:1 614:1 642:1 677:1 699:1 703:1 759:1 760:1 777:1 834:1 881:1 945:1 953:1 965:1 1022:1 1100:1 1123:1 1207:1 1240:1 1301:1 1354:1 1369:1 1374:2
-1 349:1 559:1 681:1 699:1 1231:1 1240:1 1313:1 1354:1 1374:1
-1 246:1 406:1 460:1 559:1 681:1 701:1 907:1 978:1 981:1 1152:1 1231:1 1236:1 1237:1 1239:1 1241:1 1265:1 1292:1 1313:1 1334:1 1356:1 1374:1
-1 246:1 382:1 406:1 559:1 681:1 1027:1 1219:1 1231:1 1236:1 1292:1 1313:1 1374:1
-1 241:1 349:1 506:1 642:1 677:1 703:1 729:1 760:1 876:1 945:1 953:1 1050:1 1100:1 1104:1 1354:1 1374:2
-1 128:1 131:1 246:1 331:1 406:1 460:1 467:1 468:1 541:1 559:1 621:1 634:1 681:1 741:1 837:1 907:1 980:1 981:1 1186:1 1223:1 1225:1 1231:1 1236:1 1239:1 1258:1 1265:1 1292:1 1300:1 1302:1 1313:1 1348:1 1356:1 1357:1 1374:2 1376:919
-1 349:1 406:1 541:1 559:1 681:1 981:1 1197:1 1231:1 1236:1 1239:1 1300:1 1313:1 1354:1 1362:1 1374:1
-1 188:1 246:1 406:1 559:1 567:1 642:1 665:1 677:1 681:1 693:1 699:1 703:1 760:1 777:1 854:1 876:1 901:1 945:1 953:1 981:1 1100:1 1231:1 1236:1 1239:1 1240:1 1292:1 1313:1 1374:2
-1 227:1 246:1 267:1 324:1 334:1 406:1 559:1 606:1 665:1 681:1 693:1 732:1 837:1 901:1 981:1 1231:1 1236:1 1239:1 1279:1 1292:1 1301:1 1302:1 1313:1 1343:1 1346:1 1374:1
-1 559:1 681:1 981:1 1231:1 1239:1 1313:1 1374:1
-1 559:1 665:1 681:1 693:1 901:1 981:1 1231:1 1239:1 1313:1 1374:1
-1 267:1 351:1 559:1 681:1 981:1 1207:1 1231:1 1239:1 1301:1 1313:1 1369:1 1374:1
-1 246:1 559:1 576:1 665:1 681:1 693:1 901:1 1231:1 1292:1 1313:1 1325:1 1374:1
-1 246:1 267:1 541:1 559:1 665:1 681:1 693:1 901:1 981:1 1207:1 1231:1 1239:1 1292:1 1300:1 1301:1 1313:1 1369:1 1374:1
-1 382:1 1219:1 1374:3
-1 131:1 246:1 406:1 460:1 541:1 559:1 681:1 701:1 864:1 1207:1 1225:1 1231:1 1236:1 1241:1 1265:1 1292:1 1300:1 1313:1 1369:1 1374:1 1376:3
-1 559:1 1313:1 1374:3
-1 246:2 406:1 559:2 681:2 701:1 1231:2 1236:1 1241:1 1292:2 1313:2 1374:7
-1 559:1 634:1 681:1 699:1 755:1 1231:1 1240:1 1266:1 1313:1 1357:1 1374:4
-1 246:1 349:1 541:1 559:1 681:1 1231:1 1292:1 1300:1 1313:1 1354:1 1374:3
-1 246:1 349:1 541:1 559:1 681:1 1231:1 1292:1 1300:1 1313:1 1354:1 1374:3
-1 131:1 246:2 406:3 541:2 559:5 634:1 681:2 701:1 780:1 907:1 964:1 978:1 981:2 1003:1 1225:1 1231:2 1236:3 1237:1 1239:2 1241:1 1292:2 1300:2 1313:5 1356:1 1357:1 1374:6
-1 349:2 466:1 504:1 505:1 559:1 781:1 804:1 841:1 1313:1 1354:2 1374:3
-1 128:1 241:1 349:1 445:1 642:1 677:1 699:1 755:1 760:1 811:1 840:1 881:1 945:1 953:1 1100:1 1104:1 1111:1 1223:1 1240:1 1266:1 1305:1 1354:1 1374:2
-1 559:1 1313:1 1374:2
-1 246:2 406:1 559:3 681:2 701:1 907:1 981:1 1231:2 1236:1 1239:1 1241:1 1292:2 1313:3 1356:1 1374:6
-1 382:1 1219:1 1374:3
-1 382:1 1219:1 1374:3
-1 455:1 550:1 559:1 955:1 1306:1 1313:1 1374:2
-1 246:1 349:1 559:1 1292:1 1313:1 1354:1 1374:5
-1 131:1 246:1 379:1 559:1 681:1 689:1 981:1 1186:1 1216:1 1225:1 1231:1 1234:1 1239:1 1292:1 1313:1 1374:3
-1 190:1 219:1 246:1 289:1 436:1 539:1 559:1 578:1 637:1 693:1 765:1 817:1 912:1 1047:1 1129:1 1292:1 1313:1 1374:3
-1 349:2 559:1 681:1 1231:1 1313:1 1354:2 1374:3
-1 246:1 300:1 349:1 559:1 978:1 1036:1 1237:1 1292:1 1313:1 1329:1 1354:1 1374:2
-1 349:1 559:1 585:1 1313:1 1354:1 1374:2
-1 382:1 1219:1 1374:2
-1 382:1 1219:1 1374:2
-1 284:1 559:1 681:1 981:1 1027:1 1231:1 1239:1 1313:1 1374:1
-1 382:1 1219:1 1374:2
-1 284:1 382:1 559:1 681:1 755:1 824:1 981:1 1027:1 1219:1 1231:1 1239:1 1266:1 1295:1 1313:1 1374:1 1376:9
-1 284:1 559:1 681:1 1027:1 1231:1 1313:1 1374:3 1376:26
-1 1112:1 1310:1 1374:1
-1 349:1 439:1 506:1 512:1 639:1 642:1 677:1 703:1 729:1 760:1 945:1 953:1 1068:1 1100:1 1159:1 1354:1 1374:1
-1 382:1 1219:1 1374:4
-1 559:1 1313:1 1374:1
-1 246:1 349:1 460:1 541:1 559:1 681:1 699:1 810:1 1231:1 1240:1 1265:1 1291:1 1292:1 1300:1 1313:1 1354:1 1374:1
-1 349:1 358:1 559:1 642:1 677:1 681:1 699:1 760:1 854:1 945:1 953:1 1100:1 1182:1 1231:1 1240:1 1313:1 1354:1 1374:1
-1 246:1 490:1 559:1 634:1 907:1 1292:1 1313:1 1356:1 1357:1 1374:2
-1 1112:1 1310:1 1374:1
-1 246:1 406:1 498:1 541:1 559:1 681:1 701:1 907:1 978:1 981:1 1152:1 1231:1 1236:1 1237:1 1239:1 1241:1 1281:1 1292:1 1300:1 1313:1 1334:1 1356:1 1374:2
-1 349:1 559:1 681:1 1231:1 1313:1 1354:1 1374:2
-1 241:1 349:1 642:1 677:1 699:1 760:1 945:1 953:1 994:1 1100:1 1240:1 1247:1 1354:1 1374:2
-1 246:1 559:1 907:1 1172:1 1292:1 1313:1 1356:1 1374:3
-1 136:1 165:1 246:1 460:1 513:1 541:1 559:1 634:1 702:1 978:1 981:1 989:1 1097:1 1150:1 1237:1 1239:1 1265:1 1292:1 1300:1 1313:1 1357:1 1374:2 1376:3660
-1 246:2 406:1 559:4 681:3 701:1 1231:3 1236:1 1241:1 1292:2 1313:4 1374:5
-1 246:2 406:1 559:4 681:3 701:1 1231:3 1236:1 1241:1 1292:2 1313:4 1374:4
-1 294:1 325:1 530:1 550:1 559:1 675:1 863:1 955:1 1133:1 1149:1 1151:1 1195:1 1306:1 1313:1 1374:1
-1 141:1 246:1 559:1 570:1 634:1 681:1 865:1 981:1 1231:1 1239:1 1292:1 1313:1 1357:1 1374:2
-1 246:1 349:1 559:1 570:1 618:1 634:1 681:1 907:1 981:1 1231:1 1239:1 1292:1 1313:1 1354:1 1356:1 1357:1 1374:2
-1 246:2 406:1 559:2 681:2 701:1 1231:2 1236:1 1241:1 1292:2 1313:2 1374:7
-1 237:1 241:1 349:1 414:1 445:1 506:1 642:1 677:1 699:1 745:1 759:1 760:1 777:1 811:1 815:1 823:1 869:1 876:1 945:1 953:1 1035:1 1100:1 1103:1 1123:1 1131:1 1240:1 1354:1 1374:2
-1 382:1 1219:1 1374:4
-1 131:1 246:1 541:1 559:1 681:1 701:1 907:1 981:1 1225:1 1231:1 1239:1 1241:1 1292:1 1300:1 1313:1 1356:1 1374:3
-1 131:1 246:1 541:1 559:1 681:1 701:1 907:1 981:1 1225:1 1231:1 1239:1 1241:1 1292:1 1300:1 1313:1 1356:1 1374:3
-1 146:1 241:1 307:1 349:1 358:1 406:1 445:1 506:1 614:1 642:1 662:1 677:1 699:1 703:1 759:1 760:1 787:1 811:1 849:1 866:1 869:1 877:1 881:1 945:1 953:1 1022:1 1054:1 1086:1 1100:1 1123:1 1131:1 1236:1 1240:1 1354:1 1374:3
-1 146:1 241:1 349:1 445:1 558:1 642:1 677:1 699:1 760:1 766:1 811:1 849:1 881:1 945:1 953:1 1002:1 1100:1 1104:1 1111:1 1199:1 1240:1 1354:1 1374:1
-1 246:1 349:1 559:1 681:1 699:1 981:1 1231:1 1239:1 1240:1 1292:1 1313:1 1354:1 1374:2
-1 246:1 349:2 460:1 541:1 559:1 576:1 907:1 1265:1 1292:1 1300:1 1313:1 1325:1 1354:2 1356:1 1374:5
-1 307:1 349:1 385:1 445:1 474:1 506:1 639:1 642:1 677:1 699:1 703:1 711:1 729:1 730:1 759:1 760:1 777:1 811:1 869:1 876:1 881:1 945:1 953:1 1100:1 1123:1 1131:1 1240:1 1354:1 1374:2
-1 699:1 1240:1 1374:1
-1 246:1 349:1 559:1 681:1 755:1 1231:1 1266:1 1292:1 1313:1 1354:1 1374:4
-1 699:1 1240:1 1374:1
-1 559:1 1313:1 1374:2
-1 699:1 1240:1 1374:1
-1 131:1 246:1 406:1 541:1 559:1 634:1 681:1 701:1 780:1 907:1 978:1 981:1 1225:1 1231:1 1236:1 1237:1 1239:1 1241:1 1292:1 1300:1 1313:1 1356:1 1357:1 1374:4
-1 246:1 331:1 334:1 486:1 541:1 559:1 837:1 907:1 981:1 1239:1 1275:1 1292:1 1300:1 1302:1 1313:1 1346:1 1356:1 1374:2 1376:2
-1 246:1 541:1 559:1 681:1 907:1 978:1 1231:1 1237:1 1292:1 1300:1 1313:1 1356:1 1374:1
-1 246:1 349:1 406:1 559:1 618:1 981:1 1236:1 1239:1 1292:1 1313:1 1354:1 1374:3
-1 382:1 1219:1 1374:2
-1 246:1 541:1 559:1 634:1 681:1 907:1 1231:1 1292:1 1300:1 1313:1 1356:1 1357:1 1374:1
-1 131:1 246:1 406:1 460:1 486:1 511:1 541:1 559:1 681:1 701:1 907:1 978:1 981:1 1225:1 1231:1 1236:1 1237:1 1239:1 1241:1 1265:1 1275:1 1286:1 1292:1 1300:1 1313:1 1356:1 1374:1
-1 382:1 1219:1 1374:3
-1 382:1 1219:1 1374:2
-1 246:1 559:1 701:1 907:1 978:1 1172:1 1237:1 1241:1 1292:1 1313:1 1356:1 1374:3
-1 147:1 559:1 669:1 983:1 1073:1 1313:1 1374:4
-1 382:1 1219:1 1374:3
-1 382:1 1219:1 1374:2
-1 247:1 466:1 559:1 781:1 1313:1 1374:1
-1 246:2 406:2 541:1 559:4 681:2 701:1 907:1 1231:2 1236:2 1241:1 1292:2 1300:1 1313:4 1356:1 1374:6
-1 131:1 175:1 246:2 406:3 541:1 559:4 634:1 681:2 701:1 837:1 907:1 981:1 1225:1 1231:2 1236:3 1239:1 1241:1 1251:1 1292:2 1300:1 1302:1 1313:4 1356:1 1357:1 1374:6
-1 382:1 1219:1 1374:3
-1 214:1 559:1 1313:1 1374:2
-1 246:1 541:2 559:2 597:1 656:1 721:1 907:1 1292:1 1300:2 1313:2 1356:1 1373:1 1374:4
-1 131:1 246:1 541:1 559:1 634:1 681:1 1225:1 1231:1 1292:1 1300:1 1313:1 1357:1 1374:2
-1 131:1 246:1 541:1 559:1 634:1 681:1 1225:1 1231:1 1292:1 1300:1 1313:1 1357:1 1374:2
-1 382:1 1219:1 1374:3
-1 349:1 466:1 505:1 559:1 781:1 804:1 1313:1 1354:1 1374:2
-1 246:1 406:1 541:1 559:1 1236:1 1292:1 1300:1 1313:1 1374:3
-1 559:1 1313:1 1374:2
-1 131:1 219:1 246:1 251:1 289:1 316:1 367:1 406:1 407:1 436:1 460:1 539:1 541:1 559:1 576:1 578:1 621:1 634:1 681:1 693:1 701:1 718:1 765:1 817:1 907:1 912:1 981:1 1047:1 1116:1 1129:1 1194:1 1225:1 1231:1 1235:1 1236:1 1239:1 1241:1 1265:1 1292:1 1300:1 1313:1 1325:1 1348:1 1356:1 1357:1 1374:2 1376:124
-1 131:1 190:1 193:1 196:1 199:1 219:1 227:1 244:1 246:1 251:1 273:1 279:1 289:1 292:1 367:1 406:1 407:1 433:1 436:1 460:1 486:1 500:1 511:1 539:1 541:1 559:1 576:1 578:1 621:1 634:1 637:1 681:1 693:1 699:1 701:1 718:1 741:1 755:1 779:1 817:1 820:1 830:1 837:1 885:1 907:1 912:1 916:1 981:1 1047:1 1129:1 1194:1 1207:1 1225:1 1231:1 1235:1 1236:1 1239:1 1240:1 1241:1 1258:1 1265:1 1266:1 1275:1 1279:1 1286:1 1292:1 1300:1 1302:1 1312:1 1313:1 1325:1 1348:1 1356:1 1357:1 1369:1 1374:4 1376:190
-1 219:1 289:1 436:1 559:1 578:1 693:1 699:1 1047:1 1240:1 1313:1 1374:1
-1 246:1 406:1 460:1 486:1 541:1 559:1 681:1 699:1 701:1 755:1 895:1 907:1 981:1 1231:1 1236:1 1239:1 1240:1 1241:1 1265:1 1266:1 1275:1 1292:1 1300:1 1313:1 1350:1 1356:1 1374:1
-1 246:1 406:1 460:1 541:1 559:1 681:1 701:1 907:1 978:1 981:1 1152:1 1231:1 1236:1 1237:1 1239:1 1241:1 1265:1 1292:1 1300:1 1313:1 1334:1 1356:1 1374:3
-1 379:1 455:1 550:1 559:1 955:1 1151:1 1186:1 1216:1 1306:1 1313:1 1374:2
-1 131:1 246:1 541:1 559:1 681:1 701:1 907:1 981:1 1225:1 1231:1 1239:1 1241:1 1292:1 1300:1 1313:1 1356:1 1374:4
-1 131:1 246:1 541:1 559:1 681:1 701:1 907:1 981:1 1225:1 1231:1 1239:1 1241:1 1292:1 1300:1 1313:1 1356:1 1374:4
-1 349:1 559:1 618:1 1091:1 1313:1 1354:1 1374:2
-1 246:2 406:1 559:2 681:2 701:1 1231:2 1236:1 1241:1 1292:2 1313:2 1374:7
-1 349:2 559:1 1313:1 1354:2 1374:2
-1 559:1 872:1 918:1 1313:1 1374:2
-1 131:1 246:1 541:1 559:1 681:1 701:1 907:1 981:1 1225:1 1231:1 1239:1 1241:1 1292:1 1300:1 1313:1 1356:1 1374:3
-1 1374:3
-1 559:1 1313:1 1374:2
-1 246:1 349:1 486:1 525:1 541:1 559:1 642:1 677:1 703:1 760:1 945:1 953:1 1100:1 1275:1 1292:1 1294:1 1300:1 1313:1 1354:1 1374:2
-1 246:2 406:1 559:2 681:2 701:1 1231:2 1236:1 1241:1 1292:2 1313:2 1374:7
-1 559:1 634:1 1313:1 1357:1 1374:2
-1 246:1 349:1 424:1 502:1 541:1 550:1 559:1 789:1 907:1 955:1 1292:1 1300:1 1306:1 1313:1 1354:1 1356:1 1374:2
-1 349:2 559:1 1313:1 1354:2 1374:2
-1 246:1 349:1 541:1 559:1 681:1 701:1 703:1 1117:1 1231:1 1241:1 1292:1 1300:1 1313:1 1354:1 1374:3 1376:39
-1 246:1 349:1 365:1 541:1 559:1 681:1 701:1 907:1 978:1 1231:1 1237:1 1241:1 1292:1 1300:1 1313:1 1354:1 1356:1 1370:1 1374:4
-1 246:1 406:1 407:1 559:1 981:1 1078:1 1235:1 1236:1 1239:1 1292:1 1313:1 1374:2
-1 1112:1 1310:1 1374:2
-1 349:1 567:1 639:1 642:1 677:1 760:1 945:1 953:1 1100:1 1354:1 1374:2
-1 349:1 567:1 639:1 642:1 677:1 703:1 729:1 760:1 777:1 945:1 953:1 1100:1 1354:1 1374:2
-1 382:1 1219:1 1374:4
-1 246:1 349:1 559:1 701:1 1241:1 1292:1 1313:1 1354:1 1374:2
-1 131:1 246:1 406:1 407:1 541:1 559:1 621:1 634:1 681:1 701:1 907:1 978:1 981:1 1225:1 1231:1 1235:1 1236:1 1237:1 1239:1 1241:1 1292:1 1300:1 1313:1 1348:1 1356:1 1357:1 1374:5
-1 246:2 406:1 559:2 681:2 701:1 1231:2 1236:1 1241:1 1292:2 1313:2 1374:7
-1 246:2 406:1 559:2 681:2 701:1 1231:2 1236:1 1241:1 1292:2 1313:2 1374:7
-1 382:1 1219:1 1374:3
-1 148:1 214:1 246:1 356:1 559:1 895:1 907:1 1146:1 1163:1 1292:1 1313:1 1350:1 1356:1 1374:1
-1 120:1 149:1 246:1 247:1 395:1 440:1 559:1 701:1 873:1 907:1 1241:1 1292:1 1313:1 1356:1 1374:1
-1 246:2 406:1 559:3 634:1 681:2 701:1 907:1 981:1 1231:2 1236:1 1239:1 1241:1 1292:2 1313:3 1356:1 1357:1 1374:6
-1 382:1 1219:1 1374:4
-1 246:2 406:1 559:2 681:2 701:1 1231:2 1236:1 1241:1 1292:2 1313:2 1374:7
-1 131:1 246:1 343:1 559:1 652:1 681:1 701:1 724:1 780:1 907:1 981:1 1019:1 1225:1 1231:1 1239:1 1241:1 1292:1 1313:1 1356:1 1371:1 1374:2
-1 128:1 131:1 227:1 246:1 267:1 406:1 460:1 486:1 511:1 525:1 541:1 559:1 576:1 596:1 681:1 701:1 755:1 837:1 907:1 978:1 981:1 1152:1 1207:1 1223:1 1225:1 1231:1 1236:1 1237:1 1239:1 1241:1 1265:1 1266:1 1275:1 1279:1 1286:1 1292:1 1294:1 1300:1 1301:1 1302:1 1313:1 1325:1 1334:1 1337:1 1356:1 1369:1 1374:1
-1 131:1 227:1 229:1 246:1 267:1 331:1 365:1 406:1 460:1 486:1 541:1 559:1 576:1 681:1 731:1 741:1 755:1 830:1 907:1 981:1 1225:1 1231:1 1236:1 1239:1 1258:1 1265:1 1266:1 1275:1 1279:1 1280:1 1292:1 1300:1 1301:1 1313:1 1325:1 1356:1 1370:1 1374:1
-1 246:2 406:1 559:2 681:2 701:1 1231:2 1236:1 1241:1 1292:2 1313:2 1374:7
-1 349:1 1354:1 1374:3
-1 246:1 349:1 541:1 559:1 634:1 681:1 701:1 780:1 907:1 978:1 981:1 1202:1 1231:1 1237:1 1239:1 1241:1 1292:1 1300:1 1313:1 1354:1 1356:1 1357:1 1374:4
-1 142:1 216:1 237:1 241:1 246:1 280:1 298:1 349:1 420:1 423:1 445:1 486:1 506:1 512:1 535:1 541:1 567:1 603:1 607:1 615:1 639:1 642:1 667:1 677:1 699:1 703:1 725:1 729:1 730:1 741:1 745:1 752:1 759:1 760:1 766:1 777:1 831:1 876:1 881:1 907:1 945:1 953:1 954:1 958:1 968:1 1022:1 1045:1 1052:1 1096:1 1100:1 1104:1 1138:1 1240:1 1258:1 1275:1 1292:1 1300:1 1328:1 1354:1 1356:1 1374:2
-1 300:1 349:1 460:1 559:1 681:1 699:1 1207:1 1231:1 1240:1 1265:1 1313:1 1329:1 1354:1 1369:1 1374:2
-1 155:1 203:1 282:1 297:1 303:1 349:1 417:1 506:1 642:1 677:1 699:1 734:1 735:1 759:1 782:1 811:1 869:1 881:1 953:1 1083:1 1111:1 1240:1 1354:1 1374:2 1376:23
-1 127:1 246:1 349:1 406:1 559:1 681:1 701:1 907:1 981:1 1231:1 1236:1 1239:1 1241:1 1292:1 1313:1 1354:1 1356:1 1374:2
-1 246:1 349:1 495:1 541:1 559:1 681:1 699:1 701:1 981:1 1117:1 1207:1 1231:1 1239:1 1240:1 1241:1 1292:1 1300:1 1313:1 1354:1 1369:1 1374:1 1376:39
-1 281:1 349:1 489:1 541:1 559:1 642:1 677:1 703:1 760:1 925:1 945:1 953:1 1100:1 1300:1 1313:1 1354:1 1374:3
-1 227:1 246:1 267:1 349:1 406:1 541:1 559:1 681:1 703:1 1207:1 1231:1 1236:1 1279:1 1292:1 1300:1 1301:1 1313:1 1354:1 1369:1 1374:1
-1 246:1 349:1 460:1 495:1 541:1 559:1 567:1 639:1 681:1 842:1 981:1 1117:1 1139:1 1231:1 1239:1 1265:1 1292:1 1300:1 1313:1 1354:1 1374:3 1376:39
-1 349:1 541:1 559:1 847:1 1300:1 1313:1 1354:1 1374:3
-1 128:1 246:1 460:1 511:1 541:1 559:1 576:1 596:1 681:1 755:1 780:1 837:1 895:1 907:1 981:1 1223:1 1231:1 1239:1 1265:1 1266:1 1286:1 1292:1 1300:1 1302:1 1313:1 1325:1 1337:1 1350:1 1356:1 1374:2
-1 246:2 406:1 559:2 681:2 701:1 1231:2 1236:1 1241:1 1292:2 1313:2 1374:7
-1 1112:1 1310:1 1374:1
-1 246:2 349:1 406:2 559:4 681:1 1231:1 1236:2 1292:2 1313:4 1354:1 1374:5
-1 559:1 1313:1 1374:2
-1 559:1 1313:1 1374:2
-1 131:1 246:1 406:1 486:1 541:1 559:1 681:1 701:1 895:1 907:1 981:1 1207:1 1225:1 1231:1 1236:1 1239:1 1241:1 1275:1 1292:1 1300:1 1313:1 1350:1 1356:1 1369:1 1374:2
-1 349:1 1354:1 1374:3
-1 246:1 406:1 541:1 550:1 559:1 681:1 690:1 701:1 907:1 955:1 978:1 981:1 1152:1 1231:1 1236:1 1237:1 1239:1 1241:1 1292:1 1300:1 1306:1 1313:1 1334:1 1356:1 1374:2
-1 300:1 349:1 460:1 541:1 559:1 681:1 699:1 1207:1 1231:1 1240:1 1265:1 1300:1 1313:1 1329:1 1354:1 1369:1 1374:2
-1 382:1 1219:1 1374:3
-1 131:1 246:1 365:1 406:1 407:1 460:1 541:1 559:1 621:1 634:1 681:1 701:1 780:1 810:1 840:1 895:1 907:1 978:1 981:1 1225:1 1231:1 1235:1 1236:1 1237:1 1239:1 1241:1 1265:1 1291:1 1292:1 1300:1 1305:1 1313:1 1348:1 1350:1 1356:1 1357:1 1370:1 1374:1
-1 131:1 246:2 406:3 541:2 559:4 681:2 701:1 907:1 978:1 981:1 1225:1 1231:2 1236:3 1237:1 1239:1 1241:1 1292:2 1300:2 1313:4 1356:1 1374:6
-1 349:2 559:1 780:1 1313:1 1354:2 1374:3
-1 559:1 1313:1 1374:2
-1 559:1 1313:1 1374:2
-1 559:1 1313:1 1374:3
-1 382:1 1219:1 1374:3
-1 559:1 1313:1 1374:3
-1 349:1 559:1 1313:1 1354:1 1374:3
-1 246:1 349:2 541:1 559:1 780:1 907:1 981:1 1239:1 1292:1 1300:1 1313:1 1354:2 1356:1 1374:2
-1 241:1 349:1 439:1 506:1 512:1 639:1 642:1 677:1 703:1 729:1 760:1 811:1 876:1 945:1 953:1 1068:1 1100:1 1104:1 1159:1 1354:1 1374:1 1376:3
-1 559:1 1313:1 1374:3
-1 169:1 349:1 378:1 559:1 567:1 622:1 639:1 642:1 677:1 681:1 699:1 703:1 760:1 945:1 953:1 1100:1 1139:1 1231:1 1240:1 1313:1 1354:1 1374:1
-1 246:1 298:1 349:1 460:1 541:1 559:1 699:1 701:1 810:1 895:1 907:1 981:1 1239:1 1240:1 1241:1 1265:1 1291:1 1292:1 1300:1 1313:1 1328:1 1350:1 1354:1 1356:1 1374:2
-1 189:1 349:1 541:1 559:1 981:1 1239:1 1300:1 1313:1 1354:1 1374:3
-1 189:1 349:1 541:1 559:1 981:1 1239:1 1300:1 1313:1 1354:1 1374:3
-1 137:1 349:1 445:1 489:1 514:1 604:1 759:1 760:1 766:1 834:1 881:1 946:1 965:1 1123:1 1157:1 1354:1 1374:2
-1 131:1 246:1 302:1 460:1 541:1 559:1 634:1 681:1 701:1 907:1 978:1 981:1 1225:1 1231:1 1237:1 1239:1 1241:1 1265:1 1292:1 1300:1 1313:1 1356:1 1357:1 1374:2 1376:69
-1 349:2 530:1 550:1 559:1 863:1 955:1 1306:1 1313:1 1354:2 1374:3
-1 131:1 246:1 406:1 541:1 559:1 681:1 701:1 907:1 981:1 1207:1 1225:1 1231:1 1236:1 1239:1 1241:1 1292:1 1300:1 1313:1 1356:1 1369:1 1374:3
-1 246:1 349:2 559:1 978:1 1237:1 1292:1 1313:1 1354:2 1374:2
-1 382:1 1219:1 1374:3
-1 167:1 348:1 559:1 681:1 755:1 1057:1 1231:1 1266:1 1313:1 1374:1
-1 167:1 348:1 559:1 681:1 755:1 1057:1 1231:1 1266:1 1313:1 1374:1
-1 1112:1 1310:1 1374:1
-1 246:1 349:2 365:1 406:1 541:1 559:1 634:1 681:1 755:1 907:1 978:1 981:1 1231:1 1236:1 1237:1 1239:1 1266:1 1292:1 1300:1 1313:1 1354:2 1356:1 1357:1 1370:1 1374:2
-1 246:1 349:2 530:1 550:1 559:1 563:1 755:1 863:1 955:1 1266:1 1292:1 1306:1 1313:1 1354:2 1374:2
-1 214:1 246:1 559:1 738:1 907:1 1015:1 1292:1 1313:1 1356:1 1374:1 1376:5
-1 246:1 349:1 489:1 559:1 606:1 642:1 656:1 677:1 681:1 699:1 711:1 755:1 760:1 945:1 953:1 1035:1 1100:1 1157:1 1231:1 1240:1 1266:1 1292:1 1313:1 1343:1 1354:1 1373:1 1374:2
-1 241:1 246:1 349:1 445:1 506:1 642:1 677:1 699:1 711:1 759:1 760:1 854:1 869:1 876:1 945:1 953:1 1060:1 1080:1 1100:1 1104:1 1240:1 1292:1 1354:1 1374:2
-1 349:1 559:1 681:1 699:1 1231:1 1240:1 1313:1 1354:1 1374:1
-1 382:1 1219:1 1374:3
-1 246:1 541:1 559:1 755:1 1266:1 1292:1 1300:1 1313:1 1374:2
-1 246:2 406:1 559:2 681:2 701:1 1231:2 1236:1 1241:1 1292:2 1313:2 1374:7
-1 382:1 1219:1 1374:2
-1 131:1 246:1 541:1 559:1 681:1 701:1 907:1 981:1 1225:1 1231:1 1239:1 1241:1 1292:1 1300:1 1313:1 1356:1 1374:2
-1 131:1 246:2 406:2 559:5 681:2 701:1 907:1 1225:1 1231:2 1236:2 1241:1 1292:2 1313:5 1356:1 1374:6
-1 349:1 559:1 681:1 981:1 1231:1 1239:1 1313:1 1354:1 1374:1
-1 128:1 131:1 193:1 246:1 365:1 379:1 394:1 406:1 460:1 511:1 541:1 550:1 559:1 634:1 681:1 755:1 907:1 981:1 1216:1 1223:1 1225:1 1229:1 1231:1 1236:1 1239:1 1265:1 1266:1 1286:1 1292:1 1300:1 1306:1 1313:1 1356:1 1357:1 1370:1 1374:2 1376:59
-1 246:1 349:1 559:1 681:1 741:1 907:1 1077:1 1231:1 1258:1 1292:1 1313:1 1354:1 1356:1 1374:1
-1 131:1 246:1 406:1 407:1 541:1 559:1 621:1 634:1 681:1 701:1 907:1 978:1 981:1 1225:1 1231:1 1235:1 1236:1 1237:1 1239:1 1241:1 1292:1 1300:1 1313:1 1348:1 1356:1 1357:1 1374:5
-1 131:1 246:1 406:1 541:1 559:1 681:1 701:1 907:1 978:1 1225:1 1231:1 1236:1 1237:1 1241:1 1292:1 1300:1 1313:1 1356:1 1374:5
-1 241:1 349:1 352:1 400:1 445:1 506:1 635:1 642:1 677:1 703:1 760:1 766:1 777:1 881:1 945:1 953:1 1100:1 1354:1 1374:3
-1 382:1 1219:1 1374:4
-1 382:1 1219:1 1374:4
-1 559:1 1313:1 1374:2
-1 349:1 559:1 681:1 985:1 1231:1 1313:1 1354:1 1374:3
-1 382:1 1219:1 1374:3
-1 382:1 1219:1 1374:3
-1 246:1 406:1 559:1 681:1 701:1 837:1 907:1 981:1 1231:1 1236:1 1239:1 1241:1 1292:1 1302:1 1313:1 1356:1 1374:1
-1 131:1 246:2 406:2 559:5 681:2 701:1 907:1 978:1 1225:1 1231:2 1236:2 1237:1 1241:1 1292:2 1313:5 1356:1 1374:7
-1 246:2 406:2 559:3 634:2 681:1 701:1 907:1 978:1 981:1 1231:1 1236:2 1237:1 1239:1 1241:1 1292:2 1313:3 1356:1 1357:2 1374:6
-1 559:1 1313:1 1374:2
-1 131:1 246:2 406:3 559:4 634:1 681:2 701:1 907:1 981:1 1225:1 1231:2 1236:3 1239:1 1241:1 1292:2 1313:4 1356:1 1357:1 1374:6
-1 131:1 246:2 406:3 559:4 634:1 681:2 701:1 907:1 978:1 981:1 1225:1 1231:2 1236:3 1237:1 1239:1 1241:1 1292:2 1313:4 1356:1 1357:1 1374:6
-1 175:1 237:1 241:1 349:1 406:1 417:1 445:1 506:1 642:1 677:1 699:1 703:1 759:1 760:1 766:1 777:1 811:1 876:1 881:1 945:1 953:1 1022:1 1100:1 1104:1 1131:1 1207:1 1236:1 1240:1 1251:1 1354:1 1369:1 1374:2
-1 349:1 559:1 571:1 1313:1 1354:1 1374:8
-1 349:1 559:1 631:1 825:1 1203:1 1313:1 1354:1 1374:6
-1 246:1 349:2 550:1 559:1 907:1 1292:1 1306:1 1313:1 1354:2 1356:1 1374:2
-1 246:2 406:2 541:2 559:3 681:2 701:1 907:1 978:1 981:1 1231:2 1236:2 1237:1 1239:1 1241:1 1292:2 1300:2 1313:3 1356:1 1374:6
-1 246:2 406:2 541:1 559:4 681:2 701:1 907:1 978:1 981:1 1231:2 1236:2 1237:1 1239:1 1241:1 1292:2 1300:1 1313:4 1356:1 1374:6
-1 349:1 559:1 631:1 825:1 1203:1 1313:1 1354:1 1374:6
-1 246:1 559:1 681:1 701:1 907:1 978:1 1231:1 1237:1 1241:1 1292:1 1313:1 1356:1 1374:1
-1 174:1 241:1 349:1 445:1 506:1 605:1 642:1 677:1 699:1 760:1 766:1 811:1 823:1 849:1 869:1 881:1 945:1 953:1 1022:1 1100:1 1104:1 1111:1 1240:1 1340:1 1354:1 1374:2
-1 131:1 246:2 406:3 541:3 559:4 621:1 681:2 701:1 907:1 978:1 981:1 1225:1 1231:2 1236:3 1237:1 1239:1 1241:1 1292:2 1300:3 1313:4 1348:1 1356:1 1374:6
-1 349:1 541:1 559:1 567:1 639:1 677:1 681:1 729:1 760:1 1100:1 1231:1 1300:1 1313:1 1354:1 1374:2
-1 382:1 1219:1 1374:3
-1 382:1 1219:1 1374:4
-1 382:1 1219:1 1374:3
-1 382:1 1219:1 1374:3
-1 382:1 1219:1 1374:3
-1 382:1 1219:1 1374:3
-1 382:1 1219:1 1374:3
-1 246:1 349:1 365:1 495:1 559:1 567:1 639:1 681:1 703:1 729:1 1231:1 1292:1 1313:1 1354:1 1370:1 1374:3
-1 246:1 541:1 559:1 907:1 981:1 1239:1 1292:1 1300:1 1313:1 1356:1 1374:1
-1 246:1 331:1 334:1 486:1 541:1 559:1 837:1 907:1 981:1 1239:1 1275:1 1292:1 1300:1 1302:1 1313:1 1346:1 1356:1 1374:2 1376:2
-1 1112:1 1310:1 1374:1
-1 131:1 246:1 541:1 559:1 681:1 701:1 907:1 981:1 1225:1 1231:1 1239:1 1241:1 1292:1 1300:1 1313:1 1356:1 1374:3
-1 246:1 349:1 559:1 634:1 907:1 1292:1 1313:1 1354:1 1356:1 1357:1 1374:2
-1 349:1 559:1 1313:1 1354:1 1374:2
-1 246:1 349:1 541:1 559:1 681:1 701:1 780:1 907:1 978:1 981:1 1231:1 1237:1 1239:1 1241:1 1292:1 1300:1 1313:1 1354:1 1356:1 1374:2
-1 246:1 349:1 559:1 907:1 1292:1 1313:1 1354:1 1356:1 1374:2
-1 382:1 1219:1 1374:2
-1 142:1 307:1 349:1 403:1 506:1 512:1 642:1 677:1 730:1 745:1 759:1 760:1 777:1 854:1 869:1 881:1 945:1 953:1 1022:1 1100:1 1123:1 1131:1 1354:1 1374:3
-1 246:1 308:1 349:1 406:1 541:1 559:1 618:1 845:1 1113:1 1236:1 1292:1 1300:1 1313:1 1335:1 1354:1 1374:2
-1 246:1 349:1 559:1 618:1 690:1 701:1 907:1 981:1 1239:1 1241:1 1292:1 1313:1 1354:1 1356:1 1374:3
-1 382:1 1219:1 1374:3
-1 246:1 349:1 541:1 559:1 681:1 1231:1 1292:1 1300:1 1313:1 1354:1 1374:3
-1 559:1 1313:1 1374:1
-1 246:1 541:1 559:1 701:1 755:1 907:1 1241:1 1266:1 1292:1 1300:1 1313:1 1356:1 1374:2
-1 349:2 396:1 559:1 1203:1 1313:1 1354:2 1374:5
-1 559:1 780:1 1313:1 1374:2
-1 349:2 396:1 541:1 559:1 906:1 1203:1 1300:1 1313:1 1354:2 1374:5
-1 246:1 541:1 559:1 634:1 681:1 701:1 907:1 1231:1 1241:1 1292:1 1300:1 1313:1 1356:1 1357:1 1374:2
-1 349:2 559:1 1313:1 1354:2 1374:2
-1 227:1 246:1 406:1 460:1 486:1 525:1 559:1 606:1 681:1 701:1 710:1 895:1 907:1 981:1 1207:1 1231:1 1236:1 1239:1 1241:1 1265:1 1275:1 1279:1 1292:1 1294:1 1313:1 1343:1 1350:1 1356:1 1369:1 1374:1
-1 628:1 1374:3
-1 116:1 349:2 396:1 559:1 906:1 1203:1 1313:1 1354:2 1374:6
-1 247:1 559:1 1313:1 1374:2
-1 382:1 1219:1 1374:4
-1 559:1 634:1 918:1 1313:1 1357:1 1374:2
-1 246:2 406:1 559:2 681:2 701:1 1231:2 1236:1 1241:1 1292:2 1313:2 1374:7
-1 148:1 214:1 246:1 356:1 425:1 434:1 491:1 519:1 554:1 559:1 579:1 770:1 783:1 871:1 895:1 896:1 907:1 981:1 1012:1 1075:1 1094:1 1140:1 1146:1 1163:1 1239:1 1292:1 1313:1 1350:1 1356:1 1374:1
-1 559:1 918:1 1313:1 1374:2
-1 349:2 376:1 559:1 1313:1 1354:2 1374:2
-1 246:2 406:1 559:2 681:2 701:1 1231:2 1236:1 1241:1 1292:2 1313:2 1374:6
-1 131:1 246:2 406:3 541:3 559:7 621:1 634:1 681:2 701:1 907:1 978:1 981:1 1225:1 1231:2 1236:3 1237:1 1239:1 1241:1 1292:2 1300:3 1313:7 1348:1 1356:1 1357:1 1374:6
-1 382:1 1219:1 1374:4
-1 246:1 559:1 634:1 681:1 1231:1 1292:1 1313:1 1357:1 1374:3
-1 246:1 559:1 634:1 681:1 1231:1 1292:1 1313:1 1357:1 1374:3
-1 131:1 246:1 406:1 407:1 460:1 541:1 559:1 681:1 701:1 907:1 978:1 981:1 1152:1 1225:1 1231:1 1235:1 1236:1 1237:1 1239:1 1241:1 1265:1 1292:1 1300:1 1313:1 1334:1 1356:1 1374:1
-1 1112:1 1310:1 1374:1
-1 237:1 241:1 349:1 411:1 420:1 445:1 487:1 506:1 535:1 642:1 677:1 759:1 760:1 811:1 869:1 876:1 877:1 927:1 945:1 953:1 1022:1 1100:1 1104:1 1354:1 1374:2
-1 246:1 304:1 334:1 349:1 406:1 486:1 559:1 596:1 681:1 699:1 732:1 741:1 837:1 907:1 970:1 981:1 1030:1 1207:1 1231:1 1233:1 1236:1 1239:1 1240:1 1258:1 1275:1 1292:1 1302:1 1313:1 1337:1 1346:1 1354:1 1356:1 1369:1 1374:2
-1 131:1 246:1 279:1 334:1 349:1 406:1 479:1 486:1 541:1 559:1 596:1 606:1 681:1 699:1 701:1 732:1 741:1 864:1 907:1 970:1 981:1 1030:1 1207:1 1225:1 1231:1 1233:1 1236:1 1239:1 1240:1 1241:1 1258:1 1272:1 1275:1 1292:1 1300:1 1312:1 1313:1 1337:1 1343:1 1346:1 1354:1 1356:1 1369:1 1374:1
-1 246:1 541:1 559:1 681:1 701:1 907:1 1231:1 1241:1 1292:1 1300:1 1313:1 1356:1 1374:3
-1 349:2 559:1 1313:1 1354:2 1374:2
-1 382:1 1219:1 1374:3
-1 382:1 1219:1 1374:2
-1 559:1 1313:1 1374:1
-1 246:1 349:1 559:1 601:1 1292:1 1313:1 1354:1 1374:2
-1 349:1 559:1 567:1 642:1 677:1 681:1 703:1 760:1 854:1 945:1 953:1 1100:1 1231:1 1313:1 1354:1 1374:3
-1 382:1 1219:1 1374:3
-1 246:1 349:1 559:1 616:1 642:1 677:1 681:1 701:1 703:1 760:1 907:1 945:1 953:1 981:1 1100:1 1231:1 1239:1 1241:1 1292:1 1313:1 1354:1 1356:1 1374:1
-1 1112:1 1310:1 1374:1
-1 382:1 1219:1 1374:3
-1 382:1 1219:1 1374:3
-1 349:1 445:1 488:1 506:1 642:1 677:1 699:1 755:1 760:1 766:1 784:1 823:1 945:1 953:1 1100:1 1111:1 1123:1 1240:1 1266:1 1354:1 1374:2
-1 162:1 246:1 334:1 349:1 406:1 407:1 460:1 508:1 541:1 559:1 570:1 632:1 634:1 681:1 699:1 701:1 895:1 907:1 981:1 1074:1 1231:1 1235:1 1236:1 1239:1 1240:1 1241:1 1244:1 1265:1 1292:1 1300:1 1313:1 1346:1 1350:1 1354:1 1356:1 1357:1 1374:1
-1 246:1 349:1 559:1 601:1 699:1 1240:1 1292:1 1313:1 1354:1 1374:1
-1 246:1 349:1 559:1 699:1 759:1 1240:1 1292:1 1313:1 1354:1 1374:2
-1 382:1 1219:1 1374:3
-1 246:1 349:1 559:1 681:1 699:1 1231:1 1240:1 1292:1 1313:1 1354:1 1374:1
-1 239:1 241:1 349:1 642:1 677:1 699:1 994:1 1100:1 1185:1 1240:1 1247:1 1354:1 1374:2
-1 239:1 246:1 349:1 559:1 681:1 699:1 994:1 1231:1 1240:1 1247:1 1292:1 1313:1 1354:1 1374:2
-1 127:1 246:1 349:1 406:1 559:1 681:1 701:1 907:1 981:1 1231:1 1236:1 1239:1 1241:1 1292:1 1313:1 1354:1 1356:1 1374:2
-1 559:1 1313:1 1374:1
-1 131:1 246:1 349:1 460:1 559:1 699:1 755:1 1225:1 1240:1 1265:1 1266:1 1292:1 1313:1 1354:1 1374:2
-1 131:1 246:1 267:1 511:1 541:1 559:1 576:1 634:1 681:1 982:1 1225:1 1231:1 1286:1 1292:1 1300:1 1301:1 1313:1 1325:1 1357:1 1374:3 1376:2
-1 131:1 246:1 393:1 406:1 541:1 559:1 634:1 681:1 701:1 907:1 978:1 981:1 1225:1 1231:1 1236:1 1237:1 1239:1 1241:1 1292:1 1300:1 1313:1 1356:1 1357:1 1374:5
-1 382:1 1219:1 1374:3
-1 246:1 349:1 406:1 439:1 541:1 559:1 567:1 639:1 661:1 681:1 699:1 729:1 981:1 1218:1 1231:1 1236:1 1239:1 1240:1 1292:1 1300:1 1313:1 1354:1 1374:1
-1 246:1 349:1 406:1 439:1 541:1 559:1 567:1 639:1 661:1 681:1 699:1 729:1 981:1 1218:1 1231:1 1236:1 1239:1 1240:1 1292:1 1300:1 1313:1 1354:1 1374:1
-1 349:1 439:1 506:1 512:1 559:1 639:1 642:1 677:1 703:1 729:1 760:1 777:1 811:1 945:1 953:1 981:1 1100:1 1159:1 1239:1 1313:1 1354:1 1374:1 1376:3
-1 122:1 246:1 298:1 349:1 479:1 486:1 559:1 647:1 681:1 699:1 922:1 1207:1 1231:1 1240:1 1272:1 1275:1 1292:1 1313:1 1328:1 1354:1 1369:1 1374:3
-1 349:1 559:1 681:1 717:1 755:1 1231:1 1266:1 1313:1 1354:1 1374:1
-1 349:1 559:1 631:1 825:1 1203:1 1313:1 1354:1 1374:6
-1 299:1 349:1 559:1 659:1 1313:1 1354:1 1374:3
-1 131:1 246:1 559:1 678:1 701:1 763:1 907:1 978:1 1037:1 1225:1 1237:1 1241:1 1292:1 1313:1 1356:1 1374:2 1376:2
-1 246:1 349:1 559:1 843:1 1292:1 1313:1 1354:1 1374:2
-1 382:1 1219:1 1374:4
-1 131:1 246:2 406:3 541:1 559:5 681:2 701:1 907:1 978:1 981:1 1152:1 1225:1 1231:2 1236:3 1237:1 1239:1 1241:1 1292:2 1300:1 1313:5 1334:1 1356:1 1374:6
-1 131:1 246:2 406:3 541:2 559:5 681:2 701:1 907:1 981:1 1225:1 1231:2 1236:3 1239:1 1241:1 1292:2 1300:2 1313:5 1356:1 1374:6
-1 241:1 246:1 349:1 406:1 420:1 445:1 460:1 506:1 541:1 559:1 642:1 677:1 699:1 701:1 703:1 759:1 760:1 777:1 811:1 869:1 876:1 907:1 945:1 953:1 981:1 1022:1 1100:1 1104:1 1134:1 1236:1 1239:1 1240:1 1241:1 1265:1 1292:1 1300:1 1313:1 1354:1 1356:1 1374:2
-1 246:1 349:1 541:1 559:1 618:1 1292:1 1300:1 1313:1 1354:1 1374:3
-1 131:1 246:2 406:2 541:2 559:4 681:2 701:1 907:1 981:1 1225:1 1231:2 1236:2 1239:1 1241:1 1292:2 1300:2 1313:4 1356:1 1374:6
-1 382:1 1219:1 1374:3
-1 246:1 349:1 559:1 1292:1 1313:1 1354:1 1374:2
-1 294:1 325:1 530:1 550:1 559:1 675:1 955:1 1133:1 1149:1 1151:1 1306:1 1313:1 1374:1
-1 131:1 246:1 349:1 460:1 559:1 681:1 699:1 755:1 1225:1 1231:1 1240:1 1265:1 1266:1 1292:1 1313:1 1354:1 1374:2
-1 246:1 406:1 559:1 681:1 701:1 1231:1 1236:1 1241:1 1292:1 1313:1 1374:5
-1 237:1 241:1 280:1 298:1 307:1 349:1 360:1 363:1 406:1 417:1 420:1 445:1 486:1 506:1 512:1 567:1 607:1 639:1 642:1 645:1 677:1 699:1 703:1 730:1 734:1 746:1 759:1 760:1 766:1 777:1 786:1 811:1 822:1 869:1 876:1 881:1 945:1 953:1 1022:1 1030:1 1100:1 1104:1 1207:1 1236:1 1240:1 1275:1 1328:1 1354:1 1369:1 1374:3
-1 246:1 541:1 559:1 634:1 681:1 701:1 907:1 978:1 981:1 1231:1 1237:1 1239:1 1241:1 1292:1 1300:1 1313:1 1356:1 1357:1 1374:4
-1 131:1 246:1 541:1 559:1 681:1 701:1 907:1 981:1 1225:1 1231:1 1239:1 1241:1 1292:1 1300:1 1313:1 1356:1 1374:2
-1 246:1 349:1 541:1 559:1 681:1 1231:1 1292:1 1300:1 1313:1 1354:1 1374:3
-1 142:1 241:1 349:1 506:1 512:1 567:1 639:1 642:1 677:1 703:1 729:1 730:1 759:1 760:1 777:1 876:1 945:1 953:1 1050:1 1100:1 1104:1 1123:1 1354:1 1374:2
-1 246:1 349:1 445:1 460:1 559:1 639:1 642:1 677:1 681:1 699:1 703:1 760:1 810:1 869:1 945:1 953:1 1100:1 1231:1 1240:1 1265:1 1291:1 1292:1 1313:1 1354:1 1374:2
-1 142:1 241:1 246:1 307:1 349:1 406:1 445:1 457:1 460:1 495:1 506:1 512:1 567:1 639:1 642:1 677:1 699:1 703:1 729:1 730:1 759:1 760:1 777:1 811:1 869:1 876:1 945:1 953:1 981:1 1100:1 1104:1 1123:1 1236:1 1239:1 1240:1 1265:1 1292:1 1354:1 1374:3
-1 349:1 559:1 1313:1 1354:1 1374:2
-1 349:2 559:1 1313:1 1354:2 1374:2
-1 131:1 246:1 349:1 541:1 559:1 681:1 701:1 790:1 907:1 978:1 981:1 995:1 1225:1 1231:1 1237:1 1239:1 1241:1 1292:1 1300:1 1313:1 1354:1 1356:1 1374:1
-1 131:1 246:1 349:1 559:1 681:1 701:1 864:1 907:1 1225:1 1231:1 1241:1 1292:1 1313:1 1354:1 1356:1 1374:2
-1 233:1 237:1 241:1 250:1 307:1 349:1 417:1 420:1 445:1 506:1 535:1 614:1 642:1 677:1 699:1 759:1 760:1 786:1 811:1 823:1 869:1 881:1 937:1 945:1 953:1 1022:1 1068:1 1100:1 1104:1 1111:1 1123:1 1240:1 1354:1 1374:2
-1 241:1 307:1 349:1 445:1 642:1 676:1 677:1 759:1 760:1 811:1 869:1 945:1 953:1 1022:1 1100:1 1104:1 1111:1 1123:1 1354:1 1374:3
-1 246:1 349:1 364:1 511:1 559:1 681:1 701:1 790:1 864:1 960:1 1231:1 1241:1 1286:1 1292:1 1313:1 1354:1 1374:2
-1 349:2 559:1 681:1 1231:1 1313:1 1354:2 1374:4
-1 246:1 546:1 559:1 798:1 1037:1 1292:1 1313:1 1374:3 1376:2
-1 164:1 246:1 406:1 460:1 541:1 559:1 576:1 681:1 741:1 907:1 978:1 981:1 1152:1 1231:1 1236:1 1237:1 1239:1 1258:1 1265:1 1292:1 1300:1 1313:1 1325:1 1334:1 1356:1 1374:1
-1 246:1 516:1 541:1 559:1 701:1 1241:1 1292:1 1300:1 1313:1 1374:2
-1 246:1 406:1 559:1 681:1 690:1 701:1 741:1 907:1 978:1 981:1 1152:1 1231:1 1236:1 1237:1 1239:1 1241:1 1258:1 1292:1 1313:1 1334:1 1356:1 1374:2
-1 382:1 1219:1 1374:3
-1 246:1 349:1 559:1 790:1 907:1 1292:1 1313:1 1354:1 1356:1 1374:2
-1 131:1 246:1 541:1 559:1 681:1 701:1 907:1 981:1 1225:1 1231:1 1239:1 1241:1 1292:1 1300:1 1313:1 1356:1 1374:3
-1 131:1 246:1 349:1 541:1 559:1 681:1 790:1 981:1 1225:1 1231:1 1239:1 1292:1 1300:1 1313:1 1354:1 1374:1
-1 1112:1 1310:1 1374:1
-1 116:1 246:1 258:1 349:2 396:1 541:1 559:1 648:1 701:1 906:1 1177:1 1203:1 1241:1 1292:1 1300:1 1313:1 1347:1 1354:2 1374:5 1376:35
-1 121:1 131:1 246:1 406:1 541:1 559:1 634:1 656:1 681:1 701:1 907:1 978:1 981:1 1217:1 1225:1 1231:1 1236:1 1237:1 1239:1 1241:1 1292:1 1300:1 1313:1 1356:1 1357:1 1373:1 1374:5
-1 131:1 246:1 327:1 349:1 559:1 681:1 699:1 701:1 1225:1 1231:1 1240:1 1241:1 1292:1 1313:1 1354:1 1374:2
-1 349:2 559:1 1313:1 1354:2 1374:3
-1 349:2 559:1 1313:1 1354:2 1374:2
-1 455:1 550:1 559:1 955:1 1306:1 1313:1 1374:2
-1 246:1 349:2 405:1 550:1 559:1 907:1 955:1 1292:1 1306:1 1313:1 1354:2 1356:1 1374:2
-1 283:1 349:1 559:1 1313:1 1354:1 1374:3
-1 1112:1 1310:1 1374:1
-1 1112:1 1310:1 1374:1
-1 382:1 1219:1 1374:3
-1 246:1 349:2 406:1 541:1 559:1 681:1 701:1 907:1 978:1 981:1 1064:31 1231:1 1236:1 1237:1 1239:1 1241:1 1292:1 1300:1 1313:1 1354:2 1356:1 1374:2
-1 216:1 241:1 349:1 417:1 445:1 506:1 642:1 677:1 699:1 759:1 760:1 811:1 849:1 869:1 877:1 881:1 945:1 953:1 1022:1 1100:1 1104:1 1111:1 1240:1 1354:1 1374:1
-1 382:1 1219:1 1374:3
-1 349:1 406:1 460:1 559:1 681:1 699:1 981:1 1231:1 1236:1 1239:1 1240:1 1265:1 1313:1 1354:1 1374:1
-1 349:1 559:1 699:1 994:1 1240:1 1247:1 1313:1 1354:1 1374:2
-1 246:1 349:1 559:1 618:1 1292:1 1313:1 1354:1 1374:2
-1 541:1 559:1 699:1 703:1 1240:1 1300:1 1313:1 1374:1
-1 246:1 559:1 978:1 1237:1 1292:1 1313:1 1374:4
-1 131:1 175:1 246:1 308:1 349:1 406:1 460:1 541:1 559:1 681:1 701:1 907:1 978:1 981:1 1225:1 1231:1 1236:1 1237:1 1239:1 1241:1 1251:1 1265:1 1292:1 1300:1 1313:1 1335:1 1354:1 1356:1 1374:2
-1 131:1 246:1 536:1 541:1 559:1 681:1 690:1 701:1 907:1 978:1 981:1 1186:1 1225:1 1231:1 1237:1 1239:1 1241:1 1292:1 1297:1 1300:1 1313:1 1356:1 1374:2
-1 246:1 349:1 460:1 559:1 642:1 677:1 760:1 907:1 945:1 953:1 1100:1 1265:1 1292:1 1313:1 1354:1 1356:1 1374:2
-1 349:1 406:1 559:1 642:1 677:1 703:1 760:1 945:1 953:1 1100:1 1236:1 1313:1 1354:1 1374:2
-1 382:1 1219:1 1374:2
-1 349:2 559:1 1313:1 1354:2 1374:2
-1 349:2 559:1 1313:1 1354:2 1374:2
-1 246:2 406:1 559:4 681:3 701:1 1231:3 1236:1 1241:1 1292:2 1313:4 1374:4
-1 559:1 1313:1 1374:2
-1 382:1 1219:1 1374:3
-1 382:1 1219:1 1374:2
-1 227:1 241:1 246:1 267:1 349:1 406:1 460:1 486:1 489:1 525:1 541:1 559:1 642:1 677:1 681:1 699:1 760:1 764:1 876:1 945:1 953:1 981:1 1100:1 1231:1 1236:1 1239:1 1240:1 1265:1 1275:1 1279:1 1292:1 1294:1 1300:1 1301:1 1313:1 1354:1 1374:1
-1 382:1 1219:1 1374:3
-1 559:1 1313:1 1374:1
-1 241:1 349:1 642:1 677:1 699:1 760:1 777:1 869:1 945:1 953:1 1068:1 1100:1 1240:1 1354:1 1374:2
-1 246:1 541:1 559:1 681:1 701:1 907:1 981:1 1231:1 1239:1 1241:1 1292:1 1300:1 1313:1 1356:1 1374:2
-1 382:1 1219:1 1374:3
-1 382:1 1219:1 1374:3
-1 227:1 237:1 241:1 246:1 267:1 349:1 445:1 486:1 506:1 567:1 621:1 629:1 639:1 642:1 677:1 699:1 701:1 703:1 730:1 745:1 759:1 760:1 766:1 777:1 869:1 876:1 877:1 881:1 907:1 945:1 953:1 988:1 1020:1 1022:1 1068:1 1100:1 1104:1 1123:1 1155:1 1157:1 1240:1 1241:1 1275:1 1279:1 1292:1 1301:1 1348:1 1354:1 1356:1 1374:3
-1 382:1 1219:1 1374:3
-1 349:1 559:1 1313:1 1354:1 1374:5
-1 382:1 1219:1 1374:2
-1 246:1 349:1 460:1 541:1 559:1 642:1 677:1 681:1 703:1 760:1 945:1 953:1 1100:1 1231:1 1265:1 1292:1 1300:1 1313:1 1354:1 1374:2
-1 382:1 1219:1 1374:4
-1 349:1 838:1 1354:1 1374:1
-1 246:1 349:1 559:1 978:1 1237:1 1292:1 1313:1 1354:1 1374:2
-1 559:1 981:1 1239:1 1313:1 1374:2
-1 246:1 406:1 559:1 681:1 780:1 907:1 1231:1 1236:1 1292:1 1313:1 1356:1 1374:2
-1 131:1 246:1 406:1 541:1 559:1 621:1 681:1 701:1 907:1 981:1 1225:1 1231:1 1236:1 1239:1 1241:1 1292:1 1300:1 1313:1 1348:1 1356:1 1374:4
-1 246:1 349:1 541:1 559:1 570:1 634:1 681:1 701:1 837:1 907:1 978:1 981:1 1231:1 1237:1 1239:1 1241:1 1292:1 1300:1 1302:1 1313:1 1354:1 1356:1 1357:1 1374:2
-1 131:1 246:2 406:3 541:2 559:5 681:3 701:1 907:1 978:1 981:1 1225:1 1231:3 1236:3 1237:1 1239:1 1241:1 1292:2 1300:2 1313:5 1356:1 1374:6
-1 246:1 460:1 541:1 559:1 634:1 656:1 681:1 701:1 755:1 907:1 978:1 1231:1 1237:1 1241:1 1265:1 1266:1 1292:1 1300:1 1313:1 1356:1 1357:1 1373:1 1374:2
-1 246:1 460:1 541:1 559:1 606:1 634:1 656:1 681:1 701:1 755:1 907:1 978:1 1231:1 1237:1 1241:1 1265:1 1266:1 1292:1 1300:1 1313:1 1343:1 1356:1 1357:1 1373:1 1374:2
-1 246:1 349:1 559:1 681:1 1231:1 1292:1 1313:1 1354:1 1374:2
-1 131:1 246:1 559:1 681:1 907:1 978:1 1225:1 1231:1 1237:1 1292:1 1313:1 1356:1 1374:2
-1 148:1 214:1 246:1 559:1 895:1 907:1 1292:1 1313:1 1350:1 1356:1 1374:1
-1 1112:1 1310:1 1374:1
-1 131:1 182:1 214:1 246:1 406:1 460:1 541:1 559:1 681:1 701:1 837:1 895:1 897:1 907:1 978:1 981:1 1186:1 1207:1 1225:1 1231:1 1236:1 1237:1 1239:1 1241:1 1265:1 1292:1 1300:1 1302:1 1313:1 1350:1 1356:1 1369:1 1374:1
-1 382:1 1219:1 1374:3
-1 246:1 541:1 559:1 681:1 907:1 1231:1 1292:1 1300:1 1313:1 1356:1 1374:2
-1 559:1 1313:1 1374:1
-1 246:2 406:2 559:4 634:1 681:2 701:1 907:1 978:1 1231:2 1236:2 1237:1 1241:1 1292:2 1313:4 1356:1 1357:1 1374:6
-1 349:2 559:1 1313:1 1354:2 1374:2
-1 246:1 308:1 349:1 559:1 570:1 634:1 681:1 780:1 845:1 907:1 981:1 1231:1 1239:1 1292:1 1313:1 1335:1 1354:1 1356:1 1357:1 1374:3 1376:9
-1 246:1 349:1 559:1 618:1 1292:1 1313:1 1354:1 1374:2
-1 246:2 406:1 559:2 681:2 701:1 1231:2 1236:1 1241:1 1292:2 1313:2 1374:6
-1 131:1 246:1 406:1 460:1 541:1 559:1 634:1 681:1 907:1 981:1 1225:1 1231:1 1236:1 1239:1 1265:1 1292:1 1300:1 1313:1 1356:1 1357:1 1374:2
-1 246:1 559:1 980:1 1292:1 1313:1 1374:2
-1 246:1 365:1 406:1 541:1 550:1 559:1 634:1 681:1 755:1 907:1 981:1 1231:1 1236:1 1239:1 1266:1 1292:1 1300:1 1306:1 1313:1 1356:1 1357:1 1370:1 1374:2 1376:40
-1 219:1 246:1 251:1 289:1 367:1 433:1 436:1 460:1 541:1 559:1 578:1 681:1 693:1 701:1 718:1 779:1 837:1 907:1 912:1 1047:1 1129:1 1231:1 1241:1 1265:1 1292:1 1300:1 1302:1 1313:1 1356:1 1374:2
-1 382:1 1219:1 1374:3
-1 246:1 349:1 559:1 659:1 907:1 978:1 1003:1 1237:1 1292:1 1313:1 1354:1 1356:1 1374:2
-1 246:1 349:1 559:1 659:1 907:1 978:1 1237:1 1292:1 1313:1 1354:1 1356:1 1374:2
-1 246:1 349:1 559:1 659:1 907:1 978:1 1237:1 1292:1 1313:1 1354:1 1356:1 1374:2
-1 559:1 1313:1 1374:2
-1 131:1 246:1 541:1 559:1 681:1 701:1 907:1 981:1 1225:1 1231:1 1239:1 1241:1 1292:1 1300:1 1313:1 1356:1 1374:2
-1 1112:1 1310:1 1374:1
-1 131:1 246:2 406:1 541:1 559:3 656:1 681:2 701:1 907:1 978:1 981:1 1225:1 1231:2 1236:1 1237:1 1239:1 1241:1 1292:2 1300:1 1313:3 1356:1 1373:1 1374:6
-1 246:1 349:1 559:1 618:1 1292:1 1313:1 1354:1 1374:3
-1 246:1 349:1 406:1 445:1 460:1 559:1 567:1 639:1 642:1 677:1 681:1 699:1 703:1 729:1 760:1 811:1 881:1 945:1 953:1 1100:1 1231:1 1236:1 1240:1 1265:1 1292:1 1313:1 1354:1 1374:3
-1 246:1 349:1 358:1 486:1 541:1 559:1 642:1 677:1 681:1 699:1 701:1 760:1 787:1 907:1 945:1 953:1 978:1 1020:1 1100:1 1207:1 1231:1 1237:1 1240:1 1241:1 1275:1 1292:1 1300:1 1313:1 1354:1 1356:1 1369:1 1374:2
-1 148:1 163:1 214:1 246:1 356:1 541:1 559:1 681:1 701:1 895:1 907:1 978:1 1146:1 1231:1 1237:1 1241:1 1292:1 1300:1 1313:1 1350:1 1356:1 1374:1
-1 246:1 406:1 460:1 559:1 576:1 681:1 981:1 1027:1 1231:1 1236:1 1239:1 1265:1 1292:1 1313:1 1325:1 1374:2
-1 131:1 246:1 349:1 406:1 559:1 681:1 981:1 1225:1 1231:1 1236:1 1239:1 1292:1 1313:1 1354:1 1374:1 1376:1
-1 349:1 559:1 631:1 825:1 1203:1 1313:1 1354:1 1374:6
-1 382:1 1219:1 1374:5
-1 246:1 308:1 349:1 523:1 536:1 541:1 550:1 559:1 570:1 634:1 681:1 701:1 780:1 907:1 955:1 978:1 981:1 1231:1 1237:1 1239:1 1241:1 1292:1 1297:1 1300:1 1306:1 1313:1 1335:1 1354:1 1356:1 1357:1 1374:2 1376:61
-1 131:1 246:1 541:1 559:1 681:1 701:1 907:1 981:1 1225:1 1231:1 1239:1 1241:1 1292:1 1300:1 1313:1 1356:1 1374:3
-1 150:1 699:1 1240:1 1374:2
-1 559:1 699:1 1240:1 1313:1 1374:1
-1 246:1 349:1 406:1 541:1 559:1 681:1 701:1 907:1 978:1 981:1 1231:1 1236:1 1237:1 1239:1 1241:1 1292:1 1300:1 1313:1 1354:1 1356:1 1374:4
-1 349:1 559:1 1020:1 1313:1 1354:1 1374:2
-1 246:1 559:1 681:1 907:1 978:1 1231:1 1237:1 1292:1 1313:1 1356:1 1374:1
-1 382:1 1219:1 1374:3
-1 246:1 349:1 374:1 406:1 407:1 559:1 642:1 677:1 681:1 699:1 701:1 703:1 741:1 760:1 810:1 907:1 945:1 953:1 981:1 1100:1 1231:1 1235:1 1236:1 1239:1 1240:1 1241:1 1258:1 1291:1 1292:1 1313:1 1354:1 1356:1 1374:1
-1 246:1 349:1 406:1 559:1 681:1 981:1 1231:1 1236:1 1239:1 1292:1 1313:1 1354:1 1374:2
-1 559:1 736:1 1313:1 1374:2
-1 246:1 349:1 559:1 1292:1 1313:1 1354:1 1374:4
-1 349:2 559:1 755:1 780:1 1266:1 1313:1 1354:2 1374:3
-1 246:1 393:1 559:1 981:1 1239:1 1292:1 1313:1 1374:2
-1 246:1 393:1 559:1 981:1 1239:1 1292:1 1313:1 1374:2
-1 246:1 336:1 349:1 466:1 505:1 559:1 781:1 1292:1 1313:1 1354:1 1374:3
-1 349:1 550:1 559:1 955:1 1042:1 1306:1 1313:1 1354:1 1374:2
-1 559:1 681:1 780:1 1231:1 1313:1 1374:2
-1 559:1 681:1 1027:1 1231:1 1313:1 1374:1
-1 349:2 559:1 780:1 1313:1 1354:2 1374:3
-1 131:1 246:2 406:2 541:1 559:4 656:1 681:2 701:1 780:1 907:1 981:1 1225:1 1231:2 1236:2 1239:1 1241:1 1292:2 1300:1 1313:4 1356:1 1373:1 1374:6
-1 131:1 246:2 406:2 559:4 681:2 701:1 780:1 907:1 978:1 1225:1 1231:2 1236:2 1237:1 1241:1 1292:2 1313:4 1356:1 1374:6
-1 128:1 131:1 175:1 193:1 246:1 334:1 406:1 460:1 486:1 525:1 541:1 559:1 576:1 621:1 634:1 681:1 701:1 755:1 837:1 895:1 907:1 981:1 1207:1 1223:1 1225:1 1231:1 1236:1 1239:1 1241:1 1251:1 1265:1 1266:1 1275:1 1292:1 1294:1 1300:1 1302:1 1313:1 1325:1 1346:1 1348:1 1350:1 1356:1 1357:1 1369:1 1374:2
-1 382:1 1219:1 1374:3
-1 382:1 1219:1 1374:2
-1 246:2 406:2 530:1 559:4 581:1 681:1 1231:1 1236:2 1292:2 1313:4 1374:5
-1 131:1 246:2 406:3 550:2 559:4 681:2 701:1 907:1 955:1 978:1 981:1 1225:1 1231:2 1236:3 1237:1 1239:1 1241:1 1292:2 1306:2 1313:4 1356:1 1374:6
-1 455:1 530:1 550:1 559:1 955:1 1008:1 1306:1 1313:1 1374:4
-1 246:1 541:1 559:1 681:1 701:1 907:1 981:1 1231:1 1239:1 1241:1 1292:1 1300:1 1313:1 1356:1 1374:2
-1 142:1 241:1 349:1 445:1 506:1 642:1 677:1 759:1 760:1 766:1 777:1 811:1 881:1 945:1 953:1 1031:1 1100:1 1131:1 1207:1 1354:1 1369:1 1374:2
-1 349:1 559:1 1313:1 1354:1 1374:5
-1 349:2 559:1 1313:1 1354:2 1374:3
-1 382:1 1219:1 1374:4
-1 1112:1 1310:1 1374:1
-1 142:1 178:1 216:1 241:1 246:1 305:1 349:1 352:1 374:1 403:1 445:1 481:1 506:1 512:1 567:1 586:1 607:1 635:1 639:1 642:1 677:1 699:1 703:1 729:1 730:1 752:1 759:1 760:1 777:1 831:1 876:1 881:1 927:1 934:1 945:1 952:1 953:1 958:1 1022:1 1029:1 1050:1 1100:1 1104:1 1123:1 1132:1 1240:1 1292:1 1354:1 1374:3
-1 241:1 349:1 506:1 642:1 677:1 759:1 760:1 876:1 945:1 953:1 1100:1 1104:1 1123:1 1354:1 1374:2
-1 382:1 1219:1 1374:2
-1 246:1 541:1 559:1 656:1 681:1 701:1 755:1 907:1 978:1 1231:1 1237:1 1241:1 1266:1 1292:1 1300:1 1313:1 1356:1 1373:1 1374:1
-1 1112:1 1310:1 1374:1
-1 246:2 406:1 559:2 681:2 701:1 1231:2 1236:1 1241:1 1292:2 1313:2 1374:7
-1 246:1 349:1 406:1 498:1 541:1 559:1 681:1 699:1 701:1 703:1 895:1 903:1 907:1 1231:1 1236:1 1240:1 1241:1 1281:1 1292:1 1300:1 1313:1 1350:1 1354:1 1356:1 1374:2
-1 131:1 246:1 541:1 559:1 681:1 701:1 907:1 981:1 1225:1 1231:1 1239:1 1241:1 1292:1 1300:1 1313:1 1356:1 1374:3
-1 1112:1 1310:1 1374:1
-1 1374:3
-1 246:1 349:1 559:1 699:1 1240:1 1292:1 1313:1 1354:1 1374:2
-1 128:1 227:1 246:1 300:1 349:1 460:1 541:1 559:1 634:1 681:1 701:1 755:1 810:1 907:1 978:1 981:1 1223:1 1231:1 1237:1 1239:1 1241:1 1265:1 1266:1 1279:1 1291:1 1292:1 1300:1 1313:1 1329:1 1354:1 1356:1 1357:1 1374:4
-1 382:1 1219:1 1374:3
-1 131:1 246:2 406:2 541:1 559:4 681:2 701:1 907:1 1225:1 1231:2 1236:2 1241:1 1292:2 1300:1 1313:4 1356:1 1374:6
-1 266:1 349:1 559:1 981:1 1239:1 1313:1 1354:1 1374:1
-1 406:1 494:1 981:1 1145:1 1236:1 1239:1 1374:2
-1 349:2 559:1 1313:1 1354:2 1374:5
-1 246:1 541:1 559:1 681:1 1231:1 1292:1 1300:1 1313:1 1374:3
-1 382:1 1219:1 1374:2
-1 188:1 205:1 241:1 349:1 417:1 445:1 506:1 614:1 642:1 677:1 699:1 703:1 730:1 748:1 759:1 760:1 766:1 869:1 945:1 953:1 1022:1 1054:1 1100:1 1104:1 1111:1 1131:1 1240:1 1354:1 1374:3
-1 131:1 246:1 541:1 559:1 681:1 701:1 907:1 981:1 1225:1 1231:1 1239:1 1241:1 1292:1 1300:1 1313:1 1356:1 1374:3
-1 382:1 1219:1 1374:3
-1 131:1 246:2 365:1 406:3 541:1 550:3 559:5 621:1 656:1 681:2 701:1 907:1 978:1 981:2 1225:1 1231:2 1236:3 1237:1 1239:2 1241:1 1292:2 1300:1 1306:3 1313:5 1348:1 1356:1 1370:1 1373:1 1374:6
-1 382:1 1219:1 1374:3
-1 559:1 1189:1 1313:1 1374:3
-1 455:1 550:1 559:1 685:1 955:1 1161:1 1306:1 1313:1 1374:1
-1 455:1 550:1 559:1 685:1 955:1 1306:1 1313:1 1374:1
-1 455:1 550:1 559:1 685:1 955:1 1161:1 1306:1 1313:1 1374:1
-1 207:1 246:1 247:1 395:1 402:1 471:1 559:1 951:1 1292:1 1313:1 1374:1
-1 1112:1 1310:1 1374:1
-1 559:1 1313:1 1374:2
-1 349:2 429:1 466:1 497:1 505:1 559:1 781:1 804:1 1066:1 1313:1 1354:2 1374:2
-1 246:1 541:1 559:1 681:1 907:1 978:1 1231:1 1237:1 1292:1 1300:1 1313:1 1356:1 1374:1
-1 559:1 918:1 1313:1 1374:3
-1 559:1 918:1 1313:1 1374:3
-1 559:1 918:1 1313:1 1374:3
-1 559:1 918:1 1313:1 1374:3
-1 246:1 310:1 559:1 632:1 636:1 681:1 907:1 1231:1 1292:1 1313:1 1356:1 1374:2
-1 131:1 246:3 365:1 406:2 541:2 559:5 681:2 701:1 780:1 907:1 978:1 981:1 1177:1 1225:1 1231:2 1236:2 1237:1 1239:1 1241:1 1292:3 1300:2 1313:5 1347:1 1356:1 1370:1 1374:6
-1 246:1 349:1 460:1 541:1 559:1 1265:1 1292:1 1300:1 1313:1 1354:1 1374:6
-1 117:1 174:1 237:1 241:1 250:1 280:1 298:1 349:1 358:1 406:1 417:1 420:1 426:1 445:1 469:1 486:1 489:1 506:1 567:1 614:1 642:1 677:1 686:1 699:1 703:1 730:1 748:1 759:1 760:1 764:1 777:1 792:1 811:1 831:1 869:1 876:1 877:1 881:1 927:1 945:1 953:1 1022:1 1054:1 1060:1 1068:1 1095:1 1100:1 1104:1 1123:1 1131:1 1236:1 1240:1 1275:1 1328:1 1354:1 1374:2
-1 241:1 349:1 506:1 541:1 559:1 642:1 677:1 699:1 760:1 869:1 877:1 881:1 945:1 953:1 1022:1 1100:1 1240:1 1300:1 1313:1 1354:1 1374:2
-1 142:1 241:1 307:1 349:1 406:1 420:1 445:1 506:1 551:1 567:1 639:1 642:1 677:1 699:1 703:1 723:1 729:1 759:1 760:1 777:1 811:1 823:1 849:1 869:1 876:1 881:1 945:1 953:1 967:1 971:1 1022:1 1068:1 1100:1 1104:1 1123:1 1126:1 1236:1 1240:1 1354:1 1374:2
-1 132:1 349:1 460:1 559:1 642:1 677:1 681:1 703:1 760:1 945:1 953:1 1226:1 1231:1 1265:1 1313:1 1354:1 1374:1
-1 246:1 349:1 559:1 642:1 677:1 760:1 945:1 953:1 1100:1 1292:1 1313:1 1354:1 1374:3
-1 1112:1 1310:1 1374:1
-1 131:1 246:1 541:1 559:1 681:1 701:1 907:1 981:1 1225:1 1231:1 1239:1 1241:1 1292:1 1300:1 1313:1 1356:1 1374:3
-1 382:1 1219:1 1374:3
-1 246:1 349:1 406:1 559:1 681:1 699:1 741:1 981:1 1231:1 1236:1 1239:1 1240:1 1258:1 1292:1 1313:1 1354:1 1374:2
-1 559:1 1313:1 1374:1
-1 205:1 246:1 349:1 406:1 541:1 559:1 681:1 699:1 701:1 703:1 907:1 1231:1 1236:1 1240:1 1241:1 1292:1 1300:1 1313:1 1354:1 1356:1 1374:1
-1 382:1 1219:1 1374:2
-1 349:1 559:1 681:1 1231:1 1313:1 1354:1 1374:3
-1 246:1 406:1 559:1 634:1 652:1 681:1 690:1 701:1 907:1 978:1 981:1 1152:1 1231:1 1236:1 1237:1 1239:1 1241:1 1292:1 1313:1 1334:1 1356:1 1357:1 1371:1 1374:2
-1 246:1 406:1 559:1 634:1 652:1 681:1 690:1 701:1 907:1 978:1 981:1 1152:1 1231:1 1236:1 1237:1 1239:1 1241:1 1292:1 1313:1 1334:1 1356:1 1357:1 1371:1 1374:2
-1 142:1 188:1 241:1 406:1 417:1 445:1 506:1 642:1 657:1 665:1 677:1 693:1 703:1 728:1 730:1 759:1 760:1 811:1 834:1 876:1 881:1 901:1 945:1 953:1 1022:1 1100:1 1118:1 1132:1 1236:1 1374:1
-1 246:1 349:1 541:1 559:1 681:1 907:1 1092:1 1231:1 1292:1 1299:1 1300:1 1313:1 1354:1 1356:1 1374:2
-1 131:1 246:2 406:2 559:4 634:1 681:2 701:1 907:1 1092:1 1225:1 1231:2 1236:2 1241:1 1292:2 1299:1 1313:4 1356:1 1357:1 1374:6
-1 246:1 308:1 349:1 541:1 559:1 618:1 681:1 701:1 907:1 1231:1 1241:1 1292:1 1300:1 1313:1 1335:1 1354:1 1356:1 1374:2
-1 246:2 406:2 541:1 559:4 681:2 701:1 780:1 907:1 1231:2 1236:2 1241:1 1292:2 1300:1 1313:4 1356:1 1374:6
-1 559:1 1313:1 1374:1
-1 559:1 1313:1 1374:2
-1 382:1 1219:1 1374:3
-1 628:1 1374:2
-1 246:1 349:2 541:1 559:1 681:1 701:1 780:1 907:1 978:1 981:1 1231:1 1237:1 1239:1 1241:1 1292:1 1300:1 1313:1 1354:2 1356:1 1374:2
-1 349:1 559:1 1313:1 1354:1 1374:2
-1 131:1 246:1 406:1 460:1 541:1 559:1 681:1 701:1 864:1 907:1 978:1 981:1 1134:1 1207:1 1225:1 1231:1 1236:1 1237:1 1239:1 1241:1 1265:1 1292:1 1300:1 1313:1 1356:1 1369:1 1374:2
-1 131:1 246:1 406:1 541:1 559:1 681:1 701:1 907:1 978:1 981:1 1225:1 1231:1 1236:1 1237:1 1239:1 1241:1 1292:1 1300:1 1313:1 1356:1 1374:1
-1 131:1 246:1 349:1 559:1 681:1 703:1 1207:1 1225:1 1231:1 1292:1 1313:1 1354:1 1369:1 1374:1
-1 188:1 241:1 417:1 506:1 642:1 693:1 699:1 759:1 760:1 869:1 876:1 901:1 945:1 953:1 1022:1 1100:1 1104:1 1111:1 1211:1 1240:1 1374:2
-1 131:1 246:1 349:1 559:1 681:1 699:1 703:1 755:1 1225:1 1231:1 1240:1 1266:1 1292:1 1313:1 1354:1 1374:1 1376:3
-1 241:1 349:1 417:1 486:1 506:1 567:1 642:1 677:1 699:1 703:1 734:1 759:1 760:1 777:1 869:1 945:1 953:1 1022:1 1060:1 1100:1 1207:1 1240:1 1275:1 1354:1 1369:1 1374:1
-1 246:1 406:1 541:1 559:1 681:1 701:1 907:1 978:1 981:1 1231:1 1236:1 1237:1 1239:1 1241:1 1292:1 1300:1 1313:1 1356:1 1374:1
-1 382:1 1219:1 1374:4
-1 137:1 248:1 349:1 406:1 531:1 694:1 699:1 893:1 894:1 946:1 1236:1 1240:1 1354:1 1374:1
-1 152:1 301:1 349:1 406:1 473:1 506:1 515:1 527:1 568:1 609:1 625:1 677:1 699:1 735:1 782:1 811:1 818:1 846:1 953:1 961:1 969:1 990:1 1000:1 1124:1 1132:1 1236:1 1240:1 1354:1 1374:1
-1 237:1 241:1 305:1 307:1 349:1 370:1 406:1 426:1 445:1 506:1 512:1 642:1 677:1 699:1 703:1 759:1 760:1 766:1 811:1 869:1 876:1 877:1 945:1 952:1 953:1 985:1 1021:1 1022:1 1054:1 1100:1 1111:1 1236:1 1240:1 1354:1 1374:2
-1 382:1 1219:1 1374:3
-1 349:1 559:1 781:1 1313:1 1354:1 1374:2
-1 382:1 1219:1 1374:3
-1 142:1 241:1 246:1 307:1 349:1 365:1 445:1 460:1 469:1 495:1 506:1 559:1 567:1 639:1 642:1 667:1 677:1 681:1 699:1 701:1 703:1 729:1 730:1 760:1 777:1 810:1 842:1 869:1 876:1 907:1 945:1 953:1 1023:1 1050:1 1100:1 1104:1 1155:1 1231:1 1240:1 1241:1 1265:1 1291:1 1292:1 1313:1 1354:1 1356:1 1370:1 1374:3
-1 382:1 1219:1 1374:3
-1 382:1 1219:1 1374:3
-1 382:1 1219:1 1374:3
-1 246:1 349:1 559:1 681:1 701:1 1231:1 1241:1 1292:1 1313:1 1354:1 1374:2
-1 559:1 1313:1 1374:1
-1 246:1 379:1 523:1 536:1 541:1 559:1 634:1 681:1 701:1 907:1 978:1 981:1 1186:1 1216:1 1231:1 1237:1 1239:1 1241:1 1292:1 1297:1 1300:1 1313:1 1356:1 1357:1 1374:2 1376:2
-1 246:1 349:1 541:1 559:1 681:1 1231:1 1292:1 1300:1 1313:1 1354:1 1374:3
-1 246:2 406:1 559:4 681:3 701:1 1231:3 1236:1 1241:1 1292:2 1313:4 1374:4
-1 117:1 241:1 349:1 358:1 398:1 445:1 506:1 642:1 677:1 699:1 728:1 759:1 760:1 834:1 858:1 869:1 945:1 953:1 1022:1 1054:1 1095:1 1100:1 1104:1 1111:1 1123:1 1131:1 1207:1 1240:1 1354:1 1369:1 1374:2
-1 299:1 349:1 559:1 659:1 1313:1 1354:1 1374:3
-1 349:1 559:1 631:1 825:1 1203:1 1313:1 1354:1 1374:6
-1 349:1 559:1 631:1 825:1 1203:1 1313:1 1354:1 1374:6
-1 349:1 559:1 631:1 825:1 1203:1 1313:1 1354:1 1374:5
-1 349:1 559:1 631:1 825:1 1203:1 1313:1 1354:1 1374:5
-1 300:1 349:2 466:1 505:1 559:1 781:1 1313:1 1329:1 1354:2 1374:2
-1 188:1 241:1 642:1 693:1 699:1 703:1 754:1 760:1 876:1 901:1 945:1 953:1 1100:1 1240:1 1374:2
-1 188:1 241:1 642:1 693:1 699:1 703:1 754:1 760:1 876:1 901:1 945:1 953:1 1100:1 1240:1 1374:2
-1 349:1 559:1 1313:1 1354:1 1374:6
-1 382:1 1219:1 1374:3
-1 241:1 307:1 349:1 406:1 411:1 445:1 486:1 506:1 551:1 567:1 639:1 642:1 677:1 703:1 723:1 759:1 760:1 766:1 777:1 869:1 876:1 881:1 945:1 953:1 971:1 1022:1 1030:1 1100:1 1104:1 1118:1 1123:1 1236:1 1275:1 1354:1 1374:2
-1 176:1 212:1 307:1 349:1 406:1 445:1 506:1 642:1 677:1 703:1 723:1 759:1 760:1 777:1 811:1 869:1 877:1 945:1 953:1 971:1 1022:1 1068:1 1100:1 1104:1 1114:1 1123:1 1236:1 1354:1 1374:2
-1 241:1 266:1 307:1 349:1 486:1 506:1 511:1 567:1 607:1 639:1 642:1 677:1 699:1 703:1 759:1 760:1 777:1 792:1 811:1 876:1 881:1 945:1 953:1 1022:1 1023:1 1035:1 1100:1 1104:1 1123:1 1211:1 1240:1 1275:1 1286:1 1354:1 1374:2
-1 246:1 349:1 445:1 495:1 506:1 642:1 677:1 703:1 723:1 760:1 854:1 869:1 945:1 953:1 1072:1 1100:1 1207:1 1292:1 1354:1 1369:1 1374:2
-1 226:1 349:1 406:1 445:1 506:1 551:1 567:1 639:1 642:1 677:1 703:1 723:1 760:1 777:1 869:1 945:1 953:1 967:1 971:1 1022:1 1068:1 1100:1 1114:1 1207:1 1236:1 1354:1 1369:1 1374:2
-1 382:1 1219:1 1374:3
-1 382:1 1219:1 1374:2
-1 128:1 241:1 349:1 445:1 642:1 677:1 699:1 759:1 760:1 869:1 945:1 953:1 1022:1 1100:1 1223:1 1240:1 1354:1 1374:2
-1 382:1 1219:1 1374:3
-1 348:1 349:2 559:1 631:1 655:1 681:1 795:1 1196:1 1203:1 1231:1 1313:1 1354:2 1374:4
-1 246:1 559:1 1292:1 1313:1 1374:2
-1 382:1 1219:1 1374:3
-1 382:1 1219:1 1374:3
-1 382:1 1219:1 1374:3
-1 349:1 559:1 699:1 994:1 1240:1 1247:1 1313:1 1354:1 1374:2
-1 131:1 246:1 406:1 460:1 541:1 559:1 681:1 701:1 864:1 1207:1 1225:1 1231:1 1236:1 1241:1 1265:1 1292:1 1300:1 1313:1 1369:1 1374:1 1376:3
-1 131:1 246:1 559:1 681:1 701:1 907:1 1225:1 1231:1 1241:1 1292:1 1313:1 1356:1 1374:2
-1 175:1 246:1 406:1 460:1 559:1 681:1 701:1 907:1 981:1 1231:1 1236:1 1239:1 1241:1 1251:1 1265:1 1292:1 1313:1 1356:1 1374:1
-1 382:1 1219:1 1374:3
-1 559:1 1313:1 1374:1
-1 246:1 349:1 358:1 486:1 495:1 541:1 559:1 642:1 677:1 681:1 701:1 703:1 760:1 787:1 945:1 953:1 981:1 1100:1 1231:1 1239:1 1241:1 1275:1 1292:1 1300:1 1313:1 1354:1 1374:2
-1 246:1 349:1 460:1 541:1 642:1 677:1 703:1 760:1 945:1 953:1 981:1 1100:1 1239:1 1265:1 1292:1 1300:1 1354:1 1374:3
-1 349:1 559:1 1313:1 1354:1 1374:2 1376:1
-1 349:1 559:1 1313:1 1354:1 1374:2 1376:1
-1 246:1 406:1 407:1 460:1 541:1 550:1 559:1 634:1 681:1 701:1 907:1 955:1 978:1 981:1 1231:1 1235:1 1236:1 1237:1 1239:1 1241:1 1265:1 1292:1 1300:1 1306:1 1313:1 1356:1 1357:1 1374:2
-1 246:1 406:1 407:1 460:1 541:1 550:1 559:1 634:1 681:1 701:1 907:1 955:1 978:1 981:1 1231:1 1235:1 1236:1 1237:1 1239:1 1241:1 1265:1 1292:1 1300:1 1306:1 1313:1 1356:1 1357:1 1374:3
-1 246:1 349:1 530:1 559:1 1128:1 1292:1 1313:1 1354:1 1374:3
-1 246:2 406:1 559:4 681:3 701:1 1231:3 1236:1 1241:1 1292:2 1313:4 1374:4
-1 131:1 246:1 349:1 358:1 406:1 445:1 460:1 559:1 642:1 656:1 677:1 697:1 699:1 703:1 755:1 760:1 806:1 945:1 953:1 1100:1 1157:1 1225:1 1236:1 1240:1 1265:1 1266:1 1292:1 1313:1 1354:1 1373:1 1374:2
-1 131:1 182:1 214:1 246:1 406:1 460:1 541:1 559:1 681:1 701:1 895:1 897:1 907:1 981:1 1225:1 1231:1 1236:1 1239:1 1241:1 1265:1 1292:1 1300:1 1313:1 1350:1 1356:1 1374:1
-1 246:1 541:1 559:1 681:1 701:1 755:1 895:1 907:1 978:1 1231:1 1237:1 1241:1 1266:1 1292:1 1300:1 1313:1 1350:1 1356:1 1374:1
-1 131:1 246:1 541:1 559:1 681:1 701:1 907:1 981:1 1225:1 1231:1 1239:1 1241:1 1292:1 1300:1 1313:1 1356:1 1374:2
-1 131:1 246:2 406:2 541:2 559:4 681:2 701:1 907:1 978:1 981:1 1225:1 1231:2 1236:2 1237:1 1239:1 1241:1 1292:2 1300:2 1313:4 1356:1 1374:6
-1 246:2 406:1 559:2 681:2 701:1 1231:2 1236:1 1241:1 1292:2 1313:2 1374:7
-1 382:1 1219:1 1374:3
-1 237:1 241:1 280:1 349:1 420:1 506:1 614:1 642:1 677:1 699:1 759:1 760:1 811:1 869:1 876:1 881:1 945:1 953:1 1022:1 1100:1 1111:1 1123:1 1132:1 1240:1 1354:1 1374:2
-1 349:1 506:1 559:1 642:1 677:1 699:1 741:1 759:1 760:1 811:1 835:1 877:1 881:1 945:1 953:1 985:1 1100:1 1240:1 1258:1 1313:1 1354:1 1374:2
-1 382:1 1219:1 1374:3
-1 382:1 1219:1 1374:2
-1 246:2 406:2 559:4 681:3 701:1 1231:3 1236:2 1241:1 1292:2 1313:4 1374:6
-1 1112:1 1310:1 1374:3
-1 1112:1 1310:1 1374:2
-1 1112:1 1310:1 1374:2
-1 1112:1 1310:1 1374:2
-1 1112:1 1310:1 1374:2
-1 1112:1 1310:1 1374:2
-1 1112:1 1310:1 1374:1
-1 1112:1 1310:1 1374:1
-1 1112:1 1310:1 1374:2
-1 1112:1 1310:1 1374:1
-1 1112:1 1310:1 1374:1
-1 1112:1 1310:1 1374:1
-1 246:1 349:1 460:1 559:1 567:1 639:1 642:1 677:1 681:1 703:1 741:1 760:1 945:1 953:1 1100:1 1231:1 1258:1 1265:1 1292:1 1313:1 1354:1 1374:3
-1 117:1 246:1 267:1 298:1 334:1 349:1 358:1 406:1 486:1 511:1 551:1 559:1 596:1 622:1 639:1 642:1 677:1 681:1 703:1 760:1 837:1 858:1 876:1 907:1 945:1 953:1 981:1 1030:1 1100:1 1207:1 1231:1 1236:1 1239:1 1275:1 1286:1 1292:1 1301:1 1302:1 1313:1 1328:1 1337:1 1346:1 1354:1 1356:1 1369:1 1374:1
-1 349:1 506:1 642:1 677:1 760:1 777:1 945:1 953:1 1100:1 1114:1 1354:1 1374:2
-1 246:1 406:1 460:1 559:1 681:1 701:1 907:1 978:1 981:1 1152:1 1231:1 1236:1 1237:1 1239:1 1241:1 1265:1 1292:1 1313:1 1334:1 1356:1 1374:1
-1 382:1 1219:1 1374:4
-1 382:1 1219:1 1374:3
-1 349:2 559:1 780:1 1313:1 1354:2 1374:3
-1 349:2 559:1 1313:1 1354:2 1374:2
-1 241:1 349:1 506:1 642:1 677:1 699:1 703:1 760:1 876:1 877:1 945:1 953:1 1100:1 1104:1 1131:1 1240:1 1354:1 1374:1
-1 559:1 565:1 918:1 1046:1 1313:1 1374:2
-1 246:2 406:1 559:2 681:2 701:1 1231:2 1236:1 1241:1 1292:2 1313:2 1374:7
-1 246:1 349:1 406:1 460:1 541:1 559:1 581:1 681:1 810:1 895:1 907:1 978:1 981:1 1074:1 1113:1 1173:1 1231:1 1236:1 1237:1 1239:1 1265:1 1291:1 1292:1 1300:1 1313:1 1350:1 1354:1 1356:1 1374:1 1376:43
-1 246:1 541:1 559:1 681:1 907:1 1231:1 1292:1 1300:1 1313:1 1356:1 1374:2
-1 349:1 559:1 681:1 1231:1 1313:1 1354:1 1374:2
-1 141:1 246:1 412:1 559:1 805:1 865:1 1292:1 1313:1 1374:2
-1 131:1 175:1 246:1 349:1 406:1 407:1 460:1 541:1 559:1 681:1 701:1 837:1 907:1 981:1 1207:1 1225:1 1231:1 1235:1 1236:1 1239:1 1241:1 1251:1 1265:1 1292:1 1300:1 1302:1 1313:1 1354:1 1356:1 1369:1 1374:3
-1 201:1 241:1 307:1 315:1 349:1 352:1 360:1 381:1 506:1 642:1 677:1 699:1 748:1 759:1 760:1 876:1 878:1 881:1 945:1 953:1 958:1 1100:1 1103:1 1123:1 1185:1 1240:1 1354:1 1374:2
-1 246:1 349:1 406:1 541:1 559:1 681:1 981:1 1231:1 1236:1 1239:1 1292:1 1300:1 1313:1 1354:1 1374:2
-1 131:1 246:1 406:1 541:1 559:1 681:1 701:1 907:1 978:1 981:1 1225:1 1231:1 1236:1 1237:1 1239:1 1241:1 1292:1 1300:1 1313:1 1356:1 1374:2
-1 131:1 191:1 220:1 237:1 241:1 246:1 298:1 307:1 349:1 506:1 541:1 559:1 642:1 677:1 681:1 699:1 703:1 711:1 760:1 811:1 823:1 869:1 927:1 945:1 953:1 1022:1 1100:1 1123:1 1225:1 1231:1 1240:1 1292:1 1300:1 1313:1 1328:1 1354:1 1374:3
-1 131:1 246:1 559:1 681:1 701:1 907:1 1225:1 1231:1 1241:1 1292:1 1313:1 1356:1 1374:2
-1 131:1 246:1 559:1 681:1 701:1 907:1 1225:1 1231:1 1241:1 1292:1 1313:1 1356:1 1374:2
-1 246:1 406:1 541:1 559:1 681:1 701:1 978:1 981:1 1231:1 1236:1 1237:1 1239:1 1241:1 1292:1 1300:1 1313:1 1374:1
-1 382:1 1219:1 1374:3
-1 246:2 406:1 559:2 681:2 701:1 1231:2 1236:1 1241:1 1292:2 1313:2 1374:7
-1 246:1 266:1 274:1 331:1 349:1 406:1 460:1 486:1 525:1 541:1 559:1 667:1 681:1 699:1 895:1 907:1 981:1 1207:1 1231:1 1236:1 1239:1 1240:1 1265:1 1275:1 1292:1 1294:1 1300:1 1313:1 1350:1 1354:1 1356:1 1369:1 1374:1
-1 246:1 349:1 541:1 559:1 681:1 1231:1 1292:1 1300:1 1313:1 1354:1 1374:4
-1 128:1 559:1 918:1 1183:1 1223:1 1313:1 1374:3
-1 128:1 451:1 559:1 918:1 1223:1 1313:1 1374:3
-1 131:1 246:2 406:2 559:5 681:2 701:1 907:1 1225:1 1231:2 1236:2 1241:1 1292:2 1313:5 1356:1 1374:6
-1 246:1 541:1 559:1 681:1 701:1 1231:1 1241:1 1292:1 1300:1 1313:1 1374:1
-1 354:1 559:1 1313:1 1374:1
-1 246:1 349:1 559:1 681:1 703:1 1231:1 1292:1 1313:1 1354:1 1374:2
-1 246:1 349:2 486:1 559:1 681:1 755:1 907:1 1011:1 1183:1 1231:1 1266:1 1275:1 1292:1 1313:1 1354:2 1356:1 1374:4 1376:5590
-1 246:2 406:1 559:2 681:2 701:1 1231:2 1236:1 1241:1 1292:2 1313:2 1374:7
-1 246:1 349:1 541:1 559:1 681:1 1231:1 1292:1 1300:1 1313:1 1354:1 1374:4
-1 246:1 349:1 407:1 457:1 495:1 541:1 559:1 681:1 699:1 701:1 842:1 981:1 1231:1 1235:1 1239:1 1240:1 1241:1 1292:1 1300:1 1313:1 1354:1 1374:2
-1 146:1 240:1 246:1 307:1 349:1 358:1 445:1 559:1 642:1 677:1 681:1 699:1 703:1 759:1 760:1 787:1 881:1 945:1 953:1 1022:1 1100:1 1158:1 1207:1 1231:1 1240:1 1290:1 1292:1 1313:1 1338:1 1354:1 1369:1 1374:3
-1 349:1 506:1 517:1 592:1 642:1 677:1 703:1 760:1 945:1 953:1 1050:1 1100:1 1354:1 1374:2
-1 131:1 246:1 541:1 559:1 681:1 701:1 907:1 981:1 1225:1 1231:1 1239:1 1241:1 1292:1 1300:1 1313:1 1356:1 1374:3
-1 214:1 246:1 300:1 406:1 460:1 559:1 681:1 701:1 907:1 981:1 1192:1 1231:1 1236:1 1239:1 1241:1 1265:1 1292:1 1313:1 1329:1 1356:1 1374:2
-1 247:1 559:1 767:1 935:1 944:1 1313:1 1374:2
-1 131:1 246:1 247:1 406:1 460:1 541:1 559:1 681:1 701:1 767:1 907:1 935:1 944:1 981:1 1225:1 1231:1 1236:1 1239:1 1241:1 1265:1 1292:1 1300:1 1313:1 1356:1 1374:1
-1 382:1 1219:1 1374:4
-1 382:1 1219:1 1374:2
-1 382:1 1219:1 1374:3
-1 382:1 1219:1 1374:2
-1 382:1 1219:1 1374:3
-1 246:2 406:1 559:2 681:2 701:1 1231:2 1236:1 1241:1 1292:2 1313:2 1374:7
-1 382:1 1219:1 1374:3
-1 131:1 246:1 541:1 559:1 681:1 701:1 907:1 981:1 1225:1 1231:1 1239:1 1241:1 1292:1 1300:1 1313:1 1356:1 1374:3
-1 382:1 1219:1 1374:2
-1 382:1 1219:1 1374:2
-1 382:1 1219:1 1374:2
-1 382:1 1219:1 1374:2
-1 332:1 550:1 559:1 669:1 984:1 1306:1 1313:1 1374:3 1376:66
-1 222:1 550:1 559:1 973:1 980:1 1306:1 1313:1 1374:1 1376:66
-1 382:1 1219:1 1374:2
-1 237:1 241:1 304:1 307:1 349:1 358:1 406:1 417:1 445:1 506:1 551:1 677:1 703:1 723:1 759:1 760:1 766:1 777:1 784:1 811:1 858:1 876:1 881:1 945:1 953:1 1022:1 1023:1 1100:1 1104:1 1157:1 1207:1 1236:1 1354:1 1369:1 1374:2
-1 188:1 241:1 506:1 512:1 567:1 639:1 642:1 677:1 693:1 703:1 729:1 760:1 876:1 901:1 945:1 953:1 1100:1 1104:1 1123:1 1374:2
-1 128:1 246:1 406:1 460:1 541:1 559:1 681:1 837:1 907:1 978:1 1223:1 1231:1 1236:1 1237:1 1265:1 1292:1 1300:1 1302:1 1313:1 1356:1 1374:1
-1 246:2 406:1 559:4 681:3 701:1 1231:3 1236:1 1241:1 1292:2 1313:4 1374:5
-1 246:1 559:1 681:1 1231:1 1292:1 1313:1 1374:1
-1 246:1 541:1 559:1 681:1 701:1 907:1 1231:1 1241:1 1292:1 1300:1 1313:1 1356:1 1374:1
-1 246:1 541:1 559:1 681:1 701:1 907:1 1231:1 1241:1 1292:1 1300:1 1313:1 1356:1 1374:1
-1 246:1 541:1 559:1 681:1 1231:1 1292:1 1300:1 1313:1 1374:1
-1 246:1 541:1 559:1 681:1 1231:1 1292:1 1300:1 1313:1 1374:1
-1 121:1 131:1 246:1 406:1 460:1 498:1 525:1 536:1 541:1 559:1 656:1 681:1 741:1 907:1 978:1 981:1 1152:1 1217:1 1225:1 1231:1 1236:1 1237:1 1239:1 1258:1 1265:1 1281:1 1292:1 1294:1 1297:1 1300:1 1313:1 1334:1 1356:1 1373:1 1374:1
-1 121:1 131:1 246:1 406:1 460:1 498:1 525:1 536:1 541:1 559:1 656:1 681:1 741:1 907:1 978:1 981:1 1152:1 1217:1 1225:1 1231:1 1236:1 1237:1 1239:1 1258:1 1265:1 1281:1 1292:1 1294:1 1297:1 1300:1 1313:1 1334:1 1356:1 1373:1 1374:1
-1 349:1 455:1 550:1 559:1 1306:1 1313:1 1354:1 1374:3
-1 246:1 559:1 681:1 907:1 978:1 1231:1 1237:1 1292:1 1313:1 1356:1 1374:1
-1 349:1 486:1 541:1 559:1 642:1 647:1 677:1 681:1 699:1 760:1 911:1 945:1 953:1 1100:1 1231:1 1240:1 1275:1 1300:1 1313:1 1354:1 1360:1 1374:2
-1 246:1 406:1 460:1 541:1 559:1 681:1 907:1 981:1 1231:1 1236:1 1239:1 1265:1 1292:1 1300:1 1313:1 1356:1 1374:1
-1 349:1 382:1 406:1 460:1 559:1 681:1 981:1 1219:1 1231:1 1236:1 1239:1 1265:1 1313:1 1354:1 1374:3
-1 246:1 349:1 406:1 486:1 541:1 559:1 681:1 699:1 701:1 810:1 907:1 981:1 1231:1 1236:1 1239:1 1240:1 1241:1 1275:1 1291:1 1292:1 1300:1 1313:1 1354:1 1356:1 1374:2 1376:1
-1 246:1 349:1 550:1 559:1 701:1 907:1 955:1 1241:1 1292:1 1306:1 1313:1 1354:1 1356:1 1374:3
-1 246:1 349:1 559:1 1292:1 1313:1 1354:1 1374:5
-1 246:1 406:1 559:1 681:1 690:1 701:1 907:1 978:1 981:1 1152:1 1231:1 1236:1 1237:1 1239:1 1241:1 1292:1 1313:1 1334:1 1356:1 1374:2
-1 246:1 541:1 559:1 701:1 1172:1 1241:1 1292:1 1300:1 1313:1 1374:2
-1 246:1 541:1 559:1 681:1 780:1 907:1 1231:1 1292:1 1300:1 1313:1 1356:1 1374:2
-1 131:1 246:2 365:1 406:3 541:2 559:6 621:1 634:1 681:2 701:1 907:1 978:1 981:2 1003:1 1225:1 1231:2 1236:3 1237:1 1239:2 1241:1 1292:2 1300:2 1313:6 1348:1 1356:1 1357:1 1370:1 1374:5
-1 349:1 559:1 577:1 681:1 699:1 1231:1 1240:1 1313:1 1354:1 1374:2
-1 227:1 246:1 334:1 349:1 406:1 559:1 567:1 639:1 681:1 699:1 981:1 1231:1 1236:1 1239:1 1240:1 1279:1 1292:1 1313:1 1346:1 1354:1 1374:2
-1 382:1 1219:1 1374:3
-1 349:2 559:1 611:1 1313:1 1354:2 1374:2
-1 382:1 1219:1 1374:3
-1 382:1 1219:1 1374:3
-1 382:1 1219:1 1374:3
-1 246:1 406:1 541:1 559:1 681:1 690:1 701:1 837:1 907:1 978:1 981:1 1152:1 1231:1 1236:1 1237:1 1239:1 1241:1 1292:1 1300:1 1302:1 1313:1 1334:1 1356:1 1374:2
-1 1112:1 1310:1 1374:1
-1 128:1 131:1 246:1 267:1 317:1 406:1 460:1 541:1 559:1 634:1 681:1 701:1 755:1 895:1 907:1 966:1 981:1 1223:1 1225:1 1231:1 1236:1 1239:1 1241:1 1265:1 1266:1 1292:1 1300:1 1301:1 1313:1 1350:1 1356:1 1357:1 1374:1 1376:4
-1 246:1 550:1 559:1 681:1 907:1 955:1 1231:1 1292:1 1306:1 1313:1 1356:1 1374:2
-1 349:1 559:1 1313:1 1354:1 1374:3
-1 131:1 246:2 406:3 541:1 559:4 634:1 681:2 701:1 780:1 907:1 978:1 981:1 1225:1 1231:2 1236:3 1237:1 1239:1 1241:1 1292:2 1300:1 1313:4 1356:1 1357:1 1374:6
-1 121:1 131:1 246:1 406:1 541:1 559:1 681:1 701:1 907:1 981:1 1207:1 1217:1 1225:1 1231:1 1236:1 1239:1 1241:1 1292:1 1300:1 1313:1 1356:1 1369:1 1374:1
-1 628:1 1374:2
-1 128:1 131:1 246:1 406:1 541:1 559:1 681:1 701:1 780:1 907:1 978:1 1223:1 1225:1 1231:1 1236:1 1237:1 1241:1 1292:1 1300:1 1313:1 1356:1 1374:5
-1 246:1 406:1 460:1 541:1 559:1 681:1 701:1 907:1 981:1 1231:1 1236:1 1239:1 1241:1 1265:1 1292:1 1300:1 1313:1 1356:1 1374:1
-1 246:1 406:1 448:1 460:1 541:1 559:1 681:1 701:1 907:1 978:1 981:1 1152:1 1231:1 1236:1 1237:1 1239:1 1241:1 1265:1 1292:1 1300:1 1313:1 1334:1 1356:1 1374:1
-1 246:1 406:1 448:1 460:1 541:1 559:1 681:1 907:1 981:1 1231:1 1236:1 1239:1 1265:1 1292:1 1300:1 1313:1 1356:1 1374:1
-1 325:1 559:1 675:1 1313:1 1374:1
-1 246:1 406:1 460:1 559:1 681:1 701:1 907:1 978:1 981:1 1152:1 1231:1 1236:1 1237:1 1239:1 1241:1 1265:1 1292:1 1313:1 1334:1 1356:1 1374:1
-1 246:1 541:1 559:1 681:1 1231:1 1292:1 1300:1 1313:1 1374:1
-1 118:1 246:1 406:1 460:1 541:1 559:1 681:1 907:1 978:1 981:1 1152:1 1177:1 1231:1 1236:1 1237:1 1239:1 1265:1 1292:1 1300:1 1313:1 1334:1 1347:1 1356:1 1374:1
-1 246:1 365:1 406:1 407:1 460:1 486:1 525:1 541:1 559:1 621:1 634:1 681:1 701:1 810:1 895:1 907:1 978:1 981:1 1152:1 1231:1 1235:1 1236:1 1237:1 1239:1 1241:1 1265:1 1275:1 1291:1 1292:1 1294:1 1300:1 1313:1 1334:1 1348:1 1350:1 1356:1 1357:1 1370:1 1374:1
-1 246:1 406:1 460:1 541:1 559:1 681:1 907:1 978:1 981:1 1152:1 1231:1 1236:1 1237:1 1239:1 1265:1 1292:1 1300:1 1313:1 1334:1 1356:1 1374:1
-1 128:1 246:1 406:1 407:1 460:1 541:1 559:1 634:1 681:1 701:1 741:1 755:1 907:1 978:1 981:1 1152:1 1207:1 1223:1 1231:1 1235:1 1236:1 1237:1 1239:1 1241:1 1258:1 1265:1 1266:1 1292:1 1300:1 1313:1 1334:1 1356:1 1357:1 1369:1 1374:1
-1 246:1 406:1 460:1 541:1 559:1 681:1 701:1 907:1 1231:1 1236:1 1241:1 1265:1 1292:1 1300:1 1313:1 1356:1 1374:1
-1 246:1 406:1 460:1 522:1 559:1 681:1 701:1 907:1 978:1 981:1 1152:1 1231:1 1236:1 1237:1 1239:1 1241:1 1265:1 1292:1 1313:1 1334:1 1356:1 1374:1
-1 246:2 406:1 559:2 681:2 701:1 1231:2 1236:1 1241:1 1292:2 1313:2 1374:7
-1 246:1 349:1 559:1 681:1 701:1 907:1 981:1 1231:1 1239:1 1241:1 1292:1 1313:1 1354:1 1356:1 1374:2
-1 246:1 351:1 541:1 559:1 681:1 701:1 907:1 981:1 1231:1 1239:1 1241:1 1292:1 1300:1 1313:1 1356:1 1374:1 1376:14
-1 559:1 780:1 1313:1 1374:2
-1 131:1 246:1 349:1 406:1 541:1 559:1 618:1 681:1 907:1 981:1 1225:1 1231:1 1236:1 1239:1 1292:1 1300:1 1313:1 1354:1 1356:1 1374:1
-1 131:1 246:1 559:1 681:1 701:1 1225:1 1231:1 1241:1 1292:1 1313:1 1374:2
-1 246:2 406:1 559:2 681:2 701:1 1231:2 1236:1 1241:1 1292:2 1313:2 1374:7
-1 559:1 780:1 1313:1 1374:2
-1 237:1 241:1 250:1 349:1 417:1 420:1 445:1 506:1 535:1 614:1 642:1 677:1 710:1 745:1 760:1 777:1 866:1 876:1 945:1 953:1 1022:1 1100:1 1104:1 1111:1 1123:1 1354:1 1374:2
-1 559:1 780:1 1313:1 1374:2
-1 559:1 780:1 1313:1 1374:2
-1 559:1 780:1 1313:1 1374:2
-1 559:1 780:1 1313:1 1374:2
-1 227:1 246:1 406:1 460:1 559:1 681:1 907:1 1231:1 1236:1 1265:1 1279:1 1292:1 1313:1 1356:1 1374:1
-1 246:1 267:1 541:1 559:1 681:1 1231:1 1292:1 1300:1 1301:1 1313:1 1374:1
-1 131:1 246:1 365:1 406:1 407:1 460:1 541:1 559:1 681:1 907:1 978:1 981:1 1152:1 1225:1 1231:1 1235:1 1236:1 1237:1 1239:1 1265:1 1292:1 1300:1 1313:1 1334:1 1356:1 1370:1 1374:1
-1 132:1 246:1 349:1 365:1 406:1 541:1 559:1 661:1 681:1 701:1 907:1 978:1 981:1 1218:1 1226:1 1231:1 1236:1 1237:1 1239:1 1241:1 1292:1 1300:1 1313:1 1354:1 1356:1 1370:1 1374:1
-1 246:1 247:1 406:1 559:1 681:1 907:1 978:1 981:1 1231:1 1236:1 1237:1 1239:1 1292:1 1313:1 1356:1 1374:1
-1 382:1 1219:1 1374:3
-1 382:1 1219:1 1374:3
-1 246:1 406:1 460:1 541:1 559:1 681:1 907:1 978:1 981:1 1152:1 1231:1 1236:1 1237:1 1239:1 1265:1 1292:1 1300:1 1313:1 1334:1 1356:1 1374:1
-1 246:1 349:1 358:1 489:1 559:1 642:1 656:1 677:1 681:1 697:1 699:1 711:1 755:1 760:1 945:1 953:1 1100:1 1157:1 1231:1 1240:1 1266:1 1292:1 1313:1 1354:1 1373:1 1374:2
-1 246:1 349:1 460:1 541:1 559:1 1265:1 1292:1 1300:1 1313:1 1354:1 1374:2
-1 1112:1 1310:1 1374:1
-1 132:1 246:1 349:1 559:1 681:1 701:1 1226:1 1231:1 1241:1 1292:1 1313:1 1354:1 1374:1
-1 382:1 1219:1 1374:3
-1 246:1 559:1 1292:1 1313:1 1374:2
-1 246:1 406:1 460:1 541:1 559:1 621:1 681:1 701:1 895:1 907:1 978:1 981:1 1231:1 1236:1 1237:1 1239:1 1241:1 1265:1 1292:1 1300:1 1313:1 1348:1 1350:1 1356:1 1374:1
-1 246:1 559:1 632:1 652:1 907:1 981:1 1239:1 1292:1 1313:1 1356:1 1371:1 1374:2
-1 246:1 559:1 632:1 652:1 907:1 981:1 1239:1 1292:1 1313:1 1356:1 1371:1 1374:2
-1 246:1 559:1 632:1 652:1 907:1 981:1 1239:1 1292:1 1313:1 1356:1 1371:1 1374:2
-1 246:1 559:1 632:1 652:1 907:1 981:1 1239:1 1292:1 1313:1 1356:1 1371:1 1374:2
-1 455:1 550:1 559:1 955:1 1306:1 1313:1 1374:3
-1 559:1 855:1 1313:1 1374:2
-1 382:1 1219:1 1374:4
-1 131:1 246:1 541:1 559:1 681:1 701:1 907:1 981:1 1225:1 1231:1 1239:1 1241:1 1292:1 1300:1 1313:1 1356:1 1374:3
-1 382:1 1219:1 1374:4
-1 1112:1 1310:1 1374:1
-1 219:1 251:1 289:1 351:1 367:1 433:1 436:1 477:1 559:1 578:1 681:1 693:1 718:1 912:1 981:1 1047:1 1129:1 1231:1 1239:1 1313:1 1374:3 1376:8
-1 170:1 246:1 406:1 477:1 559:1 681:1 907:1 980:1 981:1 1231:1 1236:1 1239:1 1292:1 1313:1 1356:1 1374:1 1376:4
-1 1112:1 1310:1 1374:1
-1 214:1 466:1 559:1 781:1 897:1 1313:1 1374:3
-1 349:1 559:1 1313:1 1354:1 1374:3
-1 131:1 246:2 406:3 541:2 559:4 634:1 681:2 701:1 907:1 978:1 981:1 1225:1 1231:2 1236:3 1237:1 1239:1 1241:1 1292:2 1300:2 1313:4 1356:1 1357:1 1374:6
-1 131:1 246:1 308:1 349:1 482:1 541:1 559:1 618:1 681:1 701:1 907:1 981:1 1225:1 1231:1 1239:1 1241:1 1292:1 1300:1 1313:1 1335:1 1354:1 1356:1 1374:2
-1 246:1 349:1 559:1 681:1 699:1 864:1 1207:1 1231:1 1240:1 1292:1 1313:1 1354:1 1369:1 1374:3
-1 246:2 406:1 559:2 681:2 1231:2 1236:1 1292:2 1313:2 1374:7
-1 142:1 216:1 237:1 241:1 246:1 267:1 274:1 304:1 311:1 312:1 349:1 360:1 368:1 385:1 406:1 415:1 417:1 420:1 423:1 444:1 445:1 457:1 460:1 469:1 481:1 486:1 506:1 514:1 518:1 535:1 541:1 552:1 559:1 567:1 589:1 639:1 642:1 658:1 667:1 677:1 699:1 703:1 729:1 730:1 754:1 759:1 760:1 777:1 810:1 811:1 849:1 869:1 876:1 877:1 881:1 907:1 941:1 945:1 953:1 965:1 1022:1 1035:1 1050:1 1054:1 1060:1 1084:1 1100:1 1104:1 1123:1 1131:1 1157:1 1166:1 1207:1 1236:1 1240:1 1265:1 1275:1 1291:1 1292:1 1300:1 1301:1 1313:1 1354:1 1356:1 1369:1 1374:2
-1 246:1 455:1 550:1 559:1 634:1 681:1 907:1 955:1 1231:1 1292:1 1306:1 1313:1 1356:1 1357:1 1374:2
-1 382:1 1219:1 1374:3
-1 382:1 1219:1 1374:2
-1 382:1 1219:1 1374:3
-1 382:1 1219:1 1374:4
-1 382:1 1219:1 1374:2
-1 246:1 349:1 460:1 541:1 544:1 559:1 681:1 981:1 1231:1 1239:1 1265:1 1292:1 1300:1 1313:1 1354:1 1374:2
-1 246:1 349:1 559:1 642:1 701:1 760:1 864:1 945:1 953:1 1100:1 1241:1 1292:1 1313:1 1354:1 1374:2
-1 246:1 536:1 559:1 634:1 1292:1 1297:1 1313:1 1357:1 1374:2
-1 175:1 246:1 349:1 406:1 460:1 541:1 544:1 559:1 681:1 752:1 907:1 934:1 942:1 981:1 1084:1 1231:1 1236:1 1239:1 1251:1 1265:1 1292:1 1300:1 1313:1 1354:1 1356:1 1374:1
-1 246:1 349:1 559:1 755:1 1266:1 1292:1 1313:1 1354:1 1374:5 1376:7
-1 382:1 1219:1 1374:4
-1 559:1 1172:1 1313:1 1374:3
-1 559:1 1313:1 1374:2
-1 246:1 348:1 349:1 405:1 550:1 559:1 907:1 955:1 1151:1 1292:1 1306:1 1313:1 1354:1 1356:1 1374:2
-1 382:1 1219:1 1374:3
-1 382:1 1219:1 1374:3
-1 246:1 559:1 1292:1 1313:1 1374:4
-1 349:2 559:1 755:1 1127:1 1266:1 1313:1 1354:2 1374:2
-1 349:2 559:1 1313:1 1354:2 1374:2
-1 246:1 349:1 460:1 541:1 559:1 701:1 907:1 978:1 981:1 1237:1 1239:1 1241:1 1265:1 1292:1 1300:1 1313:1 1354:1 1356:1 1374:2
-1 246:1 349:1 559:1 978:1 1237:1 1292:1 1313:1 1354:1 1374:2
-1 246:1 349:1 559:1 978:1 1237:1 1292:1 1313:1 1354:1 1374:2
-1 246:1 349:1 559:1 907:1 978:1 1237:1 1292:1 1313:1 1354:1 1356:1 1374:2
-1 349:1 559:1 699:1 994:1 1240:1 1247:1 1313:1 1354:1 1374:2
-1 131:1 349:2 559:1 780:1 1225:1 1313:1 1354:2 1374:5
-1 382:1 1219:1 1374:3
-1 131:1 227:1 246:1 267:1 406:1 460:1 511:1 541:1 559:1 576:1 681:1 701:1 755:1 830:1 844:1 978:1 981:1 1013:1 1225:1 1231:1 1236:1 1237:1 1239:1 1241:1 1265:1 1266:1 1279:1 1286:1 1292:1 1300:1 1301:1 1313:1 1325:1 1374:2
-1 246:1 349:1 406:1 541:1 559:1 981:1 1236:1 1239:1 1292:1 1300:1 1313:1 1354:1 1374:3
-1 349:2 559:1 780:1 1313:1 1354:2 1374:3
-1 246:1 559:1 757:1 1292:1 1313:1 1374:3
-1 246:1 349:2 523:1 536:1 559:1 780:1 1292:1 1297:1 1313:1 1354:2 1374:3
-1 195:1 349:2 536:1 559:1 1297:1 1313:1 1354:2 1374:2
-1 559:1 1313:1 1374:1
-1 119:1 246:1 349:1 406:1 541:1 559:1 681:1 701:1 981:1 1231:1 1236:1 1239:1 1241:1 1292:1 1300:1 1313:1 1354:1 1374:1
-1 1112:1 1310:1 1374:1
-1 382:1 1219:1 1374:3
-1 131:1 219:1 246:1 277:1 289:1 406:1 436:1 460:1 541:1 559:1 578:1 667:1 681:1 693:1 718:1 837:1 860:1 907:1 912:1 981:1 1047:1 1225:1 1231:1 1236:1 1239:1 1265:1 1292:1 1300:1 1302:1 1313:1 1356:1 1374:2
-1 246:1 349:1 466:1 505:1 541:1 559:1 781:1 1292:1 1300:1 1313:1 1354:1 1374:4
-1 246:1 349:1 382:1 460:1 559:1 699:1 701:1 810:1 895:1 907:1 981:1 1219:1 1239:1 1240:1 1241:1 1265:1 1291:1 1292:1 1313:1 1350:1 1354:1 1356:1 1374:3
-1 382:1 1219:1 1374:3
-1 246:1 349:1 406:1 541:1 559:1 681:1 701:1 780:1 907:1 978:1 981:1 1231:1 1236:1 1237:1 1239:1 1241:1 1292:1 1300:1 1313:1 1354:1 1356:1 1374:4
-1 382:1 1219:1 1374:3
-1 246:1 406:1 460:1 541:1 559:1 634:1 681:1 690:1 701:1 755:1 832:1 907:1 978:1 981:1 1152:1 1231:1 1236:1 1237:1 1239:1 1241:1 1265:1 1266:1 1292:1 1300:1 1313:1 1334:1 1356:1 1357:1 1374:2
-1 246:1 559:1 1172:1 1292:1 1313:1 1374:3
-1 246:1 406:1 460:1 541:1 559:1 681:1 755:1 907:1 981:1 987:1 1231:1 1236:1 1239:1 1265:1 1266:1 1292:1 1300:1 1313:1 1356:1 1374:4
-1 246:1 541:1 559:1 681:1 701:1 907:1 981:1 1231:1 1239:1 1241:1 1292:1 1300:1 1313:1 1356:1 1374:2
-1 246:1 349:1 406:1 486:1 541:1 559:1 606:1 634:1 656:1 681:1 701:1 732:1 755:1 780:1 907:1 978:1 981:1 987:1 1231:1 1236:1 1237:1 1239:1 1241:1 1266:1 1275:1 1292:1 1300:1 1313:1 1343:1 1354:1 1356:1 1357:1 1373:1 1374:5
-1 131:1 246:1 559:1 681:1 755:1 1225:1 1231:1 1266:1 1292:1 1313:1 1374:1
-1 128:1 131:1 246:1 406:1 460:1 541:1 559:1 681:1 701:1 755:1 895:1 907:1 981:1 1223:1 1225:1 1231:1 1236:1 1239:1 1241:1 1265:1 1266:1 1292:1 1300:1 1313:1 1350:1 1356:1 1374:2
-1 131:1 246:2 393:1 406:3 541:1 550:1 559:5 681:2 701:1 788:1 808:1 907:1 955:1 978:1 981:1 1225:1 1231:2 1236:3 1237:1 1239:1 1241:1 1292:2 1300:1 1306:1 1313:5 1356:1 1374:6
-1 349:1 559:1 699:1 994:1 1240:1 1247:1 1313:1 1354:1 1374:2
-1 246:1 349:1 541:1 559:1 1292:1 1300:1 1313:1 1354:1 1374:3
-1 237:1 241:1 307:1 349:1 408:1 506:1 642:1 677:1 699:1 760:1 786:1 823:1 869:1 945:1 953:1 1022:1 1068:1 1100:1 1104:1 1111:1 1123:1 1240:1 1354:1 1374:2
-1 246:1 559:1 681:1 701:1 907:1 981:1 1231:1 1239:1 1241:1 1292:1 1313:1 1356:1 1374:1 1376:5
-1 241:1 349:1 445:1 642:1 677:1 755:1 760:1 811:1 824:1 869:1 945:1 953:1 1022:1 1100:1 1104:1 1111:1 1266:1 1295:1 1354:1 1374:2
-1 246:1 349:1 541:1 559:1 681:1 1231:1 1292:1 1300:1 1313:1 1354:1 1374:3
-1 219:1 289:1 436:1 492:1 559:1 578:1 681:1 693:1 718:1 779:1 912:1 1047:1 1231:1 1313:1 1374:4 1376:36
-1 246:1 349:1 406:1 541:1 559:1 701:1 1236:1 1241:1 1292:1 1300:1 1313:1 1354:1 1374:4
-1 349:1 559:1 642:1 677:1 760:1 945:1 953:1 1084:1 1100:1 1313:1 1354:1 1374:3
-1 382:1 1219:1 1374:3
-1 349:2 559:1 1313:1 1354:2 1374:2
-1 246:1 349:1 559:1 981:1 1207:1 1239:1 1292:1 1313:1 1354:1 1369:1 1374:2
-1 246:1 541:1 559:1 681:1 810:1 907:1 981:1 1231:1 1239:1 1291:1 1292:1 1300:1 1313:1 1356:1 1374:2
-1 246:1 406:1 541:1 559:1 681:1 907:1 981:1 1231:1 1236:1 1239:1 1292:1 1300:1 1313:1 1356:1 1374:2
-1 246:1 406:1 541:1 559:1 681:1 907:1 981:1 1231:1 1236:1 1239:1 1292:1 1300:1 1313:1 1356:1 1374:2
-1 559:1 1313:1 1374:3
-1 246:1 349:1 371:1 406:1 460:1 541:1 559:1 681:1 699:1 701:1 810:1 895:1 907:1 981:1 1231:1 1236:1 1239:1 1240:1 1241:1 1265:1 1291:1 1292:1 1300:1 1313:1 1350:1 1354:1 1356:1 1374:1
-1 1112:1 1310:1 1374:1
-1 131:1 246:1 406:1 559:1 981:1 1225:1 1236:1 1239:1 1292:1 1313:1 1374:2
-1 188:1 241:1 445:1 506:1 642:1 693:1 760:1 811:1 869:1 876:1 881:1 901:1 912:1 945:1 953:1 1022:1 1033:1 1100:1 1104:1 1111:1 1374:1
-1 246:1 349:1 406:1 559:1 618:1 681:1 981:1 1164:1 1231:1 1236:1 1239:1 1292:1 1313:1 1354:1 1374:2 1376:5
-1 131:1 246:1 406:1 559:1 681:1 701:1 907:1 981:1 1225:1 1231:1 1236:1 1239:1 1241:1 1292:1 1313:1 1356:1 1374:5
-1 246:1 349:2 541:1 559:1 634:1 907:1 1292:1 1300:1 1313:1 1354:2 1356:1 1357:1 1374:2 1376:116
-1 131:1 246:1 349:1 559:1 634:1 1225:1 1292:1 1313:1 1354:1 1357:1 1374:3
-1 246:2 406:1 559:2 681:2 701:1 1231:2 1236:1 1241:1 1292:2 1313:2 1374:7
-1 131:1 246:1 541:1 559:1 681:1 701:1 907:1 981:1 1225:1 1231:1 1239:1 1241:1 1292:1 1300:1 1313:1 1356:1 1374:3
-1 349:1 406:1 541:1 559:1 567:1 639:1 642:1 677:1 681:1 699:1 703:1 760:1 945:1 953:1 1100:1 1207:1 1231:1 1236:1 1240:1 1300:1 1313:1 1354:1 1369:1 1374:2
-1 241:1 246:1 349:1 506:1 559:1 642:1 677:1 703:1 760:1 876:1 945:1 953:1 981:1 1100:1 1239:1 1292:1 1313:1 1354:1 1374:3
-1 349:1 559:1 699:1 1240:1 1313:1 1354:1 1374:1
-1 131:1 246:2 406:2 550:3 559:4 681:2 701:1 907:1 955:2 978:1 1225:1 1231:2 1236:2 1237:1 1241:1 1292:2 1306:3 1313:4 1356:1 1374:6
-1 241:1 246:1 349:1 460:1 559:1 642:1 677:1 681:1 703:1 760:1 876:1 907:1 945:1 953:1 978:1 1100:1 1231:1 1237:1 1265:1 1292:1 1313:1 1354:1 1356:1 1374:3
-1 131:1 246:1 349:1 460:1 559:1 699:1 755:1 1225:1 1240:1 1265:1 1266:1 1292:1 1313:1 1354:1 1374:2
-1 235:1 236:1 246:1 406:1 432:1 460:1 513:1 541:1 559:1 634:1 681:1 701:1 755:1 780:1 837:1 907:1 978:1 981:1 1004:1 1150:1 1231:1 1236:1 1237:1 1239:1 1241:1 1265:1 1266:1 1292:1 1300:1 1302:1 1313:1 1356:1 1357:1 1374:2 1376:368
-1 131:1 246:1 559:1 634:1 907:1 1225:1 1292:1 1313:1 1356:1 1357:1 1374:2
-1 494:1 528:1 1374:2
-1 349:2 541:1 559:1 1300:1 1313:1 1354:2 1374:2
-1 559:1 755:1 1266:1 1313:1 1374:2
-1 559:1 1313:1 1374:2
-1 131:1 246:2 406:3 559:5 681:2 701:1 749:1 907:1 978:1 981:1 1225:1 1231:2 1236:3 1237:1 1239:1 1241:1 1292:2 1313:5 1356:1 1374:6
-1 246:1 559:1 681:1 907:1 978:1 1231:1 1237:1 1292:1 1313:1 1356:1 1374:4
-1 214:1 246:1 541:1 559:1 701:1 755:1 907:1 978:1 981:1 1237:1 1239:1 1241:1 1266:1 1292:1 1300:1 1313:1 1356:1 1374:2
-1 214:1 530:1 559:1 1313:1 1374:2
-1 214:1 530:1 559:1 1313:1 1374:2
-1 559:1 1313:1 1374:3
-1 349:2 530:1 550:1 559:1 955:1 1149:1 1306:1 1313:1 1354:2 1374:2
-1 162:1 227:1 246:1 334:1 349:1 406:1 407:1 460:1 508:1 541:1 559:1 570:1 581:1 634:1 681:1 699:1 701:1 895:1 907:1 981:1 1074:1 1231:1 1235:1 1236:1 1239:1 1240:1 1241:1 1244:1 1265:1 1279:1 1292:1 1300:1 1313:1 1346:1 1350:1 1354:1 1356:1 1357:1 1374:2
-1 227:1 246:1 406:1 460:1 541:1 559:1 576:1 634:1 640:1 656:1 681:1 701:1 726:1 755:1 837:1 907:1 978:1 981:1 1207:1 1231:1 1236:1 1237:1 1239:1 1241:1 1265:1 1266:1 1279:1 1292:1 1300:1 1302:1 1313:1 1325:1 1356:1 1357:1 1361:1 1369:1 1373:1 1374:3
-1 246:1 406:1 541:1 559:1 576:1 634:1 640:1 656:1 681:1 701:1 837:1 907:1 978:1 981:1 1207:1 1231:1 1236:1 1237:1 1239:1 1241:1 1292:1 1300:1 1302:1 1313:1 1325:1 1356:1 1357:1 1361:1 1369:1 1373:1 1374:2
-1 246:1 349:1 396:1 559:1 624:1 1292:1 1313:1 1354:1 1374:7
-1 246:1 349:2 541:1 550:1 559:1 634:1 907:1 955:1 978:1 1237:1 1292:1 1300:1 1306:1 1313:1 1354:2 1356:1 1357:1 1374:2 1376:112
-1 131:1 246:3 406:2 541:1 559:5 681:2 701:1 907:1 978:1 981:1 1225:1 1231:2 1236:2 1237:1 1239:1 1241:1 1292:3 1300:1 1313:5 1356:1 1374:6
-1 246:2 406:1 559:4 681:3 701:1 1231:3 1236:1 1241:1 1292:2 1313:4 1374:4
-1 246:1 349:2 541:1 559:1 569:1 660:1 780:1 1141:1 1292:1 1300:1 1313:1 1354:2 1374:2
-1 349:2 559:1 681:1 1231:1 1313:1 1354:2 1374:3
-1 128:1 177:1 247:1 559:1 681:1 755:1 1223:1 1231:1 1266:1 1313:1 1374:2
-1 308:1 349:1 541:1 550:1 559:1 845:1 955:1 1042:1 1300:1 1306:1 1313:1 1335:1 1354:1 1374:2
-1 239:1 246:1 349:1 559:1 681:1 701:1 703:1 994:1 1231:1 1241:1 1247:1 1292:1 1313:1 1354:1 1374:2
-1 1112:1 1310:1 1374:1
-1 246:1 349:1 460:1 541:1 559:1 681:1 701:1 755:1 824:1 907:1 978:1 981:1 987:1 1207:1 1231:1 1237:1 1239:1 1241:1 1265:1 1266:1 1292:1 1295:1 1300:1 1313:1 1354:1 1356:1 1369:1 1374:1
-1 146:1 237:1 241:1 307:1 349:1 408:1 417:1 420:1 445:1 506:1 514:1 535:1 614:1 619:1 642:1 677:1 699:1 703:1 758:1 759:1 760:1 811:1 849:1 869:1 877:1 881:1 945:1 953:1 1022:1 1100:1 1104:1 1111:1 1240:1 1354:1 1374:2
-1 246:1 349:1 559:1 755:1 1266:1 1292:1 1313:1 1354:1 1374:2
-1 428:1 559:1 692:1 874:1 918:1 1142:1 1313:1 1374:3
-1 131:1 349:2 559:1 780:1 1225:1 1313:1 1354:2 1374:4
-1 241:1 349:1 417:1 445:1 506:1 614:1 642:1 677:1 699:1 755:1 759:1 760:1 811:1 824:1 869:1 945:1 953:1 1022:1 1100:1 1104:1 1111:1 1157:1 1240:1 1266:1 1295:1 1354:1 1374:1
-1 246:1 559:1 907:1 1292:1 1313:1 1356:1 1374:2
-1 246:1 559:1 634:1 907:1 978:1 1237:1 1292:1 1313:1 1356:1 1357:1 1374:2
-1 246:1 294:1 550:1 559:1 907:1 955:1 978:1 1237:1 1292:1 1306:1 1313:1 1356:1 1374:2
-1 246:1 406:1 460:1 541:1 559:1 656:1 681:1 701:1 907:1 978:1 981:1 1067:1 1125:1 1152:1 1231:1 1236:1 1237:1 1239:1 1241:1 1265:1 1292:1 1300:1 1313:1 1334:1 1356:1 1373:1 1374:2
-1 246:1 406:1 460:1 541:1 559:1 681:1 701:1 907:1 978:1 981:1 1152:1 1231:1 1236:1 1237:1 1239:1 1241:1 1265:1 1292:1 1300:1 1313:1 1334:1 1356:1 1374:1
-1 246:1 338:1 406:1 460:1 541:1 559:1 681:1 701:1 907:1 932:1 978:1 981:1 1067:1 1152:1 1231:1 1236:1 1237:1 1239:1 1241:1 1265:1 1292:1 1300:1 1313:1 1334:1 1356:1 1374:1
-1 246:1 338:1 406:1 409:1 448:1 460:1 503:1 541:1 559:1 681:1 701:1 733:1 907:1 932:1 978:1 981:1 1067:1 1152:1 1231:1 1236:1 1237:1 1239:1 1241:1 1265:1 1292:1 1300:1 1313:1 1334:1 1356:1 1374:1 1376:21
-1 246:1 406:1 460:1 541:1 559:1 681:1 701:1 857:1 907:1 978:1 981:1 1152:1 1231:1 1236:1 1237:1 1239:1 1241:1 1265:1 1292:1 1300:1 1313:1 1334:1 1356:1 1374:1
-1 246:1 406:1 460:1 503:1 559:1 681:1 701:1 907:1 978:1 981:1 1152:1 1231:1 1236:1 1237:1 1239:1 1241:1 1265:1 1292:1 1313:1 1334:1 1356:1 1374:1
-1 246:2 406:1 559:2 681:2 701:1 1231:2 1236:1 1241:1 1292:2 1313:2 1374:7
-1 246:1 349:1 541:1 559:1 681:1 701:1 703:1 907:1 1117:1 1231:1 1241:1 1292:1 1300:1 1313:1 1354:1 1356:1 1374:2 1376:39
-1 246:1 349:1 541:1 559:1 681:1 701:1 1117:1 1231:1 1241:1 1292:1 1300:1 1313:1 1354:1 1374:2 1376:39
-1 246:2 406:1 559:2 681:2 701:1 1231:2 1236:1 1241:1 1292:2 1313:2 1374:6
-1 132:1 246:1 349:1 541:1 559:1 681:1 907:1 978:1 1226:1 1231:1 1237:1 1292:1 1300:1 1313:1 1354:1 1356:1 1374:1
-1 131:1 246:1 318:1 349:1 406:1 460:1 486:1 541:1 559:1 681:1 699:1 813:1 907:1 981:1 1092:1 1207:1 1225:1 1231:1 1236:1 1239:1 1240:1 1265:1 1275:1 1292:1 1299:1 1300:1 1313:1 1354:1 1356:1 1369:1 1374:2
-1 349:1 559:1 681:1 772:1 1231:1 1313:1 1354:1 1374:2
-1 214:1 246:1 559:1 972:1 1292:1 1313:1 1374:2
-1 349:2 559:1 1313:1 1354:2 1374:2
-1 131:1 246:1 541:1 559:1 681:1 701:1 907:1 981:1 1225:1 1231:1 1239:1 1241:1 1292:1 1300:1 1313:1 1356:1 1374:3
-1 188:1 406:1 439:1 559:1 567:1 639:1 642:1 665:1 681:1 693:1 760:1 876:1 901:1 945:1 953:1 981:1 1045:1 1100:1 1207:1 1231:1 1236:1 1239:1 1313:1 1369:1 1374:1
-1 246:1 349:2 389:1 405:1 550:1 559:1 907:1 955:1 1292:1 1306:1 1313:1 1354:2 1356:1 1374:2
-1 131:1 246:1 365:1 379:1 394:1 406:1 460:1 541:1 550:1 559:1 634:1 681:1 755:1 780:1 907:1 981:1 1216:1 1225:1 1229:1 1231:1 1236:1 1239:1 1265:1 1266:1 1292:1 1300:1 1306:1 1313:1 1356:1 1357:1 1370:1 1374:2 1376:5
-1 246:1 349:1 541:1 559:1 681:1 1231:1 1292:1 1300:1 1313:1 1354:1 1374:3
-1 1112:1 1310:1 1374:1
-1 246:1 349:2 405:1 550:1 559:1 907:1 955:1 1292:1 1306:1 1313:1 1354:2 1356:1 1374:2
-1 178:1 188:1 246:1 251:1 305:1 374:1 406:1 460:1 469:1 512:1 541:1 559:1 567:1 639:1 642:1 667:1 677:1 681:1 693:1 699:1 701:1 703:1 712:1 729:1 752:1 760:1 810:1 876:1 892:1 895:1 901:1 907:1 912:1 934:1 945:1 953:1 954:1 1024:1 1100:1 1207:1 1231:1 1236:1 1240:1 1241:1 1265:1 1291:1 1292:1 1300:1 1313:1 1350:1 1356:1 1369:1 1374:2
-1 131:1 238:1 246:2 406:2 541:1 559:5 621:1 681:2 701:1 907:1 981:1 1225:1 1231:2 1236:2 1239:1 1241:1 1292:2 1300:1 1313:5 1348:1 1356:1 1374:6
-1 246:1 349:1 559:1 570:1 701:1 978:1 1237:1 1241:1 1292:1 1313:1 1354:1 1374:1
-1 382:1 1219:1 1374:3
-1 382:1 1219:1 1374:2
-1 131:1 246:1 541:1 559:1 681:1 701:1 907:1 981:1 1225:1 1231:1 1239:1 1241:1 1292:1 1300:1 1313:1 1356:1 1374:3
-1 349:1 406:1 559:1 681:1 699:1 741:1 981:1 1207:1 1231:1 1236:1 1239:1 1240:1 1258:1 1313:1 1354:1 1369:1 1374:2
-1 1112:1 1310:1 1374:1
-1 246:1 308:1 349:1 559:1 618:1 654:1 880:1 1292:1 1313:1 1335:1 1354:1 1374:2
-1 349:1 559:1 1313:1 1354:1 1374:6
-1 349:2 559:1 1313:1 1354:2 1374:2
-1 349:1 559:1 1313:1 1354:1 1374:5
-1 349:2 559:1 1313:1 1354:2 1374:3
-1 246:1 348:1 349:2 559:1 681:1 755:1 1231:1 1266:1 1292:1 1313:1 1354:2 1374:4
-1 349:2 559:1 755:1 1266:1 1313:1 1354:2 1374:4
-1 287:1 349:1 559:1 1196:1 1313:1 1354:1 1374:3
-1 246:1 406:1 460:1 541:1 559:1 632:1 634:1 681:1 690:1 701:1 907:1 978:1 981:1 1152:1 1231:1 1236:1 1237:1 1239:1 1241:1 1265:1 1292:1 1300:1 1313:1 1334:1 1356:1 1357:1 1374:2
-1 131:1 246:1 406:1 541:1 559:1 621:1 681:1 701:1 907:1 978:1 981:1 1225:1 1231:1 1236:1 1237:1 1239:1 1241:1 1292:1 1300:1 1313:1 1348:1 1356:1 1374:5
-1 131:1 246:1 406:1 541:1 559:1 681:1 701:1 907:1 1225:1 1231:1 1236:1 1241:1 1292:1 1300:1 1313:1 1356:1 1374:4
-1 131:1 246:1 406:1 541:1 559:1 621:1 634:1 656:1 681:1 701:1 907:1 978:1 981:1 1225:1 1231:1 1236:1 1237:1 1239:1 1241:1 1292:1 1300:1 1313:1 1348:1 1356:1 1357:1 1373:1 1374:5
-1 246:1 349:2 406:1 541:1 559:1 596:1 681:1 701:1 907:1 978:1 981:1 1231:1 1236:1 1237:1 1239:1 1241:1 1292:1 1300:1 1313:1 1337:1 1354:2 1356:1 1374:4
-1 559:1 981:1 1239:1 1313:1 1374:2
-1 271:1 309:1 442:1 493:1 520:1 559:1 627:1 743:1 1006:1 1055:1 1189:1 1313:1 1374:1 1376:75
-1 237:1 241:1 349:1 360:1 378:1 406:1 417:1 445:1 486:1 489:1 506:1 512:1 525:1 642:1 677:1 699:1 703:1 728:1 730:1 734:1 759:1 760:1 811:1 834:1 854:1 869:1 945:1 953:1 1022:1 1068:1 1100:1 1104:1 1185:1 1207:1 1211:1 1236:1 1240:1 1275:1 1294:1 1354:1 1369:1 1374:2
-1 559:1 1313:1 1374:2
-1 141:1 246:1 559:1 805:1 865:1 1292:1 1313:1 1374:3
-1 131:1 246:1 541:1 559:1 681:1 701:1 907:1 981:1 1225:1 1231:1 1239:1 1241:1 1292:1 1300:1 1313:1 1356:1 1374:2
-1 349:1 559:1 1313:1 1354:1 1374:1
-1 382:1 1219:1 1374:3
-1 246:1 406:1 559:1 681:1 690:1 701:1 907:1 978:1 981:1 1152:1 1231:1 1236:1 1237:1 1239:1 1241:1 1292:1 1313:1 1334:1 1356:1 1374:2
-1 246:1 247:1 395:1 559:1 895:1 981:1 1239:1 1292:1 1313:1 1350:1 1374:1
-1 246:1 559:1 1292:1 1313:1 1374:3
-1 246:1 349:1 358:1 406:1 445:1 489:1 559:1 642:1 656:1 677:1 697:1 699:1 703:1 711:1 755:1 760:1 806:1 823:1 858:1 945:1 953:1 1100:1 1157:1 1236:1 1240:1 1266:1 1292:1 1313:1 1354:1 1373:1 1374:2
-1 246:1 559:1 681:1 780:1 1231:1 1292:1 1313:1 1374:2
-1 559:1 1313:1 1374:2
-1 349:2 559:1 1313:1 1354:2 1374:2
-1 382:1 1219:1 1374:3
-1 343:1 427:1 446:1 475:1 530:1 550:1 559:1 1019:1 1119:1 1306:1 1313:1 1374:2
-1 246:1 349:1 365:1 541:1 559:1 681:1 701:1 907:1 978:1 1231:1 1237:1 1241:1 1292:1 1300:1 1313:1 1354:1 1356:1 1370:1 1374:4
-1 131:1 246:1 541:1 559:1 681:1 701:1 907:1 981:1 1225:1 1231:1 1239:1 1241:1 1292:1 1300:1 1313:1 1356:1 1374:3
-1 134:1 139:1 143:1 200:1 221:1 242:1 246:1 254:1 349:1 366:1 377:1 386:1 404:1 418:1 447:1 464:1 547:1 559:1 566:1 673:1 684:1 740:1 936:1 1053:1 1165:1 1196:1 1292:1 1313:1 1354:1 1374:6
-1 134:1 143:1 200:1 221:1 242:1 246:1 254:1 349:1 366:1 377:1 404:1 418:1 447:1 464:1 547:1 559:1 566:1 673:1 684:1 740:1 936:1 1053:1 1196:1 1292:1 1313:1 1354:1 1374:6
-1 131:1 246:1 541:1 559:1 681:1 701:1 907:1 981:1 1225:1 1231:1 1239:1 1241:1 1292:1 1300:1 1313:1 1356:1 1374:3
-1 246:2 406:1 559:2 681:2 701:1 1231:2 1236:1 1241:1 1292:2 1313:2 1374:7
-1 382:1 1219:1 1374:4
-1 246:1 349:1 559:1 570:1 634:1 652:1 888:1 907:1 981:1 1239:1 1292:1 1313:1 1354:1 1356:1 1357:1 1371:1 1374:4
-1 131:1 246:1 541:1 559:1 681:1 701:1 907:1 981:1 1225:1 1231:1 1239:1 1241:1 1292:1 1300:1 1313:1 1356:1 1374:3
-1 294:1 325:1 530:1 550:1 559:1 675:1 863:1 955:1 1133:1 1149:1 1151:1 1195:1 1306:1 1313:1 1374:1
-1 349:2 559:1 1313:1 1354:2 1374:5 1376:73
-1 246:1 550:1 559:1 634:1 701:1 780:1 907:1 1241:1 1292:1 1306:1 1313:1 1356:1 1357:1 1374:2
-1 141:1 246:1 550:1 559:1 805:1 865:1 907:1 939:1 955:1 1292:1 1306:1 1313:1 1356:1 1374:2
-1 559:1 736:1 1313:1 1374:2
-1 246:1 455:1 550:1 559:1 709:1 955:1 981:1 1120:1 1239:1 1292:1 1306:1 1313:1 1374:3
-1 349:1 559:1 1313:1 1354:1 1374:2
-1 382:1 1219:1 1374:3
-1 246:2 406:1 559:2 681:2 701:1 1231:2 1236:1 1241:1 1292:2 1313:2 1374:7
-1 628:1 1374:1
-1 246:1 541:1 559:1 681:1 907:1 1231:1 1292:1 1300:1 1313:1 1356:1 1374:3
-1 246:1 541:1 559:1 621:1 701:1 907:1 978:1 980:1 1079:1 1108:1 1237:1 1241:1 1292:1 1300:1 1313:1 1348:1 1356:1 1374:1
-1 131:1 246:1 267:1 460:1 541:1 559:1 606:1 681:1 981:1 1207:1 1225:1 1231:1 1239:1 1265:1 1292:1 1300:1 1301:1 1313:1 1343:1 1369:1 1374:1
-1 460:1 559:1 1265:1 1313:1 1374:1
-1 246:1 460:1 541:1 559:1 981:1 1239:1 1265:1 1292:1 1300:1 1313:1 1374:3
-1 1112:1 1310:1 1374:1
-1 131:1 246:2 406:2 536:1 541:2 559:4 634:1 681:2 701:1 907:1 978:1 1186:1 1225:1 1231:2 1236:2 1237:1 1241:1 1292:2 1297:1 1300:2 1313:4 1356:1 1357:1 1374:6
-1 117:1 241:1 246:1 334:1 349:1 358:1 406:1 479:1 489:1 559:1 642:1 656:1 677:1 681:1 697:1 703:1 755:1 760:1 764:1 806:1 811:1 945:1 953:1 1022:1 1035:1 1100:1 1104:1 1111:1 1157:1 1231:1 1236:1 1266:1 1272:1 1292:1 1313:1 1346:1 1354:1 1373:1 1374:1
-1 246:1 349:1 559:1 1292:1 1313:1 1354:1 1374:5
-1 241:1 246:1 349:1 445:1 506:1 642:1 677:1 699:1 759:1 760:1 766:1 811:1 869:1 876:1 881:1 945:1 953:1 1022:1 1100:1 1240:1 1292:1 1354:1 1374:1
-1 131:1 246:2 406:3 536:1 541:2 559:4 681:2 701:1 907:1 978:1 981:5 1186:1 1225:1 1231:2 1236:3 1237:1 1239:5 1241:1 1292:2 1297:1 1300:2 1313:4 1356:1 1374:7
-1 246:1 349:2 406:1 505:1 541:1 550:1 559:1 681:1 701:1 907:1 978:1 981:1 1231:1 1236:1 1237:1 1239:1 1241:1 1292:1 1300:1 1306:1 1313:1 1354:2 1356:1 1374:2
-1 246:1 259:1 267:1 349:1 559:1 602:1 642:1 681:1 699:1 760:1 945:1 953:1 1100:1 1231:1 1240:1 1292:1 1301:1 1313:1 1354:1 1374:1
-1 246:1 460:1 541:1 559:1 681:1 701:1 755:1 1231:1 1241:1 1265:1 1266:1 1292:1 1300:1 1313:1 1374:2
-1 382:1 1219:1 1374:3
-1 182:1 214:1 246:1 455:1 530:1 541:1 550:1 559:1 634:1 701:1 863:1 897:1 907:1 955:1 1241:1 1292:1 1300:1 1306:1 1313:1 1356:1 1357:1 1374:2
-1 131:1 246:1 349:1 393:1 406:1 541:1 559:1 618:1 681:1 701:1 907:1 978:1 981:1 1225:1 1231:1 1236:1 1237:1 1239:1 1241:1 1292:1 1300:1 1313:1 1354:1 1356:1 1374:1
-1 349:1 466:1 559:1 781:1 841:1 1313:1 1354:1 1374:3
-1 131:1 246:1 266:1 365:1 393:1 406:1 407:1 460:1 541:1 559:1 621:1 634:1 681:1 689:1 701:1 755:1 895:1 907:1 978:1 981:1 1152:1 1225:1 1231:1 1234:1 1235:1 1236:1 1237:1 1239:1 1241:1 1265:1 1266:1 1292:1 1300:1 1313:1 1334:1 1348:1 1350:1 1356:1 1357:1 1370:1 1374:4
-1 349:1 466:1 505:1 559:1 771:1 781:1 1313:1 1354:1 1374:4
-1 559:1 1313:1 1374:1
-1 246:1 559:1 907:1 1292:1 1313:1 1356:1 1374:1
-1 246:1 325:1 406:1 541:1 559:1 675:1 681:1 907:1 1071:1 1231:1 1236:1 1292:1 1300:1 1313:1 1356:1 1374:1
-1 246:2 406:1 559:2 681:2 701:1 1231:2 1236:1 1241:1 1292:2 1313:2 1374:7
-1 227:1 246:1 365:1 406:1 460:1 541:1 559:1 621:1 681:1 778:1 810:1 864:1 895:1 907:1 926:1 980:1 981:1 1108:1 1231:1 1236:1 1239:1 1265:1 1279:1 1291:1 1292:1 1300:1 1313:1 1348:1 1350:1 1356:1 1370:1 1374:1 1376:44
-1 246:1 406:1 460:1 541:1 559:1 681:1 778:1 907:1 980:1 981:1 1207:1 1231:1 1236:1 1239:1 1265:1 1292:1 1300:1 1313:1 1356:1 1369:1 1374:2 1376:1
-1 246:1 349:1 365:1 460:1 541:1 559:1 642:1 677:1 681:1 701:1 703:1 760:1 945:1 953:1 1100:1 1231:1 1241:1 1265:1 1292:1 1300:1 1313:1 1354:1 1370:1 1374:2
-1 246:1 308:1 349:1 541:1 550:1 559:1 618:1 634:1 681:1 845:1 907:1 955:1 1231:1 1292:1 1300:1 1306:1 1313:1 1335:1 1354:1 1356:1 1357:1 1374:2 1376:92
-1 131:1 246:1 406:1 541:1 559:1 701:1 907:1 981:1 1225:1 1236:1 1239:1 1241:1 1292:1 1300:1 1313:1 1356:1 1374:5
-1 382:1 1219:1 1374:4
-1 349:2 559:1 1196:1 1313:1 1354:2 1374:3
-1 349:2 559:1 1196:1 1313:1 1354:2 1374:3
-1 246:1 541:1 559:1 681:1 907:1 1231:1 1292:1 1300:1 1313:1 1356:1 1374:2
-1 349:2 466:1 497:1 505:1 559:1 564:1 598:1 781:1 1313:1 1354:2 1374:2
-1 139:1 287:1 349:1 547:1 559:1 1196:1 1313:1 1354:1 1374:3 1376:6
-1 139:1 254:1 349:1 559:1 1313:1 1354:1 1374:3
-1 131:1 246:2 406:3 559:6 621:1 681:2 701:1 907:1 978:1 981:1 1225:1 1231:2 1236:3 1237:1 1239:1 1241:1 1292:2 1313:6 1348:1 1356:1 1374:6
-1 349:1 424:1 502:1 559:1 789:1 1313:1 1354:1 1374:3
-1 382:1 1219:1 1374:3
-1 131:1 246:2 406:2 540:1 541:1 559:4 621:1 656:1 681:2 701:1 884:1 907:1 978:1 981:2 1003:1 1225:1 1231:2 1236:2 1237:1 1239:2 1241:1 1292:2 1300:1 1313:4 1348:1 1356:1 1373:1 1374:5
-1 382:1 1219:1 1374:4
-1 182:1 214:1 246:1 541:1 559:1 681:1 701:1 812:1 897:1 907:1 1231:1 1241:1 1292:1 1300:1 1313:1 1356:1 1374:2
-1 131:1 246:1 349:1 541:1 559:1 681:1 701:1 780:1 907:1 978:1 981:1 1225:1 1231:1 1237:1 1239:1 1241:1 1292:1 1300:1 1313:1 1354:1 1356:1 1374:4
-1 131:1 246:1 541:1 559:1 681:1 701:1 907:1 981:1 1225:1 1231:1 1239:1 1241:1 1292:1 1300:1 1313:1 1356:1 1374:3
-1 559:1 1313:1 1374:3
-1 246:1 541:1 559:1 634:1 681:1 701:1 780:1 907:1 978:1 981:1 1152:1 1231:1 1237:1 1239:1 1241:1 1292:1 1300:1 1313:1 1334:1 1356:1 1357:1 1374:2
-1 559:1 1313:1 1374:3 1376:1
-1 246:1 541:1 559:1 681:1 907:1 1231:1 1292:1 1300:1 1313:1 1356:1 1374:2
-1 349:1 559:1 699:1 1240:1 1313:1 1354:1 1374:2
-1 559:1 1313:1 1374:1
-1 382:1 1219:1 1374:3
-1 162:1 227:1 246:1 334:1 349:1 406:1 407:1 460:1 508:1 541:1 559:1 570:1 581:1 634:1 681:1 699:1 701:1 895:1 907:1 981:1 1074:1 1231:1 1235:1 1236:1 1239:1 1240:1 1241:1 1244:1 1265:1 1279:1 1292:1 1300:1 1313:1 1346:1 1350:1 1354:1 1356:1 1357:1 1374:2
-1 382:1 1219:1 1374:3
-1 382:1 1219:1 1374:3
-1 382:1 1219:1 1374:3
-1 131:1 246:1 541:1 559:1 681:1 701:1 907:1 981:1 1225:1 1231:1 1239:1 1241:1 1292:1 1300:1 1313:1 1356:1 1374:2
-1 349:1 559:1 1313:1 1354:1 1374:2
-1 246:1 349:1 399:1 406:1 460:1 541:1 559:1 681:1 699:1 701:1 907:1 981:1 1231:1 1236:1 1239:1 1240:1 1241:1 1265:1 1292:1 1300:1 1313:1 1354:1 1356:1 1374:2
-1 559:1 980:1 1313:1 1374:2
-1 483:1 559:1 981:1 1239:1 1313:1 1374:2
-1 349:1 559:1 681:1 1231:1 1313:1 1354:1 1374:2
-1 246:1 349:2 541:1 559:1 681:1 701:1 907:1 978:1 1231:1 1237:1 1241:1 1292:1 1300:1 1313:1 1354:2 1356:1 1374:3
-1 246:1 349:1 559:1 701:1 1241:1 1292:1 1313:1 1354:1 1374:2
-1 382:1 1219:1 1374:4
-1 131:1 246:1 406:1 541:1 559:1 681:1 701:1 907:1 981:1 1225:1 1231:1 1236:1 1239:1 1241:1 1292:1 1300:1 1313:1 1356:1 1374:2
-1 349:2 559:1 780:1 1313:1 1354:2 1374:3
-1 349:2 559:1 780:1 1313:1 1354:2 1374:3
-1 121:1 246:1 541:1 559:1 681:1 701:1 907:1 1217:1 1231:1 1241:1 1292:1 1300:1 1313:1 1356:1 1374:3
-1 1112:1 1310:1 1374:1
-1 131:1 246:2 406:3 541:1 559:4 681:2 701:1 780:1 907:1 978:1 981:1 1225:1 1231:2 1236:3 1237:1 1239:1 1241:1 1292:2 1300:1 1313:4 1356:1 1374:6
-1 241:1 349:1 445:1 642:1 677:1 755:1 760:1 811:1 824:1 869:1 945:1 953:1 1022:1 1100:1 1104:1 1111:1 1266:1 1295:1 1354:1 1374:2
-1 349:1 559:1 611:1 1313:1 1354:1 1374:2
-1 406:1 559:1 981:1 1236:1 1239:1 1313:1 1374:1
-1 131:1 246:1 334:1 406:1 460:1 541:1 559:1 576:1 681:1 895:1 981:1 1225:1 1231:1 1236:1 1239:1 1265:1 1292:1 1300:1 1313:1 1325:1 1346:1 1350:1 1374:1
-1 246:1 406:1 460:1 541:1 559:1 681:1 701:1 907:1 978:1 981:1 1152:1 1231:1 1236:1 1237:1 1239:1 1241:1 1265:1 1292:1 1300:1 1313:1 1334:1 1356:1 1374:2
-1 246:1 541:1 559:1 681:1 1231:1 1292:1 1300:1 1313:1 1374:1
-1 246:1 406:1 460:1 559:1 681:1 907:1 1231:1 1236:1 1265:1 1292:1 1313:1 1356:1 1374:1
-1 382:1 1219:1 1374:3
-1 246:1 559:1 681:1 907:1 1231:1 1292:1 1313:1 1356:1 1374:2 1376:2
-1 559:1 588:1 902:1 915:1 1189:1 1313:1 1374:3 1376:1
-1 349:1 511:1 559:1 1286:1 1313:1 1354:1 1374:1
-1 349:1 559:1 1313:1 1354:1 1374:1
-1 349:1 541:1 559:1 681:1 703:1 1231:1 1300:1 1313:1 1354:1 1374:1
-1 131:1 246:1 559:1 1225:1 1292:1 1313:1 1374:5 1376:1
-1 559:1 1313:1 1374:2
-1 174:1 241:1 349:1 445:1 506:1 642:1 677:1 699:1 760:1 766:1 811:1 849:1 869:1 881:1 945:1 953:1 1022:1 1100:1 1104:1 1111:1 1132:1 1240:1 1354:1 1374:1
-1 382:1 1219:1 1374:3
-1 246:1 267:1 406:1 559:1 681:1 741:1 981:1 1231:1 1236:1 1239:1 1258:1 1292:1 1301:1 1313:1 1374:1
-1 260:1 298:1 349:1 642:1 677:1 734:1 759:1 760:1 877:1 945:1 953:1 1100:1 1131:1 1328:1 1354:1 1374:1
-1 138:1 349:1 506:1 642:1 677:1 703:1 759:1 760:1 945:1 953:1 1100:1 1354:1 1374:2
-1 382:1 1219:1 1374:3
-1 382:1 1219:1 1374:2
-1 465:1 559:1 565:1 918:1 1313:1 1374:2
-1 246:1 406:1 541:1 559:1 681:1 690:1 701:1 907:1 978:1 981:1 1152:1 1231:1 1236:1 1237:1 1239:1 1241:1 1292:1 1300:1 1313:1 1334:1 1356:1 1374:2
-1 246:1 349:1 541:1 559:1 681:1 1231:1 1292:1 1300:1 1313:1 1354:1 1374:1
-1 131:1 175:1 246:1 349:1 362:1 406:1 460:1 486:1 541:1 544:1 559:1 606:1 681:1 837:1 981:1 1010:1 1206:1 1225:1 1231:1 1236:1 1239:1 1251:1 1265:1 1275:1 1292:1 1300:1 1302:1 1313:1 1343:1 1354:1 1374:1
-1 246:1 349:1 382:1 406:1 407:1 559:1 701:1 981:1 1219:1 1235:1 1236:1 1239:1 1241:1 1292:1 1313:1 1354:1 1374:4
-1 246:1 406:1 559:1 681:1 709:1 981:1 1231:1 1236:1 1239:1 1292:1 1313:1 1374:3
-1 214:1 406:1 559:1 981:1 1236:1 1239:1 1313:1 1374:2
-1 175:1 246:1 349:1 406:1 525:1 544:1 559:1 681:1 981:1 1158:1 1207:1 1231:1 1236:1 1239:1 1251:1 1292:1 1294:1 1313:1 1338:1 1354:1 1369:1 1374:2
-1 246:1 349:1 544:1 559:1 837:1 981:1 1239:1 1292:1 1302:1 1313:1 1354:1 1374:2
-1 328:1 337:1 380:1 419:1 480:1 559:1 573:1 590:1 633:1 713:1 816:1 826:1 879:1 889:1 919:1 977:1 991:1 1042:1 1137:1 1167:1 1198:1 1313:1 1374:2 1376:427
-1 246:1 349:1 406:1 460:1 541:1 559:1 681:1 703:1 1231:1 1236:1 1265:1 1292:1 1300:1 1313:1 1354:1 1374:1 1376:66
-1 305:1 349:1 544:1 559:1 612:1 681:1 917:1 1076:1 1231:1 1313:1 1354:1 1374:3
-1 131:1 246:1 300:1 349:1 559:1 681:1 701:1 907:1 978:1 1225:1 1231:1 1237:1 1241:1 1292:1 1313:1 1329:1 1354:1 1356:1 1374:2
-1 246:1 541:1 559:1 681:1 701:1 907:1 918:1 1231:1 1241:1 1292:1 1300:1 1313:1 1356:1 1374:3
-1 223:1 246:1 349:1 361:1 406:1 452:1 541:1 559:1 681:1 803:1 981:1 1231:1 1236:1 1239:1 1292:1 1300:1 1313:1 1354:1 1374:2
-1 229:1 559:1 1280:1 1313:1 1374:2
-1 246:1 382:1 406:1 559:1 630:1 681:1 981:1 1027:1 1219:1 1231:1 1236:1 1239:1 1292:1 1313:1 1374:1
-1 246:1 406:1 460:1 541:1 559:1 681:1 701:1 895:1 907:1 978:1 981:1 1152:1 1231:1 1236:1 1237:1 1239:1 1241:1 1265:1 1292:1 1300:1 1313:1 1334:1 1350:1 1356:1 1374:1
-1 294:1 325:1 530:1 550:1 559:1 675:1 955:1 1133:1 1149:1 1151:1 1306:1 1313:1 1374:1
-1 382:1 1219:1 1374:3
-1 131:1 246:1 541:1 559:1 681:1 701:1 907:1 981:1 1225:1 1231:1 1239:1 1241:1 1292:1 1300:1 1313:1 1356:1 1374:3
-1 246:1 349:1 406:1 460:1 537:1 541:1 559:1 701:1 981:1 1236:1 1239:1 1241:1 1265:1 1292:1 1296:1 1300:1 1313:1 1354:1 1374:3
-1 246:2 406:2 541:1 559:3 681:2 701:1 907:1 981:1 1231:2 1236:2 1239:1 1241:1 1292:2 1300:1 1313:3 1356:1 1374:6
-1 246:1 349:1 365:1 460:1 541:1 559:1 681:1 701:1 907:1 978:1 981:1 1231:1 1237:1 1239:1 1241:1 1265:1 1292:1 1300:1 1313:1 1354:1 1356:1 1370:1 1374:1
-1 382:1 1219:1 1374:2
-1 142:1 237:1 241:1 246:1 264:1 266:1 304:1 349:1 406:1 417:1 420:1 445:1 460:1 489:1 506:1 512:1 541:1 559:1 614:1 642:1 677:1 681:1 699:1 703:1 730:1 759:1 760:1 764:1 766:1 777:1 811:1 869:1 876:1 877:1 881:1 945:1 953:1 1022:1 1050:1 1060:1 1084:1 1100:1 1104:1 1123:1 1231:1 1236:1 1240:1 1265:1 1292:1 1300:1 1313:1 1354:1 1374:2
-1 220:1 246:1 349:1 406:1 541:1 559:1 681:1 907:1 981:1 1231:1 1236:1 1239:1 1292:1 1300:1 1313:1 1354:1 1356:1 1374:2
-1 349:1 541:1 559:1 681:1 701:1 981:1 1231:1 1239:1 1241:1 1300:1 1313:1 1354:1 1374:1
-1 246:1 349:1 559:1 681:1 907:1 981:1 1190:1 1231:1 1239:1 1292:1 1313:1 1353:1 1354:1 1356:1 1374:1
-1 246:1 349:1 406:1 460:1 541:1 559:1 681:1 701:1 981:1 1231:1 1236:1 1239:1 1241:1 1265:1 1292:1 1300:1 1313:1 1354:1 1374:2
-1 241:1 246:1 304:1 349:1 406:1 460:1 486:1 525:1 541:1 559:1 642:1 677:1 681:1 701:1 703:1 760:1 810:1 811:1 864:1 907:1 945:1 953:1 981:1 1084:1 1100:1 1231:1 1236:1 1239:1 1241:1 1265:1 1275:1 1291:1 1292:1 1294:1 1300:1 1313:1 1354:1 1356:1 1374:2
-1 131:1 246:2 349:1 406:3 541:2 559:4 621:1 681:2 701:1 907:1 978:1 981:2 1225:1 1231:2 1236:3 1237:1 1239:2 1241:1 1292:2 1300:2 1313:4 1348:1 1354:1 1356:1 1374:5
-1 246:1 365:1 406:1 407:1 460:1 541:1 559:1 621:1 634:1 681:1 701:1 895:1 907:1 978:1 981:1 1152:1 1231:1 1235:1 1236:1 1237:1 1239:1 1241:1 1265:1 1292:1 1300:1 1313:1 1334:1 1348:1 1350:1 1356:1 1357:1 1370:1 1374:1
-1 131:1 246:2 406:2 541:1 559:5 621:1 681:2 701:1 907:1 978:1 981:1 1161:1 1225:1 1231:2 1236:2 1237:1 1239:1 1241:1 1292:2 1300:1 1313:5 1348:1 1356:1 1374:6
-1 246:1 304:1 349:1 365:1 406:1 460:1 489:1 541:1 559:1 642:1 681:1 699:1 701:1 703:1 760:1 764:1 907:1 945:1 953:1 978:1 981:1 1084:1 1100:1 1207:1 1231:1 1236:1 1237:1 1239:1 1240:1 1241:1 1265:1 1292:1 1300:1 1313:1 1354:1 1356:1 1369:1 1370:1 1374:2
-1 246:1 349:1 541:1 559:1 681:1 907:1 1231:1 1292:1 1300:1 1313:1 1354:1 1356:1 1374:1
-1 142:1 241:1 246:1 349:1 445:1 495:1 506:1 541:1 642:1 677:1 699:1 703:1 759:1 760:1 766:1 777:1 869:1 876:1 877:1 881:1 907:1 945:1 953:1 981:1 1068:1 1100:1 1104:1 1123:1 1239:1 1240:1 1292:1 1300:1 1354:1 1356:1 1374:2
-1 131:1 142:1 174:1 237:1 246:1 304:1 349:1 406:1 417:1 420:1 460:1 512:1 541:1 559:1 614:1 642:1 677:1 681:1 699:1 759:1 760:1 766:1 777:1 811:1 823:1 864:1 869:1 881:1 945:1 953:1 981:1 1022:1 1060:1 1084:1 1100:1 1211:1 1225:1 1231:1 1236:1 1239:1 1240:1 1265:1 1292:1 1300:1 1313:1 1354:1 1374:2 1376:1
-1 132:1 246:1 349:1 541:1 559:1 681:1 981:1 1226:1 1231:1 1239:1 1292:1 1300:1 1313:1 1354:1 1374:1
-1 382:1 1219:1 1374:3
-1 188:1 241:1 246:1 298:1 304:1 406:1 445:1 559:1 582:1 642:1 665:1 681:1 693:1 699:1 703:1 741:1 760:1 766:1 777:1 876:1 877:1 881:1 901:1 945:1 953:1 1022:1 1084:1 1100:1 1131:1 1207:1 1231:1 1236:1 1240:1 1258:1 1292:1 1313:1 1328:1 1331:1 1369:1 1374:2
-1 349:2 466:1 559:1 781:1 841:1 1313:1 1354:2 1374:2
-1 349:1 497:1 559:1 781:1 841:1 1313:1 1354:1 1374:2
-1 349:1 466:1 497:1 559:1 781:1 841:1 1313:1 1354:1 1374:2
-1 129:1 349:2 402:1 559:1 1313:1 1354:2 1374:5
-1 246:1 349:1 365:1 559:1 681:1 701:1 907:1 981:1 1231:1 1239:1 1241:1 1292:1 1313:1 1354:1 1356:1 1370:1 1374:1
-1 139:1 254:1 349:2 547:1 559:1 1053:1 1105:1 1165:1 1196:1 1313:1 1354:2 1374:2 1376:347
-1 246:1 349:1 460:1 541:1 559:1 681:1 701:1 978:1 981:1 1231:1 1237:1 1239:1 1241:1 1265:1 1292:1 1300:1 1313:1 1354:1 1374:1
-1 246:1 349:1 365:1 541:1 559:1 681:1 701:1 907:1 978:1 981:1 1231:1 1237:1 1239:1 1241:1 1292:1 1300:1 1313:1 1354:1 1356:1 1370:1 1374:3
-1 246:2 406:1 559:2 681:2 701:1 1231:2 1236:1 1241:1 1292:2 1313:2 1374:7
-1 246:1 349:1 559:1 907:1 1292:1 1313:1 1354:1 1356:1 1374:2
-1 246:1 349:1 382:1 460:1 541:1 559:1 981:1 1219:1 1239:1 1265:1 1292:1 1300:1 1313:1 1354:1 1374:2
-1 349:1 496:1 541:1 559:1 701:1 741:1 1241:1 1258:1 1300:1 1313:1 1354:1 1374:2
-1 1112:1 1310:1 1374:1
-1 131:1 246:1 406:1 541:1 559:1 634:1 681:1 701:1 907:1 978:1 981:1 1225:1 1231:1 1236:1 1237:1 1239:1 1241:1 1292:1 1300:1 1313:1 1356:1 1357:1 1374:2
-1 349:1 559:1 980:1 1090:1 1313:1 1354:1 1374:2
-1 246:1 308:1 349:1 550:1 559:1 618:1 907:1 955:1 1292:1 1306:1 1313:1 1335:1 1354:1 1356:1 1374:2
-1 131:1 220:1 246:1 349:1 406:1 460:1 495:1 541:1 559:1 681:1 699:1 701:1 810:1 907:1 981:1 1225:1 1231:1 1236:1 1239:1 1240:1 1241:1 1265:1 1291:1 1292:1 1300:1 1313:1 1354:1 1356:1 1374:2
-1 349:2 559:1 1313:1 1354:2 1374:2
-1 294:1 325:1 530:1 550:1 559:1 675:1 863:1 955:1 1133:1 1149:1 1151:1 1195:1 1306:1 1313:1 1374:2
-1 246:1 559:1 1292:1 1313:1 1374:2
-1 188:1 237:1 241:1 246:1 266:1 349:1 365:1 406:1 460:1 541:1 559:1 642:1 677:1 760:1 811:1 876:1 945:1 953:1 981:1 1014:1 1100:1 1207:1 1236:1 1239:1 1265:1 1292:1 1300:1 1313:1 1354:1 1369:1 1370:1 1374:1
-1 131:1 246:1 406:1 407:1 559:1 701:1 907:1 981:1 1225:1 1235:1 1236:1 1239:1 1241:1 1292:1 1313:1 1356:1 1374:2
-1 246:1 406:1 407:1 460:1 541:1 559:1 681:1 701:1 907:1 978:1 981:1 1231:1 1235:1 1236:1 1237:1 1239:1 1241:1 1265:1 1292:1 1300:1 1313:1 1356:1 1374:3
-1 142:1 237:1 241:1 303:1 349:1 420:1 506:1 642:1 677:1 699:1 759:1 760:1 766:1 777:1 811:1 876:1 881:1 945:1 953:1 1022:1 1050:1 1060:1 1084:1 1100:1 1123:1 1240:1 1354:1 1374:2
-1 142:1 241:1 303:1 307:1 349:1 506:1 642:1 677:1 699:1 734:1 737:1 759:1 760:1 777:1 811:1 869:1 876:1 881:1 945:1 953:1 1022:1 1060:1 1068:1 1084:1 1100:1 1104:1 1123:1 1240:1 1354:1 1374:2
-1 131:1 246:1 541:1 559:1 681:1 701:1 907:1 978:1 981:1 1225:1 1231:1 1237:1 1239:1 1241:1 1292:1 1300:1 1313:1 1356:1 1374:2
-1 382:1 1219:1 1374:3
-1 382:1 1219:1 1374:3
-1 382:1 1219:1 1374:3
-1 246:1 559:1 907:1 1292:1 1313:1 1356:1 1374:3
-1 246:1 541:1 559:1 907:1 1292:1 1300:1 1313:1 1356:1 1374:2
-1 131:1 246:1 541:1 559:1 681:1 701:1 907:1 981:1 1225:1 1231:1 1239:1 1241:1 1292:1 1300:1 1313:1 1356:1 1374:2
-1 131:1 246:1 541:1 559:1 681:1 701:1 907:1 981:1 1225:1 1231:1 1239:1 1241:1 1292:1 1300:1 1313:1 1356:1 1374:3
-1 246:1 541:1 559:1 681:1 981:1 1231:1 1239:1 1292:1 1300:1 1313:1 1374:3
-1 382:1 1219:1 1374:2
-1 559:1 681:1 1231:1 1313:1 1374:1
-1 131:1 246:1 559:1 681:1 701:1 907:1 1225:1 1231:1 1241:1 1292:1 1313:1 1356:1 1374:2
-1 131:1 246:1 559:1 681:1 701:1 907:1 1225:1 1231:1 1241:1 1292:1 1313:1 1356:1 1374:2
-1 131:1 246:1 406:1 541:1 559:1 681:1 701:1 907:1 981:1 1207:1 1225:1 1231:1 1236:1 1239:1 1241:1 1292:1 1300:1 1313:1 1356:1 1369:1 1374:2
-1 131:1 246:1 541:1 559:1 681:1 701:1 907:1 981:1 1225:1 1231:1 1239:1 1241:1 1292:1 1300:1 1313:1 1356:1 1374:2
-1 406:1 525:1 559:1 681:1 907:1 981:1 1231:1 1236:1 1239:1 1294:1 1313:1 1356:1 1374:3
-1 349:2 559:1 780:1 1313:1 1354:2 1374:3
-1 382:1 1219:1 1374:3
-1 382:1 1219:1 1374:3
-1 246:2 406:1 559:2 681:2 701:1 1231:2 1236:1 1241:1 1292:2 1313:2 1374:7
-1 128:1 193:1 241:1 349:1 420:1 445:1 535:1 642:1 677:1 699:1 755:1 759:1 760:1 811:1 869:1 881:1 945:1 953:1 963:1 1022:1 1056:1 1082:1 1100:1 1104:1 1111:1 1223:1 1240:1 1266:1 1273:1 1354:1 1374:2
-1 246:1 406:1 541:1 559:1 681:1 701:1 981:1 1231:1 1236:1 1239:1 1241:1 1292:1 1300:1 1313:1 1374:3
-1 131:1 246:2 406:2 541:1 559:4 681:2 701:1 780:1 907:1 1225:1 1231:2 1236:2 1241:1 1292:2 1300:1 1313:4 1356:1 1374:6
-1 131:1 246:1 406:1 541:1 559:1 681:1 701:1 907:1 981:1 1225:1 1231:1 1236:1 1239:1 1241:1 1292:1 1300:1 1313:1 1356:1 1374:2
-1 132:1 227:1 246:1 349:1 406:1 460:1 541:1 559:1 634:1 681:1 699:1 755:1 824:1 981:1 1226:1 1231:1 1236:1 1239:1 1240:1 1265:1 1266:1 1279:1 1292:1 1295:1 1300:1 1313:1 1354:1 1357:1 1374:1
-1 246:1 550:1 559:1 907:1 1292:1 1306:1 1313:1 1356:1 1374:1
-1 131:1 246:2 406:2 541:2 559:4 681:2 701:1 907:1 978:1 981:1 1225:1 1231:2 1236:2 1237:1 1239:1 1241:1 1292:2 1300:2 1313:4 1356:1 1374:6
-1 131:1 246:2 406:2 559:4 681:2 701:1 907:1 978:1 1225:1 1231:2 1236:2 1237:1 1241:1 1292:2 1313:4 1356:1 1374:6
-1 131:1 246:1 541:1 559:1 681:1 701:1 907:1 981:1 1225:1 1231:1 1239:1 1241:1 1292:1 1300:1 1313:1 1356:1 1374:3
-1 559:1 1313:1 1374:1
-1 246:1 559:1 907:1 1292:1 1313:1 1356:1 1374:3
-1 131:1 246:1 541:1 559:1 681:1 701:1 907:1 981:1 1225:1 1231:1 1239:1 1241:1 1292:1 1300:1 1313:1 1356:1 1374:3
-1 121:1 131:1 246:1 406:1 541:1 559:1 681:1 701:1 907:1 981:1 1207:1 1217:1 1225:1 1231:1 1236:1 1239:1 1241:1 1292:1 1300:1 1313:1 1356:1 1369:1 1374:1
-1 246:1 406:1 559:1 1236:1 1292:1 1313:1 1374:4
-1 234:1 241:1 307:1 349:1 417:1 506:1 642:1 668:1 677:1 746:1 755:1 760:1 811:1 854:1 869:1 945:1 953:1 1022:1 1100:1 1104:1 1111:1 1123:1 1266:1 1354:1 1374:4
-1 246:1 349:1 460:1 541:1 559:1 907:1 1265:1 1292:1 1300:1 1313:1 1354:1 1356:1 1374:3
-1 349:1 559:1 1313:1 1354:1 1374:2
-1 131:1 246:2 406:3 541:2 559:5 606:5 656:1 681:6 701:1 907:1 978:1 981:1 1225:1 1231:6 1236:3 1237:1 1239:1 1241:1 1292:2 1300:2 1313:5 1343:5 1356:1 1373:1 1374:6
-1 131:1 246:1 541:1 559:1 681:1 701:1 907:1 981:1 1225:1 1231:1 1239:1 1241:1 1292:1 1300:1 1313:1 1356:1 1374:5
-1 188:1 237:1 246:1 349:1 406:1 460:1 512:1 559:1 642:1 677:1 681:1 701:1 703:1 760:1 810:1 945:1 953:1 1100:1 1231:1 1236:1 1241:1 1265:1 1291:1 1292:1 1313:1 1354:1 1374:1
-1 131:1 246:2 406:1 559:4 634:1 681:2 701:1 907:1 978:1 981:1 1225:1 1231:2 1236:1 1237:1 1239:1 1241:1 1292:2 1313:4 1356:1 1357:1 1374:6
-1 559:1 918:1 1313:1 1374:2
-1 559:1 918:1 1313:1 1374:2
-1 131:1 246:1 541:1 559:1 681:1 701:1 907:1 981:1 1225:1 1231:1 1239:1 1241:1 1292:1 1300:1 1313:1 1356:1 1374:4
-1 246:1 559:1 681:1 1231:1 1292:1 1313:1 1374:3
-1 131:1 246:1 406:1 541:1 559:1 681:1 701:1 907:1 981:1 1225:1 1231:1 1236:1 1239:1 1241:1 1292:1 1300:1 1313:1 1356:1 1374:2
-1 246:1 541:1 559:1 681:1 701:1 907:1 978:1 981:1 1231:1 1237:1 1239:1 1241:1 1292:1 1300:1 1313:1 1356:1 1374:4
-1 246:2 406:2 559:4 656:1 681:1 1231:1 1236:2 1292:2 1313:4 1373:1 1374:6
-1 246:2 406:1 559:2 681:2 701:1 1231:2 1236:1 1241:1 1292:2 1313:2 1374:7
-1 494:1 708:1 1374:2
-1 494:1 708:1 1374:2
-1 494:1 708:1 1374:2
-1 246:1 257:1 541:1 559:1 681:1 701:1 755:1 907:1 978:1 981:1 1231:1 1237:1 1239:1 1241:1 1266:1 1292:1 1300:1 1313:1 1356:1 1374:4
-1 246:1 308:1 349:1 559:1 562:1 581:1 618:1 634:1 681:1 907:1 1231:1 1292:1 1313:1 1335:1 1354:1 1356:1 1357:1 1374:2
-1 268:1 494:1 708:1 1374:2
-1 246:1 559:1 681:1 701:1 1231:1 1241:1 1292:1 1313:1 1374:1
-1 246:1 349:1 559:1 681:1 755:1 1231:1 1266:1 1292:1 1313:1 1354:1 1374:4
-1 246:1 406:1 559:1 780:1 981:1 1236:1 1239:1 1292:1 1313:1 1374:1
-1 559:1 1112:1 1310:1 1313:1 1374:4
-1 246:2 406:1 559:2 681:2 701:1 1231:2 1236:1 1241:1 1292:2 1313:2 1374:7
-1 246:1 349:2 541:1 559:1 681:1 1231:1 1292:1 1300:1 1313:1 1354:2 1374:4
-1 246:1 541:1 559:1 681:1 907:1 1231:1 1292:1 1300:1 1313:1 1356:1 1374:1 1376:26
-1 246:2 406:1 559:2 681:2 701:1 1231:2 1236:1 1241:1 1292:2 1313:2 1374:7
-1 325:1 406:1 460:1 559:1 681:1 981:1 1231:1 1236:1 1239:1 1265:1 1313:1 1374:1
-1 246:1 406:1 541:1 559:1 681:1 690:1 701:1 907:1 978:1 981:1 1152:1 1231:1 1236:1 1237:1 1239:1 1241:1 1292:1 1300:1 1313:1 1334:1 1356:1 1374:2
-1 246:2 406:3 460:1 541:1 559:6 681:1 981:1 1231:1 1236:3 1239:1 1265:1 1292:2 1300:1 1313:6 1374:5
-1 132:1 246:1 308:1 349:1 406:1 460:1 541:1 559:1 681:1 699:1 701:1 810:1 895:1 907:1 981:1 1074:1 1164:1 1226:1 1231:1 1236:1 1239:1 1240:1 1241:1 1265:1 1291:1 1292:1 1300:1 1313:1 1335:1 1350:1 1354:1 1356:1 1374:1
-1 382:1 1219:1 1374:3
-1 349:1 559:1 1313:1 1354:1 1374:3
-1 349:2 559:1 1313:1 1354:2 1374:4
-1 246:1 365:1 406:1 407:1 460:1 541:1 559:1 621:1 634:1 681:1 701:1 810:1 837:1 895:1 907:1 981:1 1152:1 1231:1 1235:1 1236:1 1239:1 1241:1 1265:1 1291:1 1292:1 1300:1 1302:1 1313:1 1334:1 1348:1 1350:1 1356:1 1357:1 1370:1 1374:2
-1 559:1 1313:1 1374:2
-1 246:1 406:1 460:1 541:1 559:1 621:1 681:1 701:1 755:1 895:1 907:1 978:1 981:1 1231:1 1236:1 1237:1 1239:1 1241:1 1265:1 1266:1 1292:1 1300:1 1313:1 1348:1 1350:1 1356:1 1374:1
-1 559:1 681:1 1231:1 1313:1 1374:3
-1 349:1 559:1 681:1 1231:1 1313:1 1354:1 1374:4
-1 246:1 343:1 559:1 681:1 724:1 907:1 981:1 1231:1 1239:1 1292:1 1313:1 1356:1 1374:3
-1 382:1 1219:1 1374:2
-1 559:1 681:1 755:1 1231:1 1266:1 1313:1 1374:2
-1 513:1 559:1 681:1 755:1 1231:1 1266:1 1313:1 1374:3
-1 246:1 541:1 559:1 634:1 701:1 907:1 978:1 981:1 1237:1 1239:1 1241:1 1292:1 1300:1 1313:1 1356:1 1357:1 1374:4
-1 382:1 1219:1 1374:4
-1 382:1 1219:1 1374:2
-1 1112:1 1310:1 1374:1
-1 1112:1 1310:1 1374:1
-1 382:1 1219:1 1374:4
-1 559:1 1207:1 1313:1 1369:1 1374:2 1376:4
-1 1112:1 1310:1 1374:1
-1 131:1 246:2 365:1 406:2 541:1 559:4 656:1 681:2 701:1 907:1 1225:1 1231:2 1236:2 1241:1 1292:2 1300:1 1313:4 1356:1 1370:1 1373:1 1374:6
-1 246:2 406:1 559:4 681:3 701:1 1231:3 1236:1 1241:1 1292:2 1313:4 1374:4
-1 246:2 406:1 559:4 681:3 701:1 1231:3 1236:1 1241:1 1292:2 1313:4 1374:4
-1 382:1 1219:1 1374:2
-1 349:1 396:1 541:1 559:1 821:1 996:1 1144:1 1203:1 1300:1 1313:1 1354:1 1374:7
-1 559:1 1172:1 1313:1 1374:3
-1 131:1 246:2 406:3 460:1 541:2 559:4 634:1 681:2 701:1 780:1 907:1 978:1 981:1 1152:1 1225:1 1231:2 1236:3 1237:1 1239:1 1241:1 1265:1 1292:2 1300:2 1313:4 1334:1 1356:1 1357:1 1374:6
-1 246:1 406:1 541:1 559:1 681:1 701:1 907:1 978:1 981:1 1152:1 1231:1 1236:1 1237:1 1239:1 1241:1 1292:1 1300:1 1313:1 1334:1 1356:1 1374:2
-1 246:1 541:1 559:1 681:1 701:1 907:1 981:1 1231:1 1239:1 1241:1 1292:1 1300:1 1313:1 1356:1 1374:2
-1 559:1 1313:1 1374:2
-1 246:1 406:1 460:1 541:1 559:1 681:1 701:1 907:1 978:1 1231:1 1236:1 1237:1 1241:1 1265:1 1292:1 1300:1 1313:1 1356:1 1374:1
-1 559:1 918:1 1313:1 1374:3
-1 246:2 406:2 541:1 559:4 681:1 1231:1 1236:2 1292:2 1300:1 1313:4 1374:6
-1 117:1 241:1 349:1 358:1 559:1 642:1 677:1 681:1 699:1 760:1 811:1 869:1 945:1 953:1 1022:1 1100:1 1104:1 1111:1 1157:1 1231:1 1240:1 1313:1 1354:1 1374:2
-1 246:1 559:1 907:1 1292:1 1313:1 1356:1 1374:3 1376:2
-1 246:1 263:1 530:1 559:1 1292:1 1313:1 1374:2 1376:35
-1 559:1 1313:1 1374:3
-1 1112:1 1310:1 1374:1
-1 131:1 246:1 541:1 559:1 681:1 701:1 907:1 981:1 1225:1 1231:1 1239:1 1241:1 1292:1 1300:1 1313:1 1356:1 1374:3
-1 117:1 241:1 349:1 358:1 559:1 596:1 642:1 677:1 681:1 697:1 699:1 760:1 811:1 945:1 953:1 1022:1 1100:1 1104:1 1111:1 1157:1 1231:1 1240:1 1313:1 1337:1 1354:1 1374:1
-1 131:1 246:2 406:3 541:2 559:4 634:1 681:2 701:1 907:1 978:1 981:1 1225:1 1231:2 1236:3 1237:1 1239:1 1241:1 1292:2 1300:2 1313:4 1356:1 1357:1 1374:6
-1 325:1 559:1 776:1 1313:1 1374:2
-1 349:1 559:1 619:1 681:1 699:1 703:1 1231:1 1240:1 1313:1 1354:1 1374:1
-1 246:1 343:1 375:1 541:1 559:1 634:1 652:1 681:1 701:1 907:1 1019:1 1231:1 1241:1 1292:1 1300:1 1313:1 1356:1 1357:1 1371:1 1374:2
-1 246:1 349:1 541:1 559:1 634:1 1292:1 1300:1 1313:1 1354:1 1357:1 1374:2
-1 382:1 1219:1 1374:3
-1 246:1 559:1 907:1 1292:1 1313:1 1356:1 1374:2
-1 239:1 349:1 559:1 699:1 994:1 1240:1 1247:1 1313:1 1354:1 1374:2
-1 128:1 349:1 559:1 681:1 755:1 1011:1 1183:1 1223:1 1231:1 1266:1 1313:1 1354:1 1374:2
-1 382:1 1219:1 1374:4
-1 559:1 1313:1 1374:4
-1 246:1 349:1 541:1 559:1 634:1 681:1 701:1 780:1 907:1 978:1 981:1 1231:1 1237:1 1239:1 1241:1 1292:1 1300:1 1313:1 1354:1 1356:1 1357:1 1374:2
-1 241:1 349:1 406:1 506:1 512:1 567:1 639:1 642:1 677:1 703:1 729:1 760:1 876:1 945:1 953:1 1100:1 1104:1 1236:1 1354:1 1374:1
-1 382:1 1219:1 1374:3
-1 382:1 1219:1 1374:2
-1 131:1 246:1 267:1 334:1 406:1 460:1 541:1 559:1 634:1 681:1 981:1 1225:1 1231:1 1236:1 1239:1 1265:1 1292:1 1300:1 1301:1 1313:1 1346:1 1357:1 1374:1 1376:2
-1 246:1 541:1 559:1 681:1 1231:1 1292:1 1300:1 1313:1 1374:3
-1 1112:1 1310:1 1374:1
-1 1112:1 1310:1 1374:1
-1 241:1 349:1 541:1 642:1 677:1 703:1 760:1 869:1 945:1 953:1 1100:1 1300:1 1354:1 1374:2
-1 349:1 406:1 541:1 544:1 559:1 567:1 642:1 677:1 681:1 699:1 703:1 760:1 831:1 945:1 953:1 1100:1 1231:1 1236:1 1240:1 1300:1 1313:1 1354:1 1374:1
-1 1112:1 1310:1 1374:1
-1 128:1 131:1 246:2 406:3 541:2 559:7 634:1 681:2 701:1 780:1 907:1 978:1 981:1 1223:1 1225:1 1231:2 1236:3 1237:1 1239:1 1241:1 1292:2 1300:2 1313:7 1356:1 1357:1 1374:6 1376:1
-1 131:1 246:1 406:1 541:1 559:1 701:1 907:1 978:1 981:1 1172:1 1225:1 1236:1 1237:1 1239:1 1241:1 1292:1 1300:1 1313:1 1356:1 1374:4
-1 382:1 1219:1 1374:3
-1 246:1 349:1 559:1 1292:1 1313:1 1354:1 1374:5
-1 131:1 246:2 406:3 541:2 559:5 621:1 681:2 701:1 907:1 978:1 981:2 1225:1 1231:2 1236:3 1237:1 1239:2 1241:1 1292:2 1300:2 1313:5 1348:1 1356:1 1374:6
-1 349:2 559:1 1313:1 1354:2 1374:2
-1 246:1 406:1 541:1 559:1 634:1 681:1 690:1 701:1 907:1 978:1 981:1 1152:1 1231:1 1236:1 1237:1 1239:1 1241:1 1292:1 1300:1 1313:1 1334:1 1356:1 1357:1 1374:2
-1 246:1 559:1 681:1 907:1 978:1 1231:1 1237:1 1292:1 1313:1 1356:1 1374:1
-1 237:1 241:1 260:1 307:1 349:1 406:1 445:1 506:1 642:1 677:1 699:1 703:1 759:1 760:1 811:1 869:1 876:1 877:1 945:1 953:1 1022:1 1100:1 1104:1 1123:1 1131:1 1236:1 1240:1 1354:1 1374:2
-1 382:1 1219:1 1374:3
-1 321:1 466:1 550:1 559:1 681:1 781:1 898:1 1048:1 1231:1 1306:1 1313:1 1374:3
-1 246:1 339:1 541:1 559:1 681:1 837:1 907:1 1231:1 1292:1 1300:1 1302:1 1313:1 1356:1 1374:1
-1 131:1 246:1 541:1 559:1 681:1 701:1 907:1 981:1 1225:1 1231:1 1239:1 1241:1 1292:1 1300:1 1313:1 1356:1 1374:3
-1 237:1 241:1 265:1 307:1 349:1 445:1 506:1 529:1 551:1 567:1 639:1 642:1 677:1 703:1 760:1 869:1 945:1 953:1 1022:1 1100:1 1354:1 1374:1
-1 237:1 241:1 252:1 280:1 307:1 349:1 445:1 489:1 506:1 512:1 535:1 642:1 677:1 703:1 759:1 760:1 811:1 854:1 864:1 869:1 941:1 945:1 953:1 1022:1 1068:1 1100:1 1104:1 1123:1 1354:1 1374:2
-1 246:1 349:1 445:1 495:1 541:1 559:1 567:1 642:1 677:1 681:1 703:1 729:1 760:1 945:1 953:1 1100:1 1231:1 1292:1 1300:1 1313:1 1354:1 1374:2
-1 246:1 331:1 541:1 559:1 640:1 681:1 980:1 981:1 1108:1 1231:1 1239:1 1292:1 1300:1 1313:1 1361:1 1374:2
-1 349:2 559:1 780:1 1313:1 1354:2 1374:3
-1 246:1 406:1 460:1 559:1 681:1 701:1 981:1 1231:1 1236:1 1239:1 1241:1 1265:1 1292:1 1313:1 1374:1
-1 294:1 325:1 530:1 550:1 559:1 675:1 863:1 955:1 1133:1 1149:1 1151:1 1195:1 1306:1 1313:1 1374:1
-1 246:1 460:1 541:1 559:1 681:1 981:1 1231:1 1239:1 1265:1 1292:1 1300:1 1313:1 1374:2
-1 246:1 349:2 389:1 405:1 550:1 559:1 907:1 955:1 1292:1 1306:1 1313:1 1354:2 1356:1 1374:2
-1 382:1 1219:1 1374:3
-1 131:1 246:1 559:1 681:1 907:1 978:1 1225:1 1231:1 1237:1 1292:1 1313:1 1356:1 1374:1
-1 128:1 246:1 406:1 460:1 541:1 559:1 576:1 621:1 634:1 681:1 701:1 755:1 837:1 895:1 907:1 981:1 1207:1 1223:1 1231:1 1236:1 1239:1 1241:1 1265:1 1266:1 1292:1 1300:1 1302:1 1313:1 1325:1 1348:1 1350:1 1356:1 1357:1 1369:1 1374:1
-1 382:1 1219:1 1374:3
-1 246:1 349:1 541:1 559:1 602:1 681:1 699:1 741:1 981:1 1231:1 1239:1 1240:1 1258:1 1292:1 1300:1 1313:1 1354:1 1374:3
-1 246:1 305:1 349:1 484:1 541:1 551:1 559:1 642:1 677:1 681:1 699:1 703:1 760:1 777:1 945:1 953:1 981:1 1068:1 1100:1 1231:1 1239:1 1240:1 1292:1 1300:1 1313:1 1354:1 1374:1
-1 349:1 642:1 657:1 677:1 728:1 760:1 945:1 953:1 1100:1 1354:1 1374:2
-1 142:1 241:1 349:1 439:1 506:1 512:1 639:1 642:1 653:1 677:1 703:1 729:1 760:1 777:1 811:1 876:1 945:1 953:1 1068:1 1100:1 1104:1 1159:1 1354:1 1374:1 1376:2
-1 142:1 237:1 246:1 307:1 349:1 365:1 406:1 445:1 457:1 481:1 495:1 506:1 559:1 567:1 639:1 642:1 658:1 677:1 681:1 699:1 703:1 715:1 729:1 730:1 745:1 759:1 760:1 766:1 777:1 811:1 842:1 876:1 907:1 945:1 953:1 1045:1 1050:1 1068:1 1100:1 1104:1 1231:1 1236:1 1240:1 1292:1 1313:1 1354:1 1356:1 1370:1 1374:3
-1 237:1 241:1 246:1 349:1 495:1 506:1 559:1 567:1 639:1 642:1 667:1 677:1 699:1 703:1 729:1 730:1 759:1 760:1 842:1 907:1 945:1 953:1 1100:1 1240:1 1292:1 1313:1 1354:1 1356:1 1374:2
-1 174:1 241:1 349:1 445:1 506:1 510:1 642:1 677:1 759:1 760:1 777:1 811:1 823:1 869:1 881:1 923:1 945:1 953:1 1022:1 1100:1 1104:1 1111:1 1211:1 1354:1 1374:2
-1 349:2 559:1 780:1 1313:1 1354:2 1374:3
-1 246:1 349:1 406:1 559:1 681:1 780:1 837:1 981:1 1231:1 1236:1 1239:1 1292:1 1302:1 1313:1 1354:1 1374:1
-1 1112:1 1310:1 1374:1
-1 382:1 1219:1 1374:3
-1 382:1 1219:1 1374:3
-1 131:1 246:2 406:3 541:1 559:5 681:2 701:1 907:1 981:2 1225:1 1231:2 1236:3 1239:2 1241:1 1292:2 1300:1 1313:5 1356:1 1374:6
-1 237:1 241:1 349:1 406:1 420:1 445:1 460:1 489:1 506:1 642:1 677:1 699:1 703:1 759:1 760:1 766:1 786:1 811:1 869:1 877:1 881:1 927:1 945:1 953:1 1022:1 1100:1 1104:1 1111:1 1132:1 1157:1 1236:1 1240:1 1265:1 1354:1 1374:2
-1 246:1 349:1 559:1 1155:1 1292:1 1313:1 1354:1 1374:2
-1 349:1 445:1 642:1 677:1 703:1 760:1 945:1 953:1 1100:1 1354:1 1374:2
-1 131:1 246:1 541:1 559:1 681:1 701:1 907:1 981:1 1225:1 1231:1 1239:1 1241:1 1292:1 1300:1 1313:1 1356:1 1374:3
-1 246:1 541:1 559:1 701:1 907:1 978:1 981:1 1237:1 1239:1 1241:1 1292:1 1300:1 1313:1 1356:1 1374:2
-1 349:1 559:1 650:1 1313:1 1354:1 1374:3
-1 246:1 349:1 406:1 506:1 512:1 642:1 677:1 699:1 703:1 760:1 945:1 953:1 981:1 1100:1 1236:1 1239:1 1240:1 1292:1 1354:1 1374:1
-1 246:1 275:1 349:1 406:1 445:1 460:1 541:1 559:1 642:1 681:1 699:1 701:1 703:1 760:1 811:1 876:1 907:1 945:1 953:1 981:1 1084:1 1100:1 1231:1 1236:1 1239:1 1240:1 1241:1 1265:1 1292:1 1300:1 1313:1 1354:1 1356:1 1374:2
-1 349:1 559:1 639:1 642:1 677:1 681:1 699:1 760:1 945:1 953:1 1016:1 1100:1 1231:1 1240:1 1313:1 1354:1 1374:1
-1 131:1 246:1 541:1 559:1 681:1 701:1 907:1 981:1 1225:1 1231:1 1239:1 1241:1 1292:1 1300:1 1313:1 1356:1 1374:3
-1 142:1 180:1 295:1 417:1 506:1 515:1 642:1 695:1 699:1 759:1 818:1 846:1 953:1 961:1 990:1 1100:1 1103:1 1123:1 1132:1 1207:1 1240:1 1369:1 1374:3 1376:4
-1 246:1 559:1 1292:1 1313:1 1374:1
-1 246:2 406:1 559:4 681:3 701:1 1231:3 1236:1 1241:1 1292:2 1313:4 1374:4
-1 1112:1 1310:1 1374:1
-1 349:1 431:1 1354:1 1374:2
-1 172:1 349:1 1354:1 1374:2
-1 349:1 431:1 1354:1 1374:2
-1 172:1 349:1 1354:1 1374:2
-1 349:1 559:1 1313:1 1354:1 1374:3
-1 246:1 541:1 559:1 681:1 907:1 981:1 1231:1 1239:1 1292:1 1300:1 1313:1 1356:1 1374:2
-1 1112:1 1310:1 1374:1
-1 246:1 349:1 559:1 681:1 1231:1 1292:1 1313:1 1354:1 1374:3
-1 559:1 1313:1 1374:2
-1 559:1 1313:1 1374:3
-1 382:1 1219:1 1374:3
-1 246:1 559:1 1292:1 1313:1 1374:3 1376:9
-1 246:1 541:1 559:1 634:1 755:1 824:1 907:1 1266:1 1292:1 1295:1 1300:1 1313:1 1356:1 1357:1 1374:2
-1 158:1 246:1 349:1 406:1 407:1 460:1 495:1 541:1 559:1 667:1 681:1 699:1 701:1 892:1 895:1 907:1 981:1 1231:1 1235:1 1236:1 1239:1 1240:1 1241:1 1265:1 1292:1 1300:1 1313:1 1350:1 1354:1 1356:1 1374:2
-1 162:1 227:1 246:1 334:1 349:1 406:1 407:1 460:1 508:1 541:1 559:1 570:1 581:1 634:1 681:1 699:1 701:1 895:1 907:1 981:1 1074:1 1231:1 1235:1 1236:1 1239:1 1240:1 1241:1 1244:1 1265:1 1279:1 1292:1 1300:1 1313:1 1346:1 1350:1 1354:1 1356:1 1357:1 1374:2
-1 349:2 559:1 1313:1 1354:2 1374:3
-1 131:1 246:1 460:1 486:1 525:1 559:1 681:1 981:1 1207:1 1225:1 1231:1 1239:1 1265:1 1275:1 1292:1 1294:1 1313:1 1369:1 1374:2
-1 246:1 349:1 413:1 559:1 864:1 1168:1 1292:1 1313:1 1354:1 1374:1
-1 246:1 349:2 559:1 681:1 1231:1 1292:1 1313:1 1354:2 1374:3
-1 559:1 1313:1 1374:3
-1 246:1 349:1 541:1 559:1 681:1 722:1 883:1 907:1 978:1 1231:1 1237:1 1292:1 1300:1 1313:1 1354:1 1356:1 1374:2
-1 131:1 246:1 559:1 907:1 1225:1 1292:1 1313:1 1356:1 1374:2
-1 155:1 304:1 349:1 406:1 473:1 489:1 559:1 677:1 681:1 811:1 981:1 1231:1 1236:1 1239:1 1313:1 1354:1 1374:2
-1 382:1 1219:1 1374:3
-1 131:1 246:2 406:3 541:1 559:5 681:2 701:1 907:1 978:1 981:1 1225:1 1231:2 1236:3 1237:1 1239:1 1241:1 1292:2 1300:1 1313:5 1356:1 1374:6
-1 131:1 246:2 406:3 559:4 681:2 701:1 907:1 981:1 1225:1 1231:2 1236:3 1239:1 1241:1 1292:2 1313:4 1356:1 1374:6
-1 349:2 530:1 559:1 780:1 1313:1 1354:2 1374:2
-1 382:1 1219:1 1374:3
-1 131:1 246:1 406:1 460:1 541:1 559:1 606:1 621:1 640:1 681:1 701:1 907:1 978:1 981:1 1225:1 1231:1 1236:1 1237:1 1239:1 1241:1 1265:1 1292:1 1300:1 1313:1 1343:1 1348:1 1356:1 1361:1 1374:2
-1 246:1 456:1 559:1 907:1 1292:1 1313:1 1356:1 1374:1
-1 246:1 365:1 406:1 407:1 460:1 541:1 550:1 559:1 621:1 634:1 681:1 701:1 895:1 907:1 978:1 981:1 1152:1 1231:1 1235:1 1236:1 1237:1 1239:1 1241:1 1265:1 1292:1 1300:1 1306:1 1313:1 1334:1 1348:1 1350:1 1356:1 1357:1 1370:1 1374:1 1376:973
-1 246:1 365:1 406:1 407:1 460:1 541:1 550:1 559:1 621:1 634:1 681:1 701:1 895:1 907:1 978:1 981:1 1152:1 1231:1 1235:1 1236:1 1237:1 1239:1 1241:1 1265:1 1292:1 1300:1 1306:1 1313:1 1334:1 1348:1 1350:1 1356:1 1357:1 1370:1 1374:1 1376:973
-1 382:1 1219:1 1374:4
-1 198:1 349:1 406:1 450:1 460:1 486:1 525:1 559:1 602:1 681:1 699:1 981:1 1084:1 1231:1 1236:1 1239:1 1240:1 1265:1 1275:1 1294:1 1313:1 1354:1 1374:1
-1 188:1 227:1 237:1 241:1 246:1 349:1 406:1 445:1 460:1 469:1 506:1 512:1 541:1 559:1 634:1 642:1 667:1 677:1 699:1 701:1 703:1 759:1 760:1 777:1 810:1 869:1 876:1 877:1 895:1 907:1 945:1 953:1 981:1 986:1 987:1 1045:1 1100:1 1104:1 1131:1 1207:1 1236:1 1239:1 1240:1 1241:1 1265:1 1279:1 1291:1 1292:1 1300:1 1313:1 1350:1 1354:1 1356:1 1357:1 1369:1 1374:1
-1 382:1 1219:1 1374:3
-1 559:1 1313:1 1374:3
-1 358:1 559:1 681:1 699:1 858:1 1231:1 1240:1 1313:1 1374:1
-1 131:1 246:1 559:1 681:1 701:1 907:1 1225:1 1231:1 1241:1 1292:1 1313:1 1356:1 1374:2
-1 246:2 406:1 559:2 681:2 701:1 1231:2 1236:1 1241:1 1292:2 1313:2 1374:7
-1 349:2 559:1 1313:1 1354:2 1374:4
-1 131:1 246:1 406:1 541:1 559:1 634:1 681:1 701:1 907:1 981:1 1225:1 1231:1 1236:1 1239:1 1241:1 1292:1 1300:1 1313:1 1356:1 1357:1 1374:5
-1 241:1 349:1 385:1 420:1 506:1 642:1 677:1 759:1 760:1 777:1 811:1 823:1 831:1 869:1 876:1 945:1 953:1 1022:1 1035:1 1068:1 1100:1 1104:1 1123:1 1131:1 1201:1 1354:1 1374:1
-1 246:1 349:1 541:1 559:1 618:1 701:1 907:1 1241:1 1292:1 1300:1 1313:1 1354:1 1356:1 1374:2
-1 349:1 406:1 445:1 551:1 559:1 567:1 639:1 642:1 677:1 681:1 703:1 760:1 945:1 953:1 1100:1 1231:1 1236:1 1313:1 1354:1 1374:1
-1 227:1 267:1 331:1 349:1 406:1 486:1 541:1 551:1 559:1 681:1 967:1 971:1 981:1 1207:1 1231:1 1236:1 1239:1 1275:1 1279:1 1300:1 1301:1 1313:1 1354:1 1369:1 1374:1
-1 349:1 642:1 677:1 760:1 945:1 953:1 1100:1 1107:1 1354:1 1374:1
-1 349:2 530:1 559:1 1313:1 1354:2 1374:2
-1 246:1 349:1 406:1 541:1 559:1 681:1 701:1 981:1 1231:1 1236:1 1239:1 1241:1 1292:1 1300:1 1313:1 1354:1 1374:3
-1 246:1 349:1 378:1 559:1 681:1 701:1 1231:1 1241:1 1292:1 1313:1 1354:1 1374:3
-1 382:1 1219:1 1374:3
-1 382:1 1219:1 1374:3
-1 382:1 1219:1 1374:2
-1 382:1 1219:1 1374:2
-1 541:1 559:1 1300:1 1313:1 1374:1
-1 246:1 331:1 334:1 486:1 541:1 559:1 837:1 907:1 981:1 1239:1 1275:1 1292:1 1300:1 1302:1 1313:1 1346:1 1356:1 1374:1 1376:2
-1 246:2 406:2 453:1 559:4 681:2 701:1 907:1 978:1 1231:2 1236:2 1237:1 1241:1 1292:2 1313:4 1356:1 1374:6
-1 382:1 1219:1 1374:4
-1 382:1 1219:1 1374:2
-1 382:1 1219:1 1374:2
-1 131:1 246:1 541:1 559:1 681:1 701:1 907:1 981:1 1225:1 1231:1 1239:1 1241:1 1292:1 1300:1 1313:1 1356:1 1374:2
-1 382:1 1219:1 1374:3
-1 246:1 541:1 559:1 681:1 701:1 907:1 978:1 1231:1 1237:1 1241:1 1292:1 1300:1 1313:1 1356:1 1374:1
-1 1374:1
-1 349:2 559:1 634:1 681:1 755:1 981:1 1231:1 1239:1 1266:1 1313:1 1354:2 1357:1 1374:3
-1 382:1 1219:1 1374:3
-1 559:1 918:1 1313:1 1374:2
-1 129:1 559:1 1313:1 1374:1
-1 349:2 466:1 497:1 559:1 781:1 841:1 1313:1 1354:2 1374:2
-1 349:1 1354:1 1374:3
-1 241:1 307:1 349:1 410:1 506:1 567:1 639:1 642:1 677:1 703:1 725:1 760:1 869:1 876:1 945:1 953:1 1052:1 1100:1 1123:1 1131:1 1354:1 1374:3
-1 246:1 406:1 559:1 634:1 681:1 701:1 780:1 907:1 978:1 1231:1 1236:1 1237:1 1241:1 1292:1 1313:1 1356:1 1357:1 1374:5
-1 131:1 246:1 541:1 559:1 681:1 701:1 907:1 981:1 1225:1 1231:1 1239:1 1241:1 1292:1 1300:1 1313:1 1356:1 1374:2
-1 131:1 246:1 406:1 541:1 559:1 634:1 681:1 701:1 907:1 981:1 1225:1 1231:1 1236:1 1239:1 1241:1 1292:1 1300:1 1313:1 1356:1 1357:1 1374:5
-1 349:1 439:1 512:1 639:1 642:1 677:1 699:1 703:1 729:1 760:1 945:1 953:1 969:1 1100:1 1159:1 1240:1 1354:1 1374:1 1376:3
-1 349:1 421:1 525:1 529:1 544:1 559:1 681:1 699:1 1076:1 1231:1 1240:1 1294:1 1313:1 1354:1 1374:3
-1 349:1 421:1 439:1 559:1 567:1 639:1 681:1 729:1 981:1 1159:1 1231:1 1239:1 1313:1 1354:1 1374:2
-1 349:1 541:1 559:1 681:1 959:1 981:1 1231:1 1239:1 1300:1 1313:1 1354:1 1374:1
-1 382:1 1219:1 1374:2
-1 382:1 1219:1 1374:2
-1 349:2 559:1 1313:1 1354:2 1374:2
-1 349:2 559:1 1313:1 1354:2 1374:3
-1 246:1 559:1 1292:1 1313:1 1374:5
-1 382:1 1219:1 1374:3
-1 349:2 559:1 1313:1 1354:2 1374:2
-1 349:2 559:1 1313:1 1354:2 1374:2
-1 349:2 559:1 1313:1 1354:2 1374:2
-1 559:1 634:1 755:1 836:1 1266:1 1313:1 1357:1 1374:2
-1 246:2 406:1 559:2 681:2 701:1 1231:2 1236:1 1241:1 1292:2 1313:2 1374:7
-1 634:1 1112:1 1310:1 1357:1 1374:1
-1 349:2 559:1 1313:1 1354:2 1374:2
-1 246:1 406:1 460:1 541:1 559:1 634:1 681:1 701:1 907:1 940:1 978:1 981:1 1231:1 1236:1 1237:1 1239:1 1241:1 1265:1 1292:1 1300:1 1313:1 1356:1 1357:1 1374:4
-1 246:1 349:1 559:1 634:1 907:1 978:1 1237:1 1292:1 1313:1 1354:1 1356:1 1357:1 1374:4 1376:112
-1 349:2 559:1 1313:1 1354:2 1374:2
-1 246:1 541:1 559:1 681:1 701:1 907:1 978:1 980:1 981:1 1108:1 1231:1 1237:1 1239:1 1241:1 1292:1 1300:1 1313:1 1356:1 1374:1
-1 349:2 559:1 1313:1 1354:2 1374:2
-1 1112:1 1310:1 1374:2
-1 382:1 1219:1 1374:3
-1 382:1 1219:1 1374:2
-1 246:1 406:1 460:1 541:1 559:1 570:1 634:1 681:1 701:1 907:1 981:1 1231:1 1236:1 1239:1 1241:1 1265:1 1292:1 1300:1 1313:1 1356:1 1357:1 1374:2
-1 349:2 559:1 1313:1 1354:2 1374:2
-1 349:2 559:1 1313:1 1354:2 1374:2
-1 349:2 559:1 1313:1 1354:2 1374:2
-1 349:2 559:1 1313:1 1354:2 1374:2
-1 267:1 349:1 541:1 559:1 681:1 981:1 1207:1 1231:1 1239:1 1300:1 1301:1 1313:1 1354:1 1369:1 1374:1
-1 246:1 349:1 460:1 541:1 559:1 577:1 681:1 981:1 1231:1 1239:1 1265:1 1292:1 1300:1 1313:1 1354:1 1374:1
-1 197:1 349:1 559:1 681:1 1231:1 1256:1 1313:1 1354:1 1374:2
-1 246:1 349:1 559:1 681:1 699:1 701:1 1231:1 1240:1 1241:1 1292:1 1313:1 1354:1 1374:2
-1 132:1 246:1 349:1 541:1 559:1 577:1 681:1 701:1 827:1 895:1 1098:1 1226:1 1231:1 1241:1 1292:1 1300:1 1313:1 1350:1 1354:1 1374:2 1376:62
-1 246:2 406:1 559:4 681:3 701:1 1231:3 1236:1 1241:1 1292:2 1313:4 1374:5
-1 162:1 227:1 246:1 334:1 349:1 406:1 407:1 460:1 508:1 541:1 559:1 570:1 581:1 634:1 681:1 699:1 701:1 895:1 907:1 981:1 1074:1 1231:1 1235:1 1236:1 1239:1 1240:1 1241:1 1244:1 1265:1 1279:1 1292:1 1300:1 1313:1 1346:1 1350:1 1354:1 1356:1 1357:1 1374:2
-1 246:1 349:2 559:1 1292:1 1313:1 1354:2 1374:2
-1 246:1 349:2 559:1 1292:1 1313:1 1354:2 1374:2
-1 246:1 349:2 404:1 559:1 681:1 1231:1 1292:1 1313:1 1354:2 1374:4
-1 1112:1 1310:1 1374:1
-1 382:1 1219:1 1374:3
-1 246:1 541:1 559:1 681:1 1231:1 1292:1 1300:1 1313:1 1374:2
-1 246:1 349:1 541:1 559:1 618:1 701:1 845:1 907:1 1241:1 1292:1 1300:1 1313:1 1354:1 1356:1 1374:2
-1 131:1 246:1 541:1 559:1 681:1 701:1 907:1 981:1 1225:1 1231:1 1239:1 1241:1 1292:1 1300:1 1313:1 1356:1 1374:3
-1 349:2 559:1 780:1 1313:1 1354:2 1374:3
-1 1112:1 1310:1 1374:1
-1 1112:1 1310:1 1374:1
-1 382:1 1219:1 1374:2
-1 131:1 246:1 349:1 406:1 407:1 541:1 559:1 621:1 667:1 681:1 699:1 701:1 810:1 895:1 907:1 981:1 1225:1 1231:1 1235:1 1236:1 1239:1 1240:1 1241:1 1291:1 1292:1 1300:1 1313:1 1348:1 1350:1 1354:1 1356:1 1374:1 1376:1
-1 349:1 567:1 639:1 642:1 677:1 760:1 876:1 877:1 945:1 953:1 1100:1 1354:1 1374:3
-1 246:1 541:1 559:1 681:1 701:1 907:1 981:1 1231:1 1239:1 1241:1 1292:1 1300:1 1313:1 1356:1 1374:3
-1 246:1 541:1 559:1 681:1 701:1 907:1 981:1 1231:1 1239:1 1241:1 1292:1 1300:1 1313:1 1356:1 1374:2
-1 1374:1
-1 246:1 349:1 541:1 559:1 681:1 701:1 907:1 978:1 981:1 1231:1 1237:1 1239:1 1241:1 1292:1 1300:1 1313:1 1354:1 1356:1 1374:2
-1 131:1 246:1 541:1 559:1 681:1 701:1 907:1 981:1 1225:1 1231:1 1239:1 1241:1 1292:1 1300:1 1313:1 1356:1 1374:2
-1 349:2 559:1 1313:1 1354:2 1374:2
-1 559:1 918:1 1313:1 1374:2
-1 382:1 1219:1 1374:4
-1 559:1 1313:1 1374:2
-1 349:2 465:1 501:227 559:1 756:1 928:15 1207:1 1313:1 1354:2 1369:1 1374:2
-1 349:2 559:1 756:1 1313:1 1354:2 1374:2
-1 131:1 246:1 541:1 559:1 681:1 701:1 907:1 981:1 1225:1 1231:1 1239:1 1241:1 1292:1 1300:1 1313:1 1356:1 1374:3
-1 131:1 246:1 541:1 559:1 681:1 701:1 907:1 981:1 1225:1 1231:1 1239:1 1241:1 1292:1 1300:1 1313:1 1356:1 1374:3
-1 123:1 132:1 246:1 349:1 460:1 559:1 699:1 759:1 810:1 842:1 907:1 981:1 1226:1 1239:1 1240:1 1265:1 1291:1 1292:1 1313:1 1354:1 1356:1 1374:1
-1 246:1 559:1 907:1 981:1 1189:1 1239:1 1292:1 1313:1 1356:1 1374:1
-1 559:1 918:1 1313:1 1374:2
-1 241:1 246:1 349:1 506:1 541:1 559:1 642:1 677:1 681:1 703:1 759:1 760:1 876:1 945:1 953:1 1100:1 1104:1 1231:1 1292:1 1300:1 1313:1 1354:1 1374:4
-1 246:1 406:1 559:1 1236:1 1292:1 1313:1 1374:4
-1 241:1 349:1 489:1 642:1 677:1 703:1 742:1 760:1 811:1 869:1 945:1 953:1 1022:1 1100:1 1104:1 1111:1 1131:1 1354:1 1374:2
-1 285:1 343:1 559:1 1019:1 1313:1 1374:2
-1 382:1 1219:1 1374:5
-1 246:1 349:1 541:1 559:1 681:1 755:1 978:1 1231:1 1237:1 1266:1 1292:1 1300:1 1313:1 1354:1 1374:4
-1 382:1 1219:1 1374:3
-1 349:1 559:1 1313:1 1354:1 1374:6
-1 453:1 559:1 1313:1 1374:4 1376:3
-1 246:2 406:1 559:2 681:2 701:1 1231:2 1236:1 1241:1 1292:2 1313:2 1374:7
-1 246:1 406:1 407:1 541:1 559:1 634:1 681:1 701:1 907:1 978:1 981:1 1231:1 1235:1 1236:1 1237:1 1239:1 1241:1 1292:1 1300:1 1313:1 1356:1 1357:1 1374:2
-1 246:1 559:1 634:1 681:1 981:1 1231:1 1239:1 1292:1 1313:1 1357:1 1374:2
-1 559:1 1313:1 1374:1
-1 246:1 541:1 559:1 681:1 907:1 1231:1 1292:1 1300:1 1313:1 1356:1 1374:2
-1 246:1 541:1 559:1 681:1 907:1 1231:1 1292:1 1300:1 1313:1 1356:1 1374:2
-1 131:1 246:1 541:1 559:1 681:1 701:1 907:1 981:1 1225:1 1231:1 1239:1 1241:1 1292:1 1300:1 1313:1 1356:1 1374:3
-1 131:1 246:2 406:3 541:1 559:4 634:1 681:2 701:1 895:1 907:1 978:1 981:2 1225:1 1231:2 1236:3 1237:1 1239:2 1241:1 1292:2 1300:1 1313:4 1350:1 1356:1 1357:1 1374:6
-1 241:1 349:1 417:1 445:1 506:1 642:1 677:1 699:1 760:1 811:1 823:1 869:1 945:1 953:1 1022:1 1068:1 1100:1 1104:1 1111:1 1240:1 1354:1 1374:2
-1 1112:1 1310:1 1374:1
-1 131:1 246:1 559:1 681:1 907:1 978:1 1225:1 1231:1 1237:1 1292:1 1313:1 1356:1 1374:1
-1 294:1 325:1 530:1 550:1 559:1 675:1 863:1 955:1 1133:1 1149:1 1151:1 1195:1 1306:1 1313:1 1374:2
-1 349:2 530:1 550:1 559:1 955:1 1149:1 1306:1 1313:1 1354:2 1374:2
-1 246:1 349:1 541:1 559:1 681:1 1231:1 1292:1 1300:1 1313:1 1354:1 1374:3
-1 131:1 246:2 406:2 559:5 681:2 701:1 907:1 1225:1 1231:2 1236:2 1241:1 1292:2 1313:5 1356:1 1374:6
-1 246:2 406:2 559:4 634:1 681:2 701:1 907:1 978:1 1231:2 1236:2 1237:1 1241:1 1292:2 1313:4 1356:1 1357:1 1374:6
-1 559:1 1313:1 1374:2
-1 131:1 246:1 541:1 559:1 681:1 701:1 907:1 981:1 1225:1 1231:1 1239:1 1241:1 1292:1 1300:1 1313:1 1356:1 1374:3
-1 246:1 559:1 701:1 1241:1 1292:1 1313:1 1374:3
-1 131:1 246:1 541:1 559:1 681:1 701:1 907:1 981:1 1225:1 1231:1 1239:1 1241:1 1292:1 1300:1 1313:1 1356:1 1374:3
-1 131:1 246:1 541:1 559:1 681:1 701:1 907:1 981:1 1225:1 1231:1 1239:1 1241:1 1292:1 1300:1 1313:1 1356:1 1374:3
-1 246:2 406:1 559:2 681:2 701:1 1231:2 1236:1 1241:1 1292:2 1313:2 1374:7
-1 559:1 797:1 1313:1 1374:2
-1 131:1 246:1 541:1 559:1 681:1 701:1 907:1 981:1 1225:1 1231:1 1239:1 1241:1 1292:1 1300:1 1313:1 1356:1 1374:3
-1 246:2 406:3 559:5 681:2 701:1 907:1 978:1 981:1 1231:2 1236:3 1237:1 1239:1 1241:1 1292:2 1313:5 1356:1 1374:6
-1 131:1 246:2 406:1 559:3 681:2 701:1 907:1 978:1 981:1 1225:1 1231:2 1236:1 1237:1 1239:1 1241:1 1292:2 1313:3 1356:1 1374:6
-1 382:1 1219:1 1374:3
-1 131:1 246:1 541:1 559:1 681:1 701:1 907:1 981:1 1225:1 1231:1 1239:1 1241:1 1292:1 1300:1 1313:1 1356:1 1374:3
-1 246:1 349:1 541:1 559:1 618:1 690:1 981:1 1239:1 1292:1 1300:1 1313:1 1354:1 1374:2
-1 246:1 331:1 334:1 486:1 541:1 559:1 837:1 907:1 981:1 1239:1 1275:1 1292:1 1300:1 1302:1 1313:1 1346:1 1356:1 1374:3 1376:2
-1 1112:1 1310:1 1374:1
-1 382:1 1219:1 1374:3
-1 382:1 1219:1 1374:3
-1 349:2 559:1 1313:1 1354:2 1374:2
-1 246:1 460:1 541:1 559:1 701:1 907:1 978:1 981:1 1237:1 1239:1 1241:1 1265:1 1292:1 1300:1 1313:1 1356:1 1374:2
-1 349:1 559:1 1313:1 1354:1 1374:2
-1 349:1 559:1 634:1 1313:1 1354:1 1357:1 1374:2
-1 131:1 246:2 406:3 541:1 559:5 597:1 610:1 634:1 652:1 656:1 681:2 701:1 907:1 978:1 981:1 1225:1 1231:2 1236:3 1237:1 1239:1 1241:1 1292:2 1300:1 1313:5 1356:1 1357:1 1371:1 1373:1 1374:6
-1 246:1 559:1 980:1 1292:1 1313:1 1374:2
-1 349:1 406:1 486:1 489:1 525:1 559:1 642:1 681:1 760:1 800:1 945:1 953:1 981:1 1100:1 1157:1 1207:1 1231:1 1236:1 1239:1 1275:1 1294:1 1313:1 1354:1 1369:1 1374:2
-1 349:2 559:1 1313:1 1354:2 1374:2
-1 246:1 559:1 634:1 681:1 690:1 701:1 907:1 978:1 981:1 1231:1 1237:1 1239:1 1241:1 1292:1 1313:1 1356:1 1357:1 1374:2
-1 246:2 406:1 559:2 681:2 701:1 1231:2 1236:1 1241:1 1292:2 1313:2 1374:7
-1 559:1 918:1 1313:1 1374:3
-1 382:1 1219:1 1374:4
-1 131:1 246:1 406:1 460:1 541:1 559:1 570:1 634:1 652:1 681:1 755:1 837:1 907:1 978:1 981:1 1152:1 1225:1 1231:1 1236:1 1237:1 1239:1 1265:1 1266:1 1292:1 1300:1 1302:1 1313:1 1334:1 1356:1 1357:1 1371:1 1374:1
-1 246:2 406:1 559:2 681:2 701:1 1231:2 1236:1 1241:1 1292:2 1313:2 1374:7
-1 246:1 349:2 541:1 550:1 559:1 634:1 681:1 755:1 907:1 981:1 1231:1 1239:1 1266:1 1292:1 1300:1 1306:1 1313:1 1354:2 1356:1 1357:1 1374:3
-1 246:1 541:1 559:1 681:1 701:1 907:1 978:1 1231:1 1237:1 1241:1 1292:1 1300:1 1313:1 1356:1 1374:2
-1 1112:1 1310:1 1374:1
-1 215:1 559:1 1313:1 1374:2
-1 349:1 559:1 642:1 677:1 681:1 699:1 760:1 945:1 953:1 1100:1 1207:1 1231:1 1240:1 1313:1 1354:1 1369:1 1374:3
-1 349:1 489:1 559:1 567:1 639:1 642:1 677:1 681:1 699:1 729:1 760:1 800:1 945:1 953:1 981:1 1100:1 1231:1 1239:1 1240:1 1313:1 1354:1 1374:2
-1 131:1 246:2 406:3 541:1 559:4 681:2 701:1 907:1 978:1 981:1 1225:1 1231:2 1236:3 1237:1 1239:1 1241:1 1292:2 1300:1 1313:4 1356:1 1374:6
-1 218:1 246:1 349:2 559:1 634:1 1292:1 1313:1 1354:2 1357:1 1374:2
-1 241:1 349:1 445:1 642:1 677:1 699:1 755:1 760:1 811:1 869:1 945:1 953:1 1022:1 1100:1 1104:1 1111:1 1240:1 1266:1 1354:1 1374:2
-1 131:1 246:1 559:1 681:1 701:1 907:1 1225:1 1231:1 1241:1 1292:1 1313:1 1356:1 1374:3
-1 246:1 349:1 406:1 407:1 559:1 608:1 701:1 907:1 978:1 981:1 1235:1 1236:1 1237:1 1239:1 1241:1 1292:1 1313:1 1354:1 1356:1 1374:2
-1 170:1 246:1 331:1 477:1 541:1 559:1 621:1 907:1 980:1 1108:1 1292:1 1300:1 1313:1 1348:1 1356:1 1374:2 1376:69
-1 131:1 188:1 227:1 237:1 241:1 246:1 267:1 349:1 406:1 460:1 486:1 512:1 525:1 541:1 559:1 642:1 677:1 681:1 699:1 701:1 760:1 800:1 837:1 876:1 895:1 907:1 945:1 953:1 978:1 981:1 1100:1 1225:1 1231:1 1236:1 1237:1 1239:1 1240:1 1241:1 1265:1 1275:1 1279:1 1292:1 1294:1 1300:1 1301:1 1302:1 1313:1 1350:1 1354:1 1356:1 1374:1
-1 188:1 227:1 237:1 241:1 246:1 267:1 349:1 406:1 460:1 486:1 489:1 512:1 525:1 541:1 559:1 642:1 677:1 681:1 699:1 760:1 764:1 800:1 876:1 895:1 907:1 945:1 953:1 981:1 1100:1 1231:1 1236:1 1239:1 1240:1 1265:1 1275:1 1279:1 1292:1 1294:1 1300:1 1301:1 1313:1 1350:1 1354:1 1356:1 1374:1
-1 382:1 1219:1 1374:2
-1 202:1 349:1 559:1 1313:1 1354:1 1374:3
-1 131:1 132:1 246:1 349:1 378:1 406:1 460:1 541:1 559:1 681:1 699:1 703:1 907:1 1164:1 1225:1 1226:1 1231:1 1236:1 1240:1 1265:1 1292:1 1300:1 1313:1 1354:1 1356:1 1374:2 1376:10
-1 246:1 559:1 1051:1 1292:1 1313:1 1374:2
-1 246:1 382:1 406:1 559:1 681:1 981:1 1027:1 1219:1 1231:1 1236:1 1239:1 1292:1 1313:1 1374:1
-1 246:1 559:1 907:1 1051:1 1292:1 1313:1 1356:1 1374:2
-1 216:1 349:1 390:1 445:1 489:1 506:1 559:1 642:1 677:1 699:1 703:1 759:1 760:1 811:1 869:1 876:1 881:1 945:1 953:1 1022:1 1100:1 1104:1 1123:1 1240:1 1313:1 1354:1 1374:2
-1 220:1 246:1 334:1 349:1 406:1 460:1 486:1 495:1 511:1 525:1 541:1 559:1 681:1 699:1 701:1 810:1 842:1 864:1 978:1 981:1 1164:1 1207:1 1231:1 1236:1 1237:1 1239:1 1240:1 1241:1 1265:1 1275:1 1286:1 1291:1 1292:1 1294:1 1300:1 1313:1 1346:1 1354:1 1369:1 1374:1
-1 246:1 559:1 1051:1 1292:1 1313:1 1374:2
-1 349:1 559:1 703:1 1313:1 1354:1 1374:2
-1 246:1 559:1 701:1 978:1 981:1 1237:1 1239:1 1241:1 1292:1 1313:1 1374:3
-1 349:1 559:1 1042:1 1313:1 1354:1 1374:4
-1 246:1 559:1 1292:1 1313:1 1374:2
-1 441:21 549:5 559:1 867:1 918:1 1313:1 1374:3
-1 441:6 549:5 559:1 867:1 918:1 1313:1 1374:3
-1 246:1 349:1 559:1 1155:1 1292:1 1313:1 1354:1 1374:1
-1 206:1 349:1 559:1 1313:1 1354:1 1374:2
-1 206:1 349:1 559:1 1313:1 1354:1 1374:2
-1 131:1 246:1 541:1 559:1 681:1 701:1 907:1 981:1 1225:1 1231:1 1239:1 1241:1 1292:1 1300:1 1313:1 1356:1 1374:2
-1 246:1 349:1 559:1 681:1 699:1 981:1 1231:1 1239:1 1240:1 1292:1 1313:1 1354:1 1374:3
-1 132:1 246:1 349:1 406:1 460:1 541:1 559:1 681:1 699:1 701:1 741:1 907:1 978:1 981:1 987:1 1074:1 1164:1 1226:1 1231:1 1236:1 1237:1 1239:1 1240:1 1241:1 1258:1 1265:1 1292:1 1300:1 1313:1 1354:1 1356:1 1374:2
-1 349:1 486:1 489:1 525:1 559:1 642:1 677:1 681:1 699:1 760:1 945:1 953:1 1100:1 1231:1 1240:1 1275:1 1294:1 1313:1 1354:1 1374:1
-1 1374:5
-1 1374:1
-1 142:1 246:1 274:1 349:1 406:1 445:1 460:1 486:1 506:1 541:1 559:1 642:1 677:1 681:1 699:1 701:1 703:1 730:1 759:1 760:1 766:1 777:1 811:1 945:1 953:1 965:1 1020:1 1022:1 1100:1 1104:1 1231:1 1236:1 1240:1 1241:1 1265:1 1275:1 1292:1 1300:1 1313:1 1354:1 1374:1
-1 131:1 246:1 334:1 406:1 460:1 541:1 559:1 681:1 810:1 907:1 980:1 981:1 1207:1 1225:1 1231:1 1236:1 1239:1 1265:1 1291:1 1292:1 1300:1 1313:1 1346:1 1356:1 1369:1 1374:2 1376:1
-1 1374:1
-1 132:1 246:1 274:1 349:1 406:1 420:1 460:1 541:1 559:1 567:1 634:1 639:1 642:1 677:1 681:1 699:1 701:1 703:1 729:1 759:1 760:1 777:1 811:1 869:1 876:1 907:1 922:1 945:1 953:1 978:1 981:1 1022:1 1100:1 1207:1 1226:1 1231:1 1236:1 1237:1 1239:1 1240:1 1241:1 1265:1 1292:1 1300:1 1313:1 1354:1 1356:1 1357:1 1369:1 1374:1
-1 131:1 246:4 406:1 541:3 559:3 621:4 681:2 701:1 907:1 978:2 981:1 1003:1 1225:1 1231:2 1236:1 1237:2 1239:1 1241:1 1292:4 1300:3 1313:3 1348:4 1356:1 1374:6
-1 246:1 406:1 407:1 559:1 621:1 681:1 907:1 980:1 981:1 1207:1 1231:1 1235:1 1236:1 1239:1 1292:1 1313:1 1348:1 1356:1 1369:1 1374:1
-1 213:1 246:1 267:1 349:1 406:1 460:1 486:1 541:1 559:1 681:1 699:1 701:1 755:1 810:1 907:1 978:1 981:1 1157:1 1207:1 1231:1 1236:1 1237:1 1239:1 1240:1 1241:1 1265:1 1266:1 1275:1 1291:1 1292:1 1300:1 1301:1 1313:1 1354:1 1356:1 1369:1 1374:1
-1 128:1 131:1 188:1 193:1 227:1 249:1 267:1 269:1 274:1 406:1 460:1 486:1 525:1 541:1 543:1 559:1 567:1 639:1 642:1 665:1 677:1 681:1 693:1 699:1 755:1 760:1 864:1 876:1 901:1 912:1 945:1 953:1 981:1 1100:1 1207:1 1223:1 1225:1 1231:1 1236:1 1239:1 1240:1 1265:1 1266:1 1275:1 1279:1 1294:1 1300:1 1301:1 1313:1 1369:1 1374:1
-1 246:1 349:1 406:1 460:1 541:1 559:1 681:1 981:1 1207:1 1231:1 1236:1 1239:1 1265:1 1292:1 1300:1 1313:1 1354:1 1369:1 1374:2
-1 237:1 246:1 349:1 406:1 506:1 642:1 677:1 703:1 759:1 760:1 777:1 811:1 823:1 869:1 876:1 881:1 945:1 953:1 1068:1 1100:1 1236:1 1292:1 1354:1 1374:1
-1 128:1 198:1 246:1 279:1 318:1 334:1 349:1 406:1 460:1 486:1 511:1 541:1 559:1 606:1 619:1 634:1 681:1 699:1 701:1 755:1 837:1 907:1 978:1 981:1 1207:1 1223:1 1231:1 1236:1 1237:1 1239:1 1240:1 1241:1 1265:1 1266:1 1275:1 1286:1 1292:1 1300:1 1302:1 1312:1 1313:1 1343:1 1346:1 1354:1 1356:1 1357:1 1369:1 1374:2
-1 246:1 559:1 681:1 1231:1 1292:1 1313:1 1374:1
-1 167:1 349:2 384:1 559:1 626:1 643:1 644:1 1313:1 1354:2 1374:2
-1 146:1 246:1 349:1 406:1 445:1 489:1 514:1 559:1 642:1 677:1 681:1 699:1 703:1 759:1 760:1 766:1 811:1 869:1 876:1 881:1 945:1 953:1 1022:1 1035:1 1100:1 1104:1 1157:1 1231:1 1236:1 1240:1 1292:1 1313:1 1354:1 1374:2 1376:1
-1 131:1 246:1 541:1 559:1 681:1 701:1 907:1 981:1 1225:1 1231:1 1239:1 1241:1 1292:1 1300:1 1313:1 1356:1 1374:2
-1 237:1 241:1 349:1 506:1 617:1 642:1 677:1 699:1 759:1 760:1 811:1 849:1 859:1 869:1 877:1 881:1 945:1 953:1 1022:1 1100:1 1104:1 1123:1 1157:1 1211:1 1240:1 1354:1 1374:3
-1 186:1 241:1 246:1 349:1 365:1 445:1 642:1 677:1 699:1 703:1 759:1 760:1 823:1 854:1 869:1 907:1 945:1 953:1 1060:1 1068:1 1100:1 1123:1 1240:1 1292:1 1354:1 1356:1 1370:1 1374:3
-1 131:1 246:1 541:1 559:1 681:1 701:1 907:1 981:1 1225:1 1231:1 1239:1 1241:1 1292:1 1300:1 1313:1 1356:1 1374:2
-1 559:1 691:1 980:1 1313:1 1374:2 1376:2
-1 246:1 559:1 681:1 755:1 978:1 1231:1 1237:1 1266:1 1292:1 1313:1 1374:2
-1 246:1 541:1 559:1 681:1 701:1 907:1 981:1 1231:1 1239:1 1241:1 1292:1 1300:1 1313:1 1356:1 1374:2
-1 382:1 1219:1 1374:3
-1 247:1 559:1 1313:1 1374:2
-1 310:1 349:2 530:1 550:1 559:1 955:1 1149:1 1306:1 1313:1 1354:2 1374:2
-1 246:2 406:1 541:2 559:3 634:1 681:2 701:1 907:1 981:1 1231:2 1236:1 1239:1 1241:1 1292:2 1300:2 1313:3 1356:1 1357:1 1374:6
-1 246:1 349:2 406:1 541:1 559:1 681:1 701:1 907:1 978:1 981:1 1231:1 1236:1 1237:1 1239:1 1241:1 1292:1 1300:1 1313:1 1354:2 1356:1 1374:2
-1 131:1 246:1 541:1 559:1 681:1 701:1 907:1 981:1 1225:1 1231:1 1239:1 1241:1 1292:1 1300:1 1313:1 1356:1 1374:3
-1 246:1 349:1 541:1 559:1 681:1 1231:1 1292:1 1300:1 1313:1 1354:1 1374:4
-1 246:1 290:1 443:1 465:1 541:1 559:1 634:1 681:1 701:1 907:1 918:2 978:1 981:1 1231:1 1237:1 1239:1 1241:1 1292:1 1300:1 1313:1 1356:1 1357:1 1374:2
-1 241:1 267:1 307:1 349:1 406:1 420:1 506:1 551:1 642:1 677:1 699:1 703:1 759:1 760:1 777:1 831:1 854:1 869:1 876:1 881:1 899:1 945:1 953:1 1022:1 1054:1 1060:1 1068:1 1084:1 1095:1 1100:1 1104:1 1123:1 1132:1 1236:1 1240:1 1301:1 1354:1 1374:2
-1 241:1 349:1 420:1 445:1 506:1 551:1 567:1 639:1 642:1 677:1 703:1 759:1 760:1 777:1 831:1 854:1 869:1 876:1 945:1 953:1 1022:1 1054:1 1060:1 1068:1 1084:1 1095:1 1100:1 1104:1 1123:1 1354:1 1374:3
-1 559:1 1313:1 1374:1
-1 349:2 559:1 1313:1 1354:2 1374:2
-1 246:2 406:1 559:2 681:2 701:1 1231:2 1236:1 1241:1 1292:2 1313:2 1374:7
-1 246:1 349:1 541:1 559:1 618:1 634:1 681:1 701:1 907:1 1231:1 1241:1 1292:1 1300:1 1313:1 1354:1 1356:1 1357:1 1374:2
-1 559:1 681:1 699:1 1231:1 1240:1 1313:1 1374:1
-1 246:1 349:1 559:1 618:1 634:1 981:1 1239:1 1292:1 1313:1 1354:1 1357:1 1374:2
-1 131:1 246:1 406:1 541:1 559:1 701:1 755:1 907:1 978:1 981:1 1225:1 1236:1 1237:1 1239:1 1241:1 1266:1 1292:1 1300:1 1313:1 1356:1 1374:5
-1 160:1 192:1 246:1 308:1 349:1 406:1 541:1 559:1 704:1 921:1 981:1 1038:1 1236:1 1239:1 1292:1 1300:1 1313:1 1335:1 1354:1 1374:2
-1 246:1 559:1 681:1 701:1 907:1 1231:1 1241:1 1292:1 1313:1 1356:1 1374:2
-1 382:1 1219:1 1374:3
-1 559:1 681:1 780:1 1231:1 1313:1 1374:1
-1 246:1 349:2 541:1 559:1 681:1 1231:1 1292:1 1300:1 1313:1 1354:2 1374:4 1376:7
-1 246:1 530:1 559:1 634:1 755:1 863:1 980:1 1266:1 1292:1 1313:1 1357:1 1374:1 1376:771
-1 246:1 349:1 379:1 523:1 541:1 559:1 618:1 681:1 701:1 780:1 840:1 845:1 907:1 1216:1 1231:1 1241:1 1292:1 1300:1 1305:1 1313:1 1354:1 1356:1 1374:4
-1 246:2 406:1 559:2 681:2 701:1 1231:2 1236:1 1241:1 1292:2 1313:2 1374:7
-1 246:1 559:1 681:1 780:1 1231:1 1292:1 1313:1 1374:1
-1 246:1 559:1 681:1 780:1 1231:1 1292:1 1313:1 1374:3
-1 559:1 681:1 780:1 1231:1 1313:1 1374:1
-1 559:1 681:1 780:1 1231:1 1313:1 1374:1
-1 559:1 681:1 780:1 1231:1 1313:1 1374:1
-1 131:1 246:1 365:1 406:1 407:1 460:1 541:1 559:1 621:1 634:1 681:1 701:1 895:1 907:1 978:1 981:1 1225:1 1231:1 1235:1 1236:1 1237:1 1239:1 1241:1 1265:1 1292:1 1300:1 1313:1 1348:1 1350:1 1356:1 1357:1 1370:1 1374:1
-1 131:1 246:1 541:1 559:1 681:1 701:1 907:1 981:1 1225:1 1231:1 1239:1 1241:1 1292:1 1300:1 1313:1 1356:1 1374:2
-1 246:1 349:2 541:1 559:1 634:1 701:1 907:1 978:1 1237:1 1241:1 1292:1 1300:1 1313:1 1354:2 1356:1 1357:1 1374:3
-1 246:1 406:1 559:1 681:1 980:1 981:1 1231:1 1236:1 1239:1 1292:1 1313:1 1374:1
-1 159:1 246:1 379:1 523:1 536:1 541:1 559:1 634:1 681:1 701:1 727:1 907:1 978:1 981:1 1186:1 1216:1 1231:1 1237:1 1239:1 1241:1 1292:1 1297:1 1300:1 1313:1 1356:1 1357:1 1374:2 1376:2
-1 382:1 1219:1 1374:3
-1 246:1 349:1 515:1 559:1 699:1 701:1 895:1 907:1 1240:1 1241:1 1292:1 1313:1 1350:1 1354:1 1356:1 1374:1
-1 246:1 406:1 407:1 460:1 495:1 541:1 559:1 634:1 681:1 693:1 699:1 703:1 892:1 901:1 907:1 912:1 1231:1 1235:1 1236:1 1240:1 1265:1 1292:1 1300:1 1313:1 1356:1 1357:1 1374:2
-1 246:1 541:1 559:1 701:1 907:1 1241:1 1292:1 1300:1 1313:1 1356:1 1374:3
-1 349:1 466:1 497:1 505:1 553:1 559:1 781:1 804:1 1313:1 1354:1 1374:4
-1 246:1 349:1 559:1 681:1 1231:1 1292:1 1313:1 1354:1 1374:5
-1 128:1 246:1 349:1 559:1 681:1 699:1 755:1 824:1 1223:1 1231:1 1240:1 1266:1 1292:1 1295:1 1313:1 1354:1 1374:2
-1 382:1 1219:1 1374:3
-1 349:1 541:1 559:1 681:1 699:1 1231:1 1240:1 1300:1 1313:1 1354:1 1374:2
-1 346:1 349:2 396:1 466:1 505:1 559:1 781:1 1180:1 1313:1 1354:2 1374:3
-1 246:1 349:1 541:1 559:1 681:1 1231:1 1292:1 1300:1 1313:1 1354:1 1374:3
-1 246:1 406:1 541:1 559:1 1236:1 1292:1 1300:1 1313:1 1374:2
-1 214:1 246:1 406:1 460:1 541:1 559:1 634:1 681:1 741:1 897:1 981:1 1231:1 1236:1 1239:1 1258:1 1265:1 1292:1 1300:1 1313:1 1357:1 1374:1
-1 128:1 131:1 148:1 214:1 246:1 406:1 460:1 541:1 559:1 681:1 701:1 755:1 895:1 897:1 907:1 981:1 1177:1 1207:1 1223:1 1225:1 1231:1 1236:1 1239:1 1241:1 1265:1 1266:1 1292:1 1300:1 1313:1 1347:1 1350:1 1356:1 1369:1 1374:1 1376:20
-1 214:1 246:1 559:1 681:1 897:1 981:1 1231:1 1239:1 1292:1 1313:1 1374:1
-1 148:1 214:1 246:1 406:1 541:1 559:1 701:1 897:1 981:1 1236:1 1239:1 1241:1 1292:1 1300:1 1313:1 1374:2
-1 131:1 182:1 214:1 246:1 406:1 460:1 541:1 559:1 681:1 701:1 755:1 837:1 895:1 897:1 907:1 981:1 1225:1 1231:1 1236:1 1239:1 1241:1 1265:1 1266:1 1292:1 1300:1 1302:1 1313:1 1350:1 1356:1 1374:1 1376:326
-1 214:1 246:1 272:1 406:1 541:1 559:1 583:1 651:1 681:1 701:1 775:1 839:1 848:1 895:1 897:1 907:1 981:1 987:1 1039:1 1044:1 1231:1 1236:1 1239:1 1241:1 1292:1 1300:1 1313:1 1350:1 1356:1 1374:1
-1 382:1 1219:1 1374:3
-1 382:1 1219:1 1374:3
-1 117:1 122:1 140:1 241:1 243:1 307:1 349:1 358:1 420:1 445:1 535:1 642:1 657:1 677:1 697:1 699:1 748:1 759:1 760:1 786:1 787:1 811:1 834:1 858:1 866:1 869:1 881:1 945:1 953:1 1022:1 1100:1 1104:1 1111:1 1123:1 1136:1 1240:1 1354:1 1374:1
-1 246:1 349:1 559:1 606:1 618:1 656:1 701:1 755:1 1241:1 1266:1 1292:1 1313:1 1343:1 1354:1 1373:1 1374:2
-1 128:1 349:1 559:1 681:1 699:1 1223:1 1231:1 1240:1 1313:1 1354:1 1374:2
-1 349:1 559:1 681:1 741:1 981:1 1231:1 1239:1 1258:1 1313:1 1354:1 1374:2
-1 349:1 559:1 642:1 677:1 699:1 703:1 760:1 777:1 945:1 953:1 1100:1 1207:1 1240:1 1313:1 1354:1 1369:1 1374:1
-1 246:2 406:1 559:3 681:2 701:1 780:1 907:1 981:1 1231:2 1236:1 1239:1 1241:1 1292:2 1313:3 1356:1 1374:6
-1 142:1 241:1 349:1 406:1 426:1 506:1 642:1 677:1 699:1 703:1 760:1 881:1 945:1 953:1 1054:1 1100:1 1131:1 1207:1 1236:1 1240:1 1354:1 1369:1 1374:1
-1 128:1 241:1 307:1 349:1 358:1 445:1 506:1 642:1 656:1 677:1 697:1 699:1 759:1 760:1 786:1 787:1 811:1 858:1 869:1 945:1 953:1 1022:1 1100:1 1104:1 1111:1 1123:1 1211:1 1223:1 1240:1 1354:1 1373:1 1374:2
-1 349:1 642:1 677:1 760:1 945:1 953:1 1100:1 1123:1 1354:1 1374:3
-1 128:1 241:1 349:1 642:1 677:1 699:1 728:1 759:1 760:1 811:1 834:1 869:1 945:1 953:1 1022:1 1056:1 1082:1 1100:1 1223:1 1240:1 1273:1 1354:1 1374:2
-1 246:2 406:1 559:2 681:2 701:1 1231:2 1236:1 1241:1 1292:2 1313:2 1374:7
-1 246:1 349:1 460:1 559:1 642:1 677:1 760:1 886:1 907:1 945:1 953:1 1100:1 1265:1 1292:1 1313:1 1354:1 1356:1 1374:2
-1 349:1 391:1 541:1 559:1 681:1 1231:1 1300:1 1313:1 1354:1 1374:3
-1 241:1 349:1 406:1 445:1 506:1 642:1 677:1 699:1 703:1 759:1 760:1 786:1 811:1 823:1 869:1 881:1 945:1 953:1 1022:1 1100:1 1104:1 1111:1 1123:1 1236:1 1240:1 1354:1 1374:3 1376:23
-1 128:1 216:1 241:1 349:1 445:1 506:1 642:1 677:1 755:1 760:1 811:1 840:1 869:1 881:1 945:1 953:1 1022:1 1082:1 1100:1 1104:1 1111:1 1223:1 1266:1 1305:1 1354:1 1374:2
-1 246:1 541:1 559:1 681:1 701:1 907:1 978:1 1231:1 1237:1 1241:1 1292:1 1300:1 1313:1 1356:1 1374:2
-1 382:1 1219:1 1374:4
-1 241:1 246:1 349:1 506:1 541:1 559:1 642:1 677:1 699:1 703:1 760:1 869:1 877:1 881:1 945:1 953:1 1100:1 1240:1 1292:1 1300:1 1313:1 1354:1 1374:2
-1 382:1 1219:1 1374:3
-1 559:1 1313:1 1374:3
-1 246:1 406:1 460:1 541:1 559:1 681:1 701:1 755:1 907:1 978:1 981:1 1186:1 1231:1 1236:1 1237:1 1239:1 1241:1 1265:1 1266:1 1292:1 1300:1 1313:1 1356:1 1374:3
-1 382:1 1219:1 1374:2
-1 349:2 559:1 755:1 1266:1 1313:1 1354:2 1374:2
-1 349:2 559:1 755:1 1266:1 1313:1 1354:2 1374:2
-1 246:1 559:1 681:1 755:1 1231:1 1266:1 1292:1 1313:1 1374:2
-1 382:1 1219:1 1374:3
-1 219:1 289:1 436:1 559:1 578:1 693:1 699:1 1047:1 1240:1 1313:1 1374:4
-1 246:1 559:1 907:1 1292:1 1313:1 1356:1 1374:3
-1 246:1 559:1 1292:1 1313:1 1374:1
-1 228:1 237:1 241:1 246:1 349:1 406:1 486:1 489:1 506:1 525:1 559:1 642:1 657:1 677:1 681:1 759:1 760:1 800:1 876:1 877:1 945:1 953:1 981:1 1022:1 1100:1 1231:1 1236:1 1239:1 1275:1 1292:1 1294:1 1313:1 1354:1 1374:1 1376:9
-1 117:1 246:1 349:1 358:1 479:1 559:1 681:1 699:1 755:1 1207:1 1231:1 1240:1 1266:1 1272:1 1292:1 1313:1 1354:1 1369:1 1374:1
-1 131:1 148:1 214:1 246:1 406:1 460:1 541:1 559:1 681:1 701:1 897:1 907:1 981:1 1177:1 1225:1 1231:1 1236:1 1239:1 1241:1 1265:1 1292:1 1300:1 1313:1 1347:1 1356:1 1374:1
-1 121:1 131:1 246:1 406:1 541:1 559:1 634:1 656:1 681:1 701:1 907:1 978:1 981:1 1217:1 1225:1 1231:1 1236:1 1237:1 1239:1 1241:1 1292:1 1300:1 1313:1 1356:1 1357:1 1373:1 1374:5
-1 141:1 246:1 559:1 634:1 768:1 805:1 865:1 913:1 1292:1 1313:1 1357:1 1374:2
-1 131:1 246:1 541:1 559:1 681:1 701:1 907:1 981:1 1225:1 1231:1 1239:1 1241:1 1292:1 1300:1 1313:1 1356:1 1374:3
-1 139:1 246:1 254:1 366:1 499:1 541:1 547:1 559:1 566:1 681:1 904:1 1053:1 1165:1 1196:1 1231:1 1292:1 1300:1 1313:1 1374:4
-1 131:1 246:1 349:1 406:1 460:1 541:1 559:1 681:1 699:1 701:1 907:1 978:1 981:1 1225:1 1231:1 1236:1 1237:1 1239:1 1240:1 1241:1 1265:1 1292:1 1300:1 1313:1 1354:1 1356:1 1374:3
-1 246:1 460:1 486:1 525:1 541:1 559:1 640:1 681:1 701:1 907:1 926:1 978:1 981:1 1231:1 1237:1 1239:1 1241:1 1265:1 1275:1 1292:1 1294:1 1300:1 1313:1 1356:1 1361:1 1374:1
-1 175:1 241:1 246:1 274:1 349:1 406:1 460:1 541:1 559:1 567:1 639:1 642:1 677:1 681:1 699:1 701:1 703:1 729:1 760:1 811:1 876:1 907:1 922:1 945:1 953:1 978:1 1100:1 1231:1 1236:1 1237:1 1240:1 1241:1 1251:1 1265:1 1292:1 1300:1 1313:1 1354:1 1356:1 1374:2
-1 131:1 246:1 559:1 681:1 907:1 978:1 1225:1 1231:1 1237:1 1292:1 1313:1 1356:1 1374:2
-1 246:1 460:1 541:1 559:1 681:1 701:1 907:1 978:1 1231:1 1237:1 1241:1 1265:1 1292:1 1300:1 1313:1 1356:1 1374:2
-1 131:1 246:2 406:2 559:4 681:2 701:1 788:1 907:1 1225:1 1231:2 1236:2 1241:1 1292:2 1313:4 1356:1 1374:6
-1 246:1 541:1 559:1 681:1 701:1 907:1 981:1 1231:1 1239:1 1241:1 1292:1 1300:1 1313:1 1356:1 1374:2
-1 349:1 559:1 957:1 1313:1 1354:1 1374:3
-1 131:1 246:1 541:1 559:1 681:1 701:1 907:1 981:1 1225:1 1231:1 1239:1 1241:1 1292:1 1300:1 1313:1 1356:1 1374:2
-1 193:1 241:1 307:1 349:1 445:1 642:1 677:1 699:1 755:1 759:1 760:1 824:1 869:1 945:1 953:1 1100:1 1104:1 1123:1 1240:1 1266:1 1295:1 1354:1 1374:3
-1 382:1 1219:1 1374:3
-1 1112:1 1310:1 1374:1
-1 246:1 349:1 559:1 907:1 1292:1 1313:1 1354:1 1356:1 1374:2
-1 382:1 1219:1 1374:3
-1 382:1 1219:1 1374:3
-1 382:1 1219:1 1374:3
-1 382:1 1219:1 1374:3
-1 382:1 1219:1 1374:3
-1 382:1 1219:1 1374:3
-1 382:1 1219:1 1374:3
-1 349:2 559:1 611:1 1313:1 1354:2 1374:2
-1 246:1 331:1 460:1 559:1 681:1 701:1 1231:1 1241:1 1265:1 1292:1 1313:1 1374:1
-1 246:1 349:1 559:1 1292:1 1313:1 1354:1 1374:5
-1 382:1 1219:1 1374:3
-1 246:1 349:1 406:1 541:1 559:1 681:1 701:1 755:1 780:1 907:1 978:1 981:1 1231:1 1236:1 1237:1 1239:1 1241:1 1266:1 1292:1 1300:1 1313:1 1354:1 1356:1 1374:4
-1 246:1 349:1 559:1 1292:1 1313:1 1354:1 1374:3
-1 246:1 349:1 559:1 681:1 1231:1 1292:1 1313:1 1354:1 1374:2
-1 131:1 331:1 334:1 541:1 559:1 640:1 681:1 981:1 1225:1 1231:1 1239:1 1300:1 1313:1 1346:1 1361:1 1374:1
-1 219:1 289:1 436:1 559:1 578:1 693:1 1047:1 1313:1 1374:2
-1 382:1 1219:1 1374:4
-1 382:1 1219:1 1374:2
-1 559:1 1313:1 1374:4
-1 559:1 1313:1 1374:2
-1 159:1 246:1 536:1 559:1 634:1 727:1 753:1 1292:1 1297:1 1313:1 1357:1 1374:2
-1 1374:1
-1 219:1 289:1 351:1 433:1 436:1 559:1 578:1 681:1 693:1 718:1 912:1 981:1 1047:1 1129:1 1231:1 1239:1 1313:1 1374:3
-1 142:1 216:1 241:1 266:1 304:1 349:1 406:1 420:1 445:1 486:1 506:1 551:1 642:1 677:1 699:1 703:1 723:1 734:1 745:1 759:1 760:1 777:1 792:1 869:1 876:1 877:1 899:1 945:1 953:1 967:1 971:1 1022:1 1068:1 1100:1 1104:1 1123:1 1132:1 1212:1 1236:1 1240:1 1275:1 1354:1 1374:2
-1 212:1 241:1 349:1 420:1 445:1 506:1 642:1 677:1 703:1 723:1 759:1 760:1 777:1 876:1 945:1 953:1 971:1 1060:1 1068:1 1100:1 1104:1 1354:1 1374:1
-1 131:1 246:1 541:1 559:1 634:1 681:1 701:1 907:1 978:1 1225:1 1231:1 1237:1 1241:1 1292:1 1300:1 1313:1 1356:1 1357:1 1374:2
-1 131:1 246:1 541:1 559:1 634:1 681:1 701:1 907:1 978:1 1225:1 1231:1 1237:1 1241:1 1292:1 1300:1 1313:1 1356:1 1357:1 1374:2
-1 494:1 528:1 1145:1 1374:2
-1 494:1 528:1 1145:1 1374:2
-1 406:1 460:1 541:1 559:1 681:1 837:1 981:1 1231:1 1236:1 1239:1 1265:1 1300:1 1302:1 1313:1 1374:2
-1 131:1 220:1 246:1 334:1 406:1 460:1 486:1 511:1 525:1 541:1 559:1 681:1 699:1 701:1 755:1 864:1 895:1 907:1 981:1 1225:1 1231:1 1236:1 1239:1 1240:1 1241:1 1265:1 1266:1 1275:1 1286:1 1292:1 1294:1 1300:1 1313:1 1346:1 1350:1 1356:1 1374:2
-1 246:1 430:1 460:1 559:1 681:1 907:1 980:1 981:1 1231:1 1239:1 1265:1 1292:1 1313:1 1356:1 1374:1
-1 246:1 559:1 980:1 1292:1 1313:1 1374:1
-1 246:2 406:1 559:2 681:2 701:1 1231:2 1236:1 1241:1 1292:2 1313:2 1374:7
-1 241:1 349:1 406:1 445:1 506:1 614:1 642:1 662:1 677:1 699:1 703:1 759:1 760:1 777:1 811:1 854:1 866:1 869:1 877:1 945:1 953:1 1022:1 1068:1 1086:1 1100:1 1131:1 1236:1 1240:1 1354:1 1374:2
-1 349:1 460:1 486:1 525:1 541:1 559:1 681:1 981:1 1231:1 1239:1 1265:1 1275:1 1294:1 1300:1 1313:1 1354:1 1374:2
-1 349:1 559:1 1313:1 1354:1 1374:6
-1 254:1 349:1 366:1 541:1 559:1 624:1 793:1 1026:1 1196:1 1203:1 1300:1 1313:1 1354:1 1374:5 1376:150
-1 349:1 396:1 559:1 1203:1 1313:1 1354:1 1374:6
-1 349:1 548:1 559:1 1313:1 1354:1 1374:6
-1 254:1 349:1 366:1 547:1 548:1 559:1 624:1 793:1 1026:1 1196:1 1203:1 1313:1 1354:1 1374:5 1376:52
-1 131:1 246:1 541:1 559:1 681:1 701:1 907:1 981:1 1225:1 1231:1 1239:1 1241:1 1292:1 1300:1 1313:1 1356:1 1374:3
-1 349:2 559:1 780:1 1313:1 1354:2 1374:3
-1 294:1 325:1 372:1 373:1 530:1 550:1 559:1 675:1 863:1 955:1 1133:1 1149:1 1151:1 1170:1 1195:1 1306:1 1313:1 1374:1
-1 130:1 349:2 550:1 559:1 587:1 673:1 680:1 700:1 739:1 929:1 955:1 1162:2 1188:1 1196:1 1213:1 1306:1 1313:1 1354:2 1374:2
-1 131:1 246:1 541:1 559:1 681:1 701:1 907:1 981:1 1225:1 1231:1 1239:1 1241:1 1292:1 1300:1 1313:1 1356:1 1374:3
-1 131:1 246:1 349:1 358:1 460:1 559:1 656:1 681:1 697:1 699:1 755:1 806:1 1157:1 1225:1 1231:1 1240:1 1265:1 1266:1 1292:1 1313:1 1354:1 1373:1 1374:2
-1 246:1 349:1 389:1 559:1 634:1 659:1 907:1 1109:1 1151:1 1292:1 1313:1 1354:1 1356:1 1357:1 1374:2
-1 246:2 406:2 530:1 550:1 559:4 681:1 1231:1 1236:2 1292:2 1306:1 1313:4 1374:5
-1 246:2 406:1 550:2 559:3 681:2 701:1 907:1 981:1 1231:2 1236:1 1239:1 1241:1 1292:2 1306:2 1313:3 1356:1 1374:6
-1 382:1 1219:1 1374:4
-1 382:1 1219:1 1374:3
-1 349:2 530:1 559:1 563:1 863:1 920:1 1313:1 1354:2 1374:2
-1 349:2 466:1 497:1 559:1 781:1 841:1 1313:1 1354:2 1374:3
-1 131:1 246:2 406:2 559:4 634:1 656:1 681:2 701:1 907:1 978:1 1225:1 1231:2 1236:2 1237:1 1241:1 1292:2 1313:4 1356:1 1357:1 1373:1 1374:6
-1 628:1 1374:1
-1 349:1 559:1 780:1 856:1 1202:1 1313:1 1354:1 1374:3
-1 131:1 246:1 406:1 541:1 559:1 634:1 681:1 701:1 907:1 978:1 981:1 1225:1 1231:1 1236:1 1237:1 1239:1 1241:1 1292:1 1300:1 1313:1 1356:1 1357:1 1374:5
-1 382:1 1219:1 1374:3
-1 131:1 246:1 541:1 559:1 681:1 701:1 907:1 981:1 1225:1 1231:1 1239:1 1241:1 1292:1 1300:1 1313:1 1356:1 1374:3
-1 246:2 406:1 559:2 681:2 701:1 1231:2 1236:1 1241:1 1292:2 1313:2 1374:7
-1 246:1 349:1 445:1 457:1 460:1 541:1 559:1 642:1 677:1 701:1 703:1 760:1 945:1 953:1 1100:1 1241:1 1265:1 1292:1 1300:1 1313:1 1354:1 1374:4
-1 246:1 349:1 406:1 541:1 559:1 907:1 981:1 1236:1 1239:1 1292:1 1300:1 1313:1 1354:1 1356:1 1374:1
-1 559:1 736:1 1313:1 1374:2
-1 246:1 349:1 460:1 559:1 642:1 677:1 703:1 760:1 907:1 945:1 953:1 981:1 1100:1 1239:1 1265:1 1292:1 1313:1 1354:1 1356:1 1374:3
-1 382:1 1219:1 1374:4
-1 325:1 559:1 776:1 1313:1 1374:2
-1 131:1 246:2 406:3 541:2 559:5 634:1 681:2 701:1 907:1 981:1 1225:1 1231:2 1236:3 1239:1 1241:1 1292:2 1300:2 1313:5 1356:1 1357:1 1374:6
-1 246:1 349:1 541:1 559:1 681:1 1231:1 1292:1 1300:1 1313:1 1354:1 1374:3 1376:1
-1 246:1 559:1 755:1 1266:1 1292:1 1313:1 1374:4
-1 382:1 1219:1 1374:3
-1 246:1 349:2 541:1 559:1 681:1 701:1 780:1 907:1 978:1 981:1 1231:1 1237:1 1239:1 1241:1 1292:1 1300:1 1313:1 1354:2 1356:1 1374:2
-1 131:1 246:1 541:1 559:1 681:1 701:1 907:1 981:1 1225:1 1231:1 1239:1 1241:1 1292:1 1300:1 1313:1 1356:1 1374:3
-1 246:1 349:1 406:1 407:1 495:1 541:1 559:1 634:1 667:1 681:1 699:1 842:1 895:1 907:1 938:1 981:1 988:1 1231:1 1235:1 1236:1 1239:1 1240:1 1292:1 1300:1 1313:1 1350:1 1354:1 1356:1 1357:1 1374:1
-1 382:1 1219:1 1374:2
-1 131:1 246:1 541:1 559:1 681:1 701:1 907:1 981:1 1225:1 1231:1 1239:1 1241:1 1292:1 1300:1 1313:1 1356:1 1374:3
-1 246:1 349:1 559:1 843:1 1292:1 1313:1 1354:1 1374:2
-1 131:1 246:1 559:1 634:1 907:1 1225:1 1292:1 1313:1 1356:1 1357:1 1374:2
-1 494:1 528:1 1374:2
-1 1374:1
-1 382:1 1219:1 1374:4
-1 131:1 246:1 331:1 365:1 559:1 681:1 907:1 980:1 981:1 1108:1 1225:1 1231:1 1239:1 1292:1 1313:1 1356:1 1370:1 1374:3 1376:123
-1 194:1 246:1 313:1 406:1 486:1 541:1 559:1 681:1 714:1 755:1 890:1 980:1 981:1 1108:1 1160:1 1231:1 1236:1 1239:1 1266:1 1275:1 1292:1 1300:1 1313:1 1374:1 1376:2
-1 382:1 1219:1 1374:2
-1 559:1 1313:1 1374:2
-1 131:1 246:2 406:3 541:2 559:4 681:2 701:1 907:1 978:1 981:1 1225:1 1231:2 1236:3 1237:1 1239:1 1241:1 1292:2 1300:2 1313:4 1356:1 1374:6
-1 246:1 349:1 460:1 541:1 559:1 681:1 699:1 833:1 907:1 1178:1 1207:1 1231:1 1240:1 1265:1 1292:1 1300:1 1313:1 1354:1 1356:1 1369:1 1374:1
-1 131:1 246:1 406:1 460:1 541:1 559:1 652:1 681:1 701:1 755:1 907:1 978:1 981:1 1152:1 1225:1 1231:1 1236:1 1237:1 1239:1 1241:1 1265:1 1266:1 1292:1 1300:1 1313:1 1334:1 1356:1 1371:1 1374:4
-1 349:1 559:1 642:1 677:1 681:1 760:1 831:1 945:1 953:1 981:1 1100:1 1231:1 1239:1 1313:1 1354:1 1374:1
-1 246:1 349:1 486:1 525:1 559:1 602:1 681:1 1074:1 1231:1 1275:1 1292:1 1294:1 1313:1 1354:1 1374:1
-1 131:1 246:1 406:1 541:1 559:1 681:1 701:1 907:1 978:1 981:1 1225:1 1231:1 1236:1 1237:1 1239:1 1241:1 1292:1 1300:1 1313:1 1356:1 1374:5
-1 246:2 406:2 559:4 681:1 1231:1 1236:2 1292:2 1313:4 1374:6
-1 246:2 406:1 559:2 681:2 701:1 1231:2 1236:1 1241:1 1292:2 1313:2 1374:7
-1 246:1 541:1 559:1 681:1 907:1 978:1 1231:1 1237:1 1292:1 1300:1 1313:1 1356:1 1374:2
-1 246:1 541:1 559:1 681:1 701:1 907:1 978:1 1231:1 1237:1 1241:1 1292:1 1300:1 1313:1 1356:1 1374:1
-1 382:1 1219:1 1374:3
-1 246:1 406:1 541:1 559:1 1236:1 1292:1 1300:1 1313:1 1374:1
-1 254:1 287:1 349:1 547:1 559:1 1196:1 1313:1 1354:1 1374:3
-1 246:1 349:2 559:1 596:1 681:1 1231:1 1292:1 1313:1 1337:1 1354:2 1374:5
-1 246:1 406:1 460:1 485:1 541:1 559:1 681:1 907:1 978:1 981:1 1152:1 1231:1 1236:1 1237:1 1239:1 1265:1 1292:1 1300:1 1313:1 1334:1 1356:1 1374:4
-1 131:1 246:2 406:3 559:6 621:1 681:2 701:1 907:1 978:1 981:1 1225:1 1231:2 1236:3 1237:1 1239:1 1241:1 1292:2 1313:6 1348:1 1356:1 1374:6
-1 131:1 246:2 406:2 541:1 559:4 681:2 701:1 907:1 978:1 981:1 1225:1 1231:2 1236:2 1237:1 1239:1 1241:1 1292:2 1300:1 1313:4 1356:1 1374:6
-1 131:1 246:1 541:1 559:1 681:1 701:1 907:1 981:1 1225:1 1231:1 1239:1 1241:1 1292:1 1300:1 1313:1 1356:1 1374:3
-1 246:2 406:1 559:3 681:2 701:1 907:1 981:1 1231:2 1236:1 1239:1 1241:1 1292:2 1313:3 1356:1 1374:6
-1 382:1 1219:1 1374:3
-1 246:2 406:2 559:4 681:3 701:1 1231:3 1236:2 1241:1 1292:2 1313:4 1374:4
-1 559:1 1313:1 1374:2
-1 241:1 246:1 307:1 349:1 460:1 495:1 506:1 541:1 559:1 642:1 677:1 703:1 760:1 810:1 869:1 876:1 945:1 953:1 1100:1 1104:1 1265:1 1291:1 1292:1 1300:1 1313:1 1354:1 1374:3
-1 246:1 559:1 1292:1 1313:1 1374:2
-1 246:1 308:1 349:1 541:1 559:1 618:1 681:1 701:1 907:1 1231:1 1241:1 1292:1 1300:1 1313:1 1335:1 1354:1 1356:1 1374:2 1376:1
-1 128:1 241:1 349:1 445:1 642:1 677:1 699:1 755:1 760:1 811:1 869:1 945:1 953:1 1022:1 1100:1 1104:1 1111:1 1223:1 1240:1 1266:1 1354:1 1374:1
-1 131:1 246:1 541:1 559:1 681:1 701:1 907:1 981:1 1225:1 1231:1 1239:1 1241:1 1292:1 1300:1 1313:1 1356:1 1374:2
-1 559:1 1313:1 1374:3
-1 246:1 406:1 559:1 681:1 981:1 1231:1 1236:1 1239:1 1292:1 1313:1 1374:1
-1 246:1 349:1 541:1 559:1 681:1 699:1 828:1 1231:1 1240:1 1292:1 1300:1 1313:1 1354:1 1374:2
-1 246:1 559:1 755:1 1183:1 1266:1 1292:1 1313:1 1374:2
-1 349:1 559:1 567:1 574:1 639:1 642:1 681:1 699:1 703:1 760:1 945:1 953:1 1100:1 1231:1 1240:1 1313:1 1323:1 1354:1 1374:3
-1 128:1 131:1 227:1 246:1 406:1 460:1 511:1 525:1 541:1 559:1 576:1 596:1 621:1 634:1 681:1 701:1 755:1 907:1 981:1 1207:1 1223:1 1225:1 1231:1 1236:1 1239:1 1241:1 1265:1 1266:1 1279:1 1286:1 1292:1 1294:1 1300:1 1313:1 1325:1 1337:1 1348:1 1356:1 1357:1 1369:1 1374:2
-1 246:1 349:2 541:1 559:1 681:1 1231:1 1292:1 1300:1 1313:1 1354:2 1374:4 1376:7
-1 246:2 406:1 559:4 681:3 701:1 1231:3 1236:1 1241:1 1292:2 1313:4 1374:4
-1 246:2 406:1 559:2 681:2 701:1 1231:2 1236:1 1241:1 1292:2 1313:2 1374:7
-1 349:1 406:1 460:1 541:1 559:1 703:1 1236:1 1265:1 1300:1 1313:1 1354:1 1374:2
-1 246:1 347:1 349:1 404:1 437:1 559:1 631:1 716:1 756:1 807:1 825:1 1203:1 1207:1 1292:1 1313:1 1354:1 1369:1 1374:5
-1 246:2 406:1 559:4 681:3 701:1 1231:3 1236:1 1241:1 1292:2 1313:4 1374:4
-1 246:2 406:1 559:2 681:2 701:1 1231:2 1236:1 1241:1 1292:2 1313:2 1374:7
-1 559:1 1313:1 1374:4
-1 132:1 246:1 349:1 460:1 541:1 559:1 681:1 699:1 1226:1 1231:1 1240:1 1265:1 1292:1 1300:1 1313:1 1354:1 1374:1
-1 246:2 406:2 559:4 681:3 701:1 1231:3 1236:2 1241:1 1292:2 1313:4 1374:4
-1 559:1 1313:1 1374:2
-1 153:1 246:1 349:1 541:1 559:1 681:1 701:1 705:1 755:1 856:1 865:1 907:1 978:1 981:1 1202:1 1231:1 1237:1 1239:1 1241:1 1266:1 1292:1 1300:1 1313:1 1354:1 1356:1 1374:2
-1 128:1 193:1 246:1 406:1 460:1 541:1 559:1 681:1 701:1 755:1 907:1 978:1 981:1 1223:1 1231:1 1236:1 1237:1 1239:1 1241:1 1265:1 1266:1 1292:1 1300:1 1313:1 1356:1 1374:1
-1 128:1 246:1 308:1 349:1 541:1 559:1 681:1 701:1 780:1 837:1 907:1 978:1 981:1 1223:1 1231:1 1237:1 1239:1 1241:1 1292:1 1300:1 1302:1 1313:1 1335:1 1354:1 1356:1 1374:4
-1 247:1 395:1 559:1 788:1 1313:1 1374:1
-1 246:1 318:1 349:1 406:1 460:1 541:1 559:1 681:1 699:1 907:1 981:1 1157:1 1164:1 1231:1 1236:1 1239:1 1240:1 1265:1 1292:1 1300:1 1313:1 1354:1 1356:1 1374:3
-1 349:1 559:1 1179:1 1313:1 1354:1 1374:5
-1 349:1 682:1 1354:1 1374:4
-1 382:1 1219:1 1374:2
-1 131:1 246:1 541:1 559:1 681:1 701:1 907:1 981:1 1225:1 1231:1 1239:1 1241:1 1292:1 1300:1 1313:1 1356:1 1374:3
-1 382:1 1219:1 1374:3
-1 246:2 406:3 541:1 559:5 681:2 701:1 837:1 907:1 978:1 981:1 1231:2 1236:3 1237:1 1239:1 1241:1 1292:2 1300:1 1302:1 1313:5 1356:1 1374:6
-1 154:1 246:1 349:1 406:1 445:1 460:1 495:1 541:1 559:1 567:1 642:1 677:1 681:1 703:1 741:1 760:1 945:1 953:1 1072:1 1074:1 1100:1 1231:1 1236:1 1258:1 1265:1 1292:1 1300:1 1313:1 1354:1 1374:3
-1 246:1 559:1 907:1 1292:1 1313:1 1356:1 1374:3
-1 246:1 541:1 559:1 681:1 701:1 907:1 997:1 1231:1 1241:1 1292:1 1300:1 1313:1 1356:1 1374:3
-1 382:1 1219:1 1374:3
-1 246:1 460:1 486:1 525:1 541:1 559:1 681:1 981:1 1231:1 1239:1 1265:1 1275:1 1292:1 1294:1 1300:1 1313:1 1374:1
-1 1112:1 1310:1 1374:1
-1 131:1 246:1 406:1 458:1 541:1 559:1 634:1 681:1 701:1 755:1 761:1 895:1 907:1 980:1 981:1 1108:1 1225:1 1231:1 1236:1 1239:1 1241:1 1266:1 1292:1 1300:1 1313:1 1350:1 1356:1 1357:1 1374:1 1376:379
-1 131:1 182:1 214:1 246:1 406:1 460:1 541:1 559:1 681:1 701:1 895:1 897:1 907:1 981:1 1225:1 1231:1 1236:1 1239:1 1241:1 1265:1 1292:1 1300:1 1313:1 1350:1 1356:1 1374:1
-1 131:1 182:1 214:1 246:1 406:1 460:1 541:1 559:1 681:1 701:1 895:1 897:1 907:1 981:1 1225:1 1231:1 1236:1 1239:1 1241:1 1265:1 1292:1 1300:1 1313:1 1350:1 1356:1 1374:1
-1 559:1 681:1 691:1 755:1 980:1 1231:1 1266:1 1313:1 1374:1
-1 131:1 157:1 246:2 406:2 559:5 681:2 701:1 907:1 1225:1 1231:2 1236:2 1241:1 1292:2 1313:5 1356:1 1374:6
-1 129:1 157:1 382:1 559:1 1219:1 1313:1 1374:2
-1 382:1 1219:1 1374:3
-1 382:1 1219:1 1374:3
-1 131:1 246:1 406:1 541:1 559:1 681:1 701:1 907:1 981:1 1225:1 1231:1 1236:1 1239:1 1241:1 1292:1 1300:1 1313:1 1356:1 1374:5
-1 349:1 352:1 460:1 506:1 512:1 567:1 639:1 642:1 677:1 703:1 729:1 760:1 945:1 953:1 1100:1 1265:1 1354:1 1374:2
-1 246:2 406:1 559:2 681:2 701:1 1231:2 1236:1 1241:1 1292:2 1313:2 1374:7
-1 349:1 559:1 1313:1 1354:1 1374:6
-1 349:1 559:1 1313:1 1354:1 1374:6
-1 246:1 349:1 476:1 541:1 559:1 681:1 1231:1 1292:1 1300:1 1313:1 1354:1 1374:5
-1 128:1 241:1 349:1 445:1 642:1 677:1 699:1 755:1 759:1 760:1 811:1 869:1 945:1 953:1 1022:1 1100:1 1104:1 1111:1 1223:1 1240:1 1266:1 1354:1 1374:1
-1 246:1 541:1 559:1 570:1 634:1 652:1 888:1 907:1 1292:1 1300:1 1313:1 1356:1 1357:1 1371:1 1374:1
-1 349:1 559:1 1313:1 1354:1 1374:2
-1 131:1 246:2 406:2 559:5 681:2 701:1 907:1 1225:1 1231:2 1236:2 1241:1 1292:2 1313:5 1356:1 1374:6
-1 559:1 1313:1 1374:2 1376:21
-1 559:1 1313:1 1374:2
-1 382:1 1219:1 1374:2
-1 188:1 241:1 246:1 417:1 559:1 614:1 642:1 681:1 693:1 759:1 760:1 876:1 877:1 901:1 945:1 953:1 1022:1 1100:1 1231:1 1292:1 1313:1 1374:1
-1 142:1 241:1 349:1 506:1 512:1 567:1 639:1 642:1 677:1 699:1 703:1 729:1 760:1 777:1 811:1 876:1 945:1 953:1 1100:1 1104:1 1240:1 1354:1 1374:1
-1 131:1 246:1 541:1 559:1 681:1 701:1 907:1 981:1 1225:1 1231:1 1239:1 1241:1 1292:1 1300:1 1313:1 1356:1 1374:3
-1 139:1 254:1 256:1 287:1 306:1 349:2 357:1 366:1 422:1 499:1 541:1 547:1 559:1 566:1 681:1 851:1 1053:1 1105:1 1165:1 1196:1 1231:1 1300:1 1313:1 1354:2 1374:2 1376:299
-1 131:1 246:1 541:1 559:1 681:1 701:1 907:1 981:1 1225:1 1231:1 1239:1 1241:1 1292:1 1300:1 1313:1 1356:1 1374:3
-1 349:1 559:1 1313:1 1354:1 1374:2
-1 1112:1 1310:1 1374:1
-1 382:1 1219:1 1374:3
-1 246:1 325:1 379:1 536:1 541:1 559:1 634:1 681:1 907:1 978:1 1071:1 1186:1 1216:1 1231:1 1237:1 1292:1 1297:1 1300:1 1313:1 1356:1 1357:1 1374:1
-1 453:1 559:1 1313:1 1374:4 1376:3
-1 382:1 1219:1 1374:3
-1 131:1 246:1 541:1 559:1 681:1 701:1 907:1 981:1 1225:1 1231:1 1239:1 1241:1 1292:1 1300:1 1313:1 1356:1 1374:2
-1 246:1 349:1 559:1 659:1 907:1 978:1 1237:1 1292:1 1313:1 1354:1 1356:1 1374:2
-1 246:1 349:1 365:1 406:1 541:1 559:1 634:1 681:1 755:1 907:1 978:1 981:1 1003:1 1231:1 1236:1 1237:1 1239:1 1266:1 1292:1 1300:1 1313:1 1354:1 1356:1 1357:1 1370:1 1374:4
-1 559:1 918:1 1313:1 1374:3
-1 246:1 559:1 681:1 1231:1 1292:1 1313:1 1374:2
-1 131:1 246:2 406:2 559:1 681:2 701:1 907:1 978:1 1225:1 1231:2 1236:2 1237:1 1241:1 1292:2 1313:1 1356:1 1374:11
-1 219:1 289:1 436:1 492:1 559:1 578:1 681:1 693:1 718:1 912:1 1047:1 1231:1 1313:1 1374:4 1376:36
-1 246:1 456:1 559:1 907:1 1292:1 1313:1 1356:1 1374:1
-1 1112:1 1310:1 1374:1
-1 559:1 1313:1 1374:1
-1 214:1 246:1 559:1 681:1 701:1 907:1 981:1 1231:1 1239:1 1241:1 1292:1 1313:1 1356:1 1374:2
-1 246:1 349:2 406:1 559:1 701:1 978:1 981:1 1236:1 1237:1 1239:1 1241:1 1292:1 1313:1 1354:2 1374:3
-1 559:1 1313:1 1374:1
-1 246:2 406:1 559:4 681:3 701:1 1231:3 1236:1 1241:1 1292:2 1313:4 1374:5
-1 246:1 349:1 496:1 559:1 656:1 681:1 699:1 741:1 1207:1 1231:1 1240:1 1258:1 1292:1 1313:1 1354:1 1369:1 1373:1 1374:1
-1 237:1 241:1 307:1 349:1 408:1 417:1 420:1 445:1 489:1 506:1 614:1 642:1 677:1 699:1 746:1 748:1 759:1 760:1 766:1 811:1 834:1 849:1 864:1 866:1 869:1 876:1 881:1 941:1 945:1 953:1 1022:1 1068:1 1100:1 1104:1 1111:1 1193:1 1211:1 1240:1 1354:1 1374:2
-1 382:1 1219:1 1374:3
-1 382:1 1219:1 1374:3
-1 246:2 406:1 559:4 681:3 701:1 1231:3 1236:1 1241:1 1292:2 1313:4 1374:4
-1 559:1 755:1 1266:1 1313:1 1374:2
-1 513:1 530:1 559:1 1313:1 1374:3
-1 382:1 1219:1 1374:3
-1 131:1 246:1 541:1 559:1 681:1 701:1 907:1 981:1 1225:1 1231:1 1239:1 1241:1 1292:1 1300:1 1313:1 1356:1 1374:4
-1 699:1 1240:1 1374:2
-1 121:1 246:1 541:1 559:1 681:1 701:1 907:1 1217:1 1231:1 1241:1 1292:1 1300:1 1313:1 1356:1 1374:3
-1 131:1 246:1 541:1 559:1 681:1 701:1 907:1 981:1 1225:1 1231:1 1239:1 1241:1 1292:1 1300:1 1313:1 1356:1 1374:2
-1 246:1 541:1 559:1 656:1 681:1 701:1 755:1 907:1 978:1 1231:1 1237:1 1241:1 1266:1 1292:1 1300:1 1313:1 1356:1 1373:1 1374:1
-1 349:1 559:1 1313:1 1354:1 1374:5
-1 151:1 237:1 241:1 349:1 420:1 469:1 506:1 535:1 642:1 677:1 699:1 759:1 760:1 777:1 811:1 823:1 849:1 869:1 881:1 945:1 953:1 987:1 1022:1 1045:1 1084:1 1100:1 1104:1 1111:1 1132:1 1207:1 1211:1 1240:1 1354:1 1369:1 1374:2
-1 559:1 931:1 980:1 1313:1 1374:2 1376:1
-1 246:1 349:1 382:1 406:1 559:1 681:1 981:1 1164:1 1219:1 1231:1 1236:1 1239:1 1292:1 1313:1 1354:1 1374:1
-1 382:1 1219:1 1374:2
-1 246:1 541:1 559:1 681:1 701:1 709:1 780:1 907:1 978:1 981:1 1207:1 1231:1 1237:1 1239:1 1241:1 1292:1 1300:1 1313:1 1356:1 1369:1 1374:3
-1 214:1 246:1 541:1 559:1 681:1 701:1 907:1 978:1 981:1 1231:1 1237:1 1239:1 1241:1 1292:1 1300:1 1313:1 1356:1 1374:2
-1 246:2 406:1 559:2 681:2 701:1 1231:2 1236:1 1241:1 1292:2 1313:2 1374:7
-1 559:1 1313:1 1374:1
-1 559:1 1313:1 1374:2
-1 1374:1
-1 131:1 175:1 246:1 349:1 382:1 406:1 460:1 541:1 559:1 681:1 699:1 837:1 981:1 1084:1 1219:1 1225:1 1231:1 1236:1 1239:1 1240:1 1251:1 1265:1 1292:1 1300:1 1302:1 1313:1 1354:1 1374:2
-1 246:1 349:1 406:1 445:1 460:1 469:1 541:1 559:1 634:1 642:1 681:1 701:1 703:1 760:1 895:1 907:1 945:1 953:1 978:1 987:1 1100:1 1157:1 1231:1 1236:1 1237:1 1241:1 1265:1 1292:1 1300:1 1313:1 1350:1 1354:1 1356:1 1357:1 1374:1
-1 246:1 349:1 460:1 541:1 559:1 642:1 677:1 701:1 703:1 760:1 945:1 953:1 1100:1 1241:1 1265:1 1292:1 1300:1 1313:1 1354:1 1374:2
-1 246:1 536:1 559:1 570:1 652:1 696:1 888:1 907:1 981:1 1239:1 1292:1 1297:1 1313:1 1356:1 1371:1 1374:2
-1 131:1 246:1 349:1 406:1 460:1 498:1 559:1 606:1 649:1 681:1 699:1 719:1 755:1 864:1 981:1 1225:1 1231:1 1236:1 1239:1 1240:1 1265:1 1266:1 1281:1 1292:1 1313:1 1343:1 1354:1 1367:1 1374:1 1376:5
-1 246:1 349:1 406:1 559:1 681:1 699:1 981:1 1231:1 1236:1 1239:1 1240:1 1292:1 1313:1 1354:1 1374:2 1376:5
-1 246:1 349:1 406:1 460:1 541:1 559:1 681:1 699:1 701:1 978:1 981:1 1231:1 1236:1 1237:1 1239:1 1240:1 1241:1 1265:1 1292:1 1300:1 1313:1 1354:1 1374:2 1376:5
-1 349:2 559:1 1313:1 1354:2 1374:2
-1 349:1 567:1 639:1 642:1 677:1 760:1 876:1 877:1 945:1 953:1 1100:1 1354:1 1374:3
-1 246:1 349:1 406:1 559:1 681:1 981:1 1231:1 1236:1 1239:1 1292:1 1313:1 1354:1 1374:3
-1 246:1 349:1 406:1 559:1 681:1 981:1 1231:1 1236:1 1239:1 1292:1 1313:1 1354:1 1374:3
-1 349:1 559:1 681:1 699:1 994:1 1231:1 1240:1 1247:1 1313:1 1354:1 1374:2
-1 246:1 266:1 349:1 406:1 559:1 681:1 699:1 703:1 987:1 1061:1 1153:1 1231:1 1236:1 1240:1 1292:1 1313:1 1354:1 1374:1
-1 246:1 349:1 559:1 681:1 699:1 703:1 1231:1 1240:1 1292:1 1313:1 1354:1 1374:1
-1 246:1 349:1 559:1 681:1 907:1 1231:1 1292:1 1313:1 1354:1 1356:1 1374:2
-1 148:1 214:1 246:1 356:1 559:1 701:1 895:1 907:1 1146:1 1163:1 1241:1 1292:1 1313:1 1350:1 1356:1 1374:1
-1 131:1 229:1 246:1 460:1 541:1 559:1 576:1 681:1 907:1 978:1 981:1 1225:1 1231:1 1237:1 1239:1 1265:1 1280:1 1292:1 1300:1 1313:1 1325:1 1356:1 1374:1
-1 131:1 246:1 318:1 406:1 460:1 486:1 511:1 541:1 559:1 576:1 656:1 681:1 701:1 741:1 755:1 907:1 978:1 981:1 1225:1 1231:1 1236:1 1237:1 1239:1 1241:1 1258:1 1265:1 1266:1 1275:1 1286:1 1292:1 1300:1 1313:1 1325:1 1356:1 1373:1 1374:1
-1 131:1 246:1 406:1 460:1 541:1 559:1 681:1 701:1 755:1 907:1 978:1 981:1 1033:1 1225:1 1231:1 1236:1 1237:1 1239:1 1241:1 1265:1 1266:1 1292:1 1300:1 1313:1 1356:1 1374:1
-1 246:1 406:1 460:1 541:1 559:1 681:1 701:1 907:1 978:1 981:1 1152:1 1231:1 1236:1 1237:1 1239:1 1241:1 1265:1 1292:1 1300:1 1313:1 1334:1 1356:1 1374:1
-1 246:1 349:1 541:1 559:1 618:1 741:1 1258:1 1292:1 1300:1 1313:1 1354:1 1374:2
-1 131:1 246:2 406:2 541:1 559:4 681:2 701:1 907:1 1225:1 1231:2 1236:2 1241:1 1292:2 1300:1 1313:4 1356:1 1374:6
-1 349:1 466:1 559:1 781:1 804:1 1313:1 1354:1 1374:2
-1 349:2 466:1 497:1 559:1 681:1 781:1 804:1 1231:1 1313:1 1354:2 1374:2
-1 246:2 406:2 559:4 634:1 681:2 701:1 907:1 1231:2 1236:2 1241:1 1292:2 1313:4 1356:1 1357:1 1374:6
-1 131:1 246:2 406:2 559:5 681:2 701:1 907:1 978:1 1225:1 1231:2 1236:2 1237:1 1241:1 1292:2 1313:5 1356:1 1374:7
-1 1112:1 1310:1 1374:1
-1 294:1 455:1 470:1 550:1 559:1 870:1 955:1 1081:1 1151:1 1306:1 1313:1 1374:3
-1 246:1 267:1 349:1 445:1 541:1 559:1 642:1 681:1 701:1 760:1 945:1 953:1 981:1 1100:1 1231:1 1239:1 1241:1 1292:1 1300:1 1301:1 1313:1 1354:1 1374:2
-1 124:1 219:1 251:1 289:1 351:1 433:1 436:1 559:1 578:1 693:1 718:1 912:1 1047:1 1129:1 1313:1 1374:3
-1 382:1 1219:1 1374:3
-1 241:1 344:1 349:1 506:1 551:1 642:1 677:1 759:1 760:1 777:1 876:1 945:1 953:1 1100:1 1104:1 1354:1 1374:1
-1 241:1 349:1 445:1 506:1 532:1 551:1 642:1 677:1 703:1 759:1 760:1 777:1 831:1 869:1 876:1 945:1 953:1 1022:1 1084:1 1100:1 1104:1 1123:1 1354:1 1374:2
-1 142:1 144:1 241:1 246:1 274:1 298:1 344:1 349:1 385:1 403:1 406:1 416:1 461:1 462:1 495:1 506:1 512:1 541:1 555:1 567:1 607:1 639:1 642:1 667:1 670:1 677:1 698:1 703:1 729:1 730:1 745:1 755:1 759:1 760:1 777:1 792:1 811:1 831:1 854:1 876:1 907:1 945:1 953:1 958:1 981:1 1007:1 1022:1 1031:1 1068:1 1085:1 1100:1 1104:1 1131:1 1236:1 1239:1 1266:1 1292:1 1300:1 1328:1 1354:1 1356:1 1374:2
-1 1112:1 1310:1 1374:1
-1 559:1 780:1 1313:1 1374:2
-1 246:1 406:1 460:1 541:1 559:1 681:1 981:1 1207:1 1231:1 1236:1 1239:1 1265:1 1292:1 1300:1 1313:1 1369:1 1374:1
-1 246:1 559:1 681:1 1231:1 1292:1 1313:1 1374:2
-1 131:1 246:2 406:3 541:1 559:4 681:2 701:1 907:1 978:1 981:1 1225:1 1231:2 1236:3 1237:1 1239:1 1241:1 1292:2 1300:1 1313:4 1356:1 1374:6
-1 131:1 246:1 541:1 559:1 681:1 701:1 907:1 981:1 1225:1 1231:1 1239:1 1241:1 1292:1 1300:1 1313:1 1356:1 1374:3
-1 559:1 918:1 1313:1 1374:4
-1 131:1 559:1 606:1 656:1 681:1 978:1 1225:1 1231:1 1237:1 1313:1 1343:1 1373:1 1374:1
-1 131:1 559:1 606:1 656:1 681:1 755:1 978:1 1225:1 1231:1 1237:1 1266:1 1313:1 1343:1 1373:1 1374:1
-1 246:1 541:1 559:1 681:1 895:1 981:1 1231:1 1239:1 1292:1 1300:1 1313:1 1350:1 1374:1
-1 131:1 229:1 406:1 559:1 606:1 656:1 681:1 755:1 978:1 981:1 1225:1 1231:1 1236:1 1237:1 1239:1 1266:1 1280:1 1313:1 1343:1 1373:1 1374:1
-1 131:1 559:1 656:1 681:1 978:1 1225:1 1231:1 1237:1 1313:1 1373:1 1374:1
-1 131:1 559:1 606:1 681:1 978:1 1225:1 1231:1 1237:1 1313:1 1343:1 1374:1
-1 131:1 246:1 559:1 606:1 656:1 681:1 755:1 907:1 978:1 1225:1 1231:1 1237:1 1266:1 1292:1 1313:1 1343:1 1356:1 1373:1 1374:1
-1 1112:1 1310:1 1374:1
-1 131:1 559:1 606:1 656:1 681:1 978:1 1225:1 1231:1 1237:1 1313:1 1343:1 1373:1 1374:1
-1 128:1 131:1 406:1 559:1 634:1 681:1 755:1 978:1 981:1 1223:1 1225:1 1231:1 1236:1 1237:1 1239:1 1266:1 1313:1 1357:1 1374:1
-1 559:1 1313:1 1374:2
-1 131:1 246:1 266:1 349:1 406:1 460:1 541:1 559:1 681:1 699:1 701:1 809:1 907:1 981:1 1225:1 1231:1 1236:1 1239:1 1240:1 1241:1 1265:1 1292:1 1300:1 1313:1 1354:1 1356:1 1374:2
-1 131:1 559:1 606:1 656:1 681:1 978:1 1225:1 1231:1 1237:1 1313:1 1343:1 1373:1 1374:1
-1 131:1 246:1 559:1 606:1 656:1 681:1 755:1 907:1 978:1 1225:1 1231:1 1237:1 1266:1 1292:1 1313:1 1343:1 1356:1 1373:1 1374:1
-1 131:1 559:1 656:1 681:1 755:1 978:1 1225:1 1231:1 1237:1 1266:1 1313:1 1373:1 1374:1
-1 325:1 406:1 541:1 559:1 675:1 681:1 895:1 981:1 1231:1 1236:1 1239:1 1300:1 1313:1 1350:1 1374:1
-1 246:1 247:1 521:1 559:1 1292:1 1313:1 1374:1
-1 246:1 349:1 559:1 681:1 699:1 1231:1 1240:1 1292:1 1313:1 1354:1 1374:1
-1 247:1 559:1 681:1 981:1 1231:1 1239:1 1313:1 1374:2
-1 1374:1
-1 382:1 1219:1 1374:3
-1 162:1 227:1 246:1 334:1 349:1 406:1 407:1 460:1 508:1 541:1 559:1 570:1 581:1 634:1 681:1 699:1 701:1 895:1 907:1 981:1 1074:1 1231:1 1235:1 1236:1 1239:1 1240:1 1241:1 1244:1 1265:1 1279:1 1292:1 1300:1 1313:1 1346:1 1350:1 1354:1 1356:1 1357:1 1374:2
-1 382:1 1219:1 1374:4
-1 382:1 1219:1 1374:2
-1 559:1 1313:1 1374:2
-1 246:1 365:1 541:1 559:1 634:1 681:1 701:1 907:1 978:1 981:1 1231:1 1237:1 1239:1 1241:1 1292:1 1300:1 1313:1 1356:1 1357:1 1370:1 1374:2
-1 246:1 559:1 681:1 701:1 978:1 1231:1 1237:1 1241:1 1292:1 1313:1 1374:2
-1 246:1 365:1 541:1 559:1 634:1 681:1 701:1 907:1 978:1 981:1 1231:1 1237:1 1239:1 1241:1 1292:1 1300:1 1313:1 1356:1 1357:1 1370:1 1374:2
-1 246:1 541:1 559:1 681:1 701:1 907:1 978:1 981:1 1231:1 1237:1 1239:1 1241:1 1292:1 1300:1 1313:1 1356:1 1374:3
-1 246:1 279:1 349:1 486:1 559:1 681:1 1207:1 1231:1 1275:1 1292:1 1312:1 1313:1 1354:1 1369:1 1374:2
-1 246:1 300:1 349:1 378:1 406:1 460:1 541:1 559:1 681:1 699:1 701:1 741:1 925:1 981:1 985:1 1028:1 1139:1 1207:1 1231:1 1236:1 1239:1 1240:1 1241:1 1258:1 1265:1 1292:1 1300:1 1313:1 1329:1 1354:1 1369:1 1374:1
-1 246:1 349:1 460:1 559:1 681:1 699:1 981:1 1231:1 1239:1 1240:1 1265:1 1292:1 1313:1 1354:1 1374:1
-1 131:1 246:1 541:1 559:1 681:1 701:1 907:1 981:1 1225:1 1231:1 1239:1 1241:1 1292:1 1300:1 1313:1 1356:1 1374:3
-1 246:1 325:1 330:1 559:1 1292:1 1313:1 1374:2
-1 246:1 349:1 406:1 472:1 541:1 559:1 634:1 681:1 701:1 907:1 978:1 981:1 1231:1 1236:1 1237:1 1239:1 1241:1 1292:1 1300:1 1313:1 1354:1 1356:1 1357:1 1374:4
-1 455:1 550:1 559:1 634:1 955:1 1306:1 1313:1 1357:1 1374:2
-1 246:1 406:1 541:1 559:1 681:1 907:1 981:1 1207:1 1231:1 1236:1 1239:1 1292:1 1300:1 1313:1 1356:1 1369:1 1374:2
-1 247:1 559:1 1130:1 1313:1 1374:2
-1 214:1 559:1 972:1 1313:1 1374:3
-1 246:1 349:1 559:1 606:1 1292:1 1313:1 1343:1 1354:1 1374:2
-1 246:1 365:1 406:1 486:1 541:1 559:1 634:1 640:1 681:1 755:1 824:1 907:1 981:1 987:1 1231:1 1236:1 1239:1 1266:1 1275:1 1292:1 1295:1 1300:1 1313:1 1356:1 1357:1 1361:1 1370:1 1374:3 1376:74
-1 246:1 349:2 406:1 541:1 559:1 681:1 701:1 907:1 978:1 981:1 1231:1 1236:1 1237:1 1239:1 1241:1 1292:1 1300:1 1313:1 1354:2 1356:1 1374:3
-1 246:1 349:1 541:1 550:1 559:1 618:1 634:1 681:1 907:1 930:1 1187:1 1231:1 1292:1 1300:1 1306:1 1313:1 1354:1 1356:1 1357:1 1374:2
-1 246:1 349:1 559:1 681:1 699:1 1154:1 1155:1 1231:1 1240:1 1292:1 1313:1 1354:1 1374:2
-1 135:1 231:1 253:1 349:2 545:1 559:1 634:1 1313:1 1354:2 1357:1 1374:4
-1 121:1 131:1 246:1 406:1 541:1 559:1 681:1 701:1 907:1 981:1 1207:1 1217:1 1225:1 1231:1 1236:1 1239:1 1241:1 1292:1 1300:1 1313:1 1356:1 1369:1 1374:2
-1 559:1 780:1 1313:1 1374:2
-1 513:1 524:1 541:1 559:1 725:1 769:1 821:1 981:1 996:1 1138:1 1144:1 1150:1 1239:1 1300:1 1313:1 1374:1
-1 349:1 559:1 681:1 1231:1 1313:1 1354:1 1374:4
-1 246:2 406:1 559:4 681:3 701:1 1231:3 1236:1 1241:1 1292:2 1313:4 1374:5
-1 246:1 406:1 541:1 559:1 681:1 690:1 701:1 907:1 978:1 981:1 1152:1 1231:1 1236:1 1237:1 1239:1 1241:1 1292:1 1300:1 1313:1 1334:1 1356:1 1374:2
-1 314:1 349:1 396:1 541:1 559:1 821:1 996:1 1144:1 1203:1 1300:1 1313:1 1354:1 1374:5
-1 219:1 246:1 251:1 289:1 365:1 367:1 406:1 433:1 436:1 541:1 550:1 559:1 578:1 634:1 681:1 693:1 718:1 755:1 779:1 907:1 912:1 981:1 1047:1 1129:1 1231:1 1236:1 1239:1 1266:1 1292:1 1300:1 1306:1 1313:1 1356:1 1357:1 1370:1 1374:4
-1 246:1 559:1 634:1 780:1 1292:1 1313:1 1357:1 1374:2
-1 246:1 559:1 634:1 681:1 755:1 907:1 981:1 1231:1 1239:1 1266:1 1292:1 1313:1 1356:1 1357:1 1374:1
-1 349:1 396:1 466:1 559:1 781:1 1203:1 1313:1 1354:1 1374:8
-1 349:1 396:1 466:1 559:1 781:1 1203:1 1313:1 1354:1 1374:7
-1 349:1 396:1 466:1 559:1 781:1 1203:1 1313:1 1354:1 1374:7
-1 349:1 396:1 466:1 559:1 781:1 1203:1 1313:1 1354:1 1374:8
-1 246:1 349:1 559:1 601:1 1292:1 1313:1 1354:1 1374:2
-1 246:2 406:1 559:3 681:2 701:1 907:1 1231:2 1236:1 1241:1 1292:2 1313:3 1356:1 1374:6
-1 142:1 178:1 183:1 270:1 286:1 305:1 307:1 335:1 349:1 352:1 385:1 401:1 406:1 445:1 454:1 486:1 506:1 533:1 556:1 567:1 591:1 615:1 638:1 639:1 642:1 666:1 671:1 677:1 703:1 729:1 752:1 759:1 760:1 777:1 792:1 811:1 849:1 877:1 881:1 895:1 934:1 945:1 950:1 952:1 953:1 998:1 1025:1 1060:1 1100:1 1126:1 1204:1 1236:1 1275:1 1350:1 1354:1 1374:1
-1 131:1 246:1 541:1 559:1 681:1 701:1 907:1 981:1 1225:1 1231:1 1239:1 1241:1 1292:1 1300:1 1313:1 1356:1 1374:2
-1 246:1 349:1 559:1 699:1 1154:1 1155:1 1240:1 1292:1 1313:1 1354:1 1374:2
-1 246:1 349:1 559:1 1154:1 1155:1 1292:1 1313:1 1354:1 1374:1
-1 131:1 246:1 541:1 559:1 681:1 701:1 907:1 981:1 1225:1 1231:1 1239:1 1241:1 1292:1 1300:1 1313:1 1356:1 1374:3
-1 131:1 246:2 406:3 541:1 559:5 681:2 701:1 907:1 978:1 981:1 1225:1 1231:2 1236:3 1237:1 1239:1 1241:1 1292:2 1300:1 1313:5 1356:1 1374:6
-1 349:2 559:1 755:1 1266:1 1313:1 1354:2 1374:4 1376:352
-1 246:1 541:1 559:1 634:1 681:1 701:1 907:1 978:1 981:1 1231:1 1237:1 1239:1 1241:1 1292:1 1300:1 1313:1 1356:1 1357:1 1374:2
-1 382:1 1219:1 1374:4
-1 128:1 246:1 334:1 349:2 486:1 541:1 559:1 681:1 755:1 907:1 1223:1 1231:1 1266:1 1275:1 1292:1 1300:1 1313:1 1346:1 1354:2 1356:1 1374:4 1376:9616
-1 131:1 246:2 300:2 406:3 541:2 559:5 634:1 681:2 701:1 907:1 978:1 981:2 1092:1 1225:1 1231:2 1236:3 1237:1 1239:2 1241:1 1292:2 1299:1 1300:2 1313:5 1329:2 1356:1 1357:1 1374:6
-1 349:2 559:1 755:1 1183:1 1266:1 1313:1 1354:2 1374:4 1376:354
-1 349:2 559:1 755:1 1266:1 1313:1 1354:2 1374:4 1376:419
-1 128:1 214:1 246:1 365:1 406:1 460:1 541:1 559:1 570:1 576:1 621:1 634:1 681:1 683:1 701:1 706:1 755:1 837:1 895:1 897:1 907:1 978:1 981:1 1156:1 1205:1 1207:1 1223:1 1231:1 1236:1 1237:1 1239:1 1241:1 1265:1 1266:1 1292:1 1300:1 1302:1 1313:1 1325:1 1348:1 1350:1 1356:1 1357:1 1369:1 1370:1 1374:1 1376:24
-1 382:1 1219:1 1374:3
-1 382:1 1219:1 1374:2
-1 131:1 246:1 406:1 541:1 559:1 681:1 701:1 907:1 978:1 981:1 1225:1 1231:1 1236:1 1237:1 1239:1 1241:1 1292:1 1300:1 1313:1 1356:1 1374:1
-1 131:1 246:2 406:2 559:4 681:2 701:1 907:1 1210:1 1225:1 1231:2 1236:2 1241:1 1292:2 1313:4 1356:1 1374:6
-1 246:1 541:1 559:1 681:1 1231:1 1292:1 1300:1 1313:1 1374:2
-1 349:1 364:1 559:1 599:1 681:1 699:1 755:1 1231:1 1240:1 1266:1 1313:1 1354:1 1374:3
-1 246:1 349:1 364:1 541:1 559:1 681:1 1231:1 1292:1 1300:1 1313:1 1354:1 1374:2
-1 227:1 246:1 349:1 358:1 406:1 460:1 486:1 541:1 559:1 681:1 703:1 787:1 1231:1 1236:1 1265:1 1275:1 1279:1 1292:1 1300:1 1313:1 1354:1 1374:2
-1 246:1 349:1 507:1 559:1 681:1 699:1 1207:1 1231:1 1240:1 1283:1 1292:1 1313:1 1354:1 1369:1 1374:2
-1 559:1 1313:1 1374:1
-1 559:1 755:1 1266:1 1313:1 1374:1
-1 559:1 681:1 780:1 1231:1 1313:1 1374:2
-1 1112:1 1310:1 1374:1
-1 349:1 559:1 1313:1 1354:1 1374:3
-1 227:1 246:1 349:1 486:1 541:1 559:1 567:1 639:1 656:1 667:1 681:1 699:1 741:1 907:1 981:1 1155:1 1207:1 1231:1 1239:1 1240:1 1258:1 1275:1 1279:1 1292:1 1300:1 1313:1 1354:1 1356:1 1369:1 1373:1 1374:1
-1 227:1 246:1 349:1 559:1 681:1 699:1 1155:1 1231:1 1240:1 1279:1 1292:1 1313:1 1354:1 1374:2
-1 246:1 349:1 406:1 559:1 681:1 699:1 703:1 755:1 981:1 1155:1 1157:1 1231:1 1236:1 1239:1 1240:1 1266:1 1292:1 1313:1 1354:1 1374:2
-1 246:1 349:1 406:1 541:1 559:1 681:1 699:1 703:1 981:1 1084:1 1231:1 1236:1 1239:1 1240:1 1292:1 1300:1 1313:1 1354:1 1374:2
-1 349:1 406:1 541:1 559:1 681:1 699:1 981:1 1084:1 1155:1 1207:1 1231:1 1236:1 1239:1 1240:1 1300:1 1313:1 1354:1 1369:1 1374:2
-1 246:1 349:1 460:1 486:1 559:1 681:1 1231:1 1265:1 1275:1 1292:1 1313:1 1354:1 1374:1
-1 188:1 216:1 237:1 241:1 280:1 307:1 445:1 489:1 506:1 642:1 657:1 677:1 693:1 699:1 730:1 759:1 760:1 777:1 831:1 834:1 849:1 876:1 881:1 901:1 945:1 953:1 965:1 1022:1 1100:1 1111:1 1123:1 1131:1 1240:1 1374:3
-1 246:1 319:1 349:1 406:1 559:1 642:1 681:1 699:1 703:1 760:1 876:1 945:1 953:1 1100:1 1231:1 1236:1 1240:1 1292:1 1313:1 1354:1 1374:1
-1 559:1 634:1 1313:1 1357:1 1374:2
-1 227:1 246:1 305:1 349:1 559:1 667:1 681:1 1231:1 1279:1 1292:1 1313:1 1354:1 1374:2
-1 131:1 246:1 406:1 486:1 541:1 559:1 681:1 701:1 895:1 907:1 981:1 1207:1 1225:1 1231:1 1236:1 1239:1 1241:1 1275:1 1292:1 1300:1 1313:1 1350:1 1356:1 1369:1 1374:1
-1 559:1 918:1 1313:1 1374:2
-1 246:1 247:1 395:1 541:1 559:1 681:1 1231:1 1292:1 1300:1 1313:1 1374:1
-1 382:1 1219:1 1374:4
-1 246:1 349:1 559:1 681:1 699:1 1062:1 1207:1 1231:1 1240:1 1292:1 1313:1 1354:1 1369:1 1374:1
-1 246:1 559:1 681:1 701:1 1231:1 1241:1 1292:1 1313:1 1374:2
-1 246:1 406:1 460:1 541:1 559:1 640:1 656:1 681:1 701:1 726:1 907:1 978:1 981:1 1207:1 1231:1 1236:1 1237:1 1239:1 1241:1 1265:1 1292:1 1300:1 1313:1 1356:1 1361:1 1369:1 1373:1 1374:2
-1 246:1 406:1 541:1 559:1 640:1 656:1 681:1 701:1 907:1 978:1 981:1 1207:1 1231:1 1236:1 1237:1 1239:1 1241:1 1292:1 1300:1 1313:1 1356:1 1361:1 1369:1 1373:1 1374:2
-1 246:1 349:1 378:1 406:1 417:1 445:1 460:1 506:1 541:1 614:1 642:1 677:1 699:1 701:1 703:1 759:1 760:1 766:1 834:1 869:1 881:1 945:1 953:1 965:1 1022:1 1054:1 1062:1 1068:1 1100:1 1104:1 1131:1 1236:1 1240:1 1241:1 1265:1 1292:1 1300:1 1354:1 1374:3
-1 241:1 349:1 439:1 506:1 512:1 559:1 567:1 639:1 642:1 677:1 703:1 729:1 760:1 777:1 811:1 876:1 945:1 953:1 981:1 1100:1 1104:1 1123:1 1159:1 1239:1 1313:1 1354:1 1374:2
-1 131:1 182:1 214:1 246:1 393:1 406:1 460:1 541:1 559:1 621:1 634:1 681:1 701:1 837:1 895:1 897:1 907:1 981:1 1043:1 1225:1 1231:1 1236:1 1239:1 1241:1 1265:1 1292:1 1300:1 1302:1 1313:1 1348:1 1350:1 1356:1 1357:1 1374:2
-1 246:1 559:1 956:1 978:1 1237:1 1292:1 1313:1 1374:4
-1 382:1 1219:1 1374:3
-1 239:1 349:1 559:1 994:1 1247:1 1313:1 1354:1 1374:2
-1 131:1 246:1 298:1 349:1 406:1 460:1 511:1 559:1 681:1 699:1 701:1 741:1 810:1 864:1 981:1 1062:1 1134:1 1207:1 1225:1 1231:1 1236:1 1239:1 1240:1 1241:1 1258:1 1265:1 1286:1 1291:1 1292:1 1313:1 1328:1 1354:1 1369:1 1374:1 1376:66
-1 382:1 1219:1 1374:3
-1 246:2 406:1 559:3 681:1 1231:1 1236:1 1292:2 1313:3 1374:6
-1 382:1 1219:1 1374:2
-1 131:1 246:1 559:1 681:1 907:1 978:1 1225:1 1231:1 1237:1 1292:1 1313:1 1356:1 1374:1
-1 204:1 246:1 349:1 460:1 541:1 559:1 681:1 699:1 701:1 810:1 907:1 978:1 981:1 994:1 1084:1 1158:1 1181:1 1231:1 1237:1 1239:1 1240:1 1241:1 1247:1 1265:1 1291:1 1292:1 1300:1 1313:1 1338:1 1349:1 1354:1 1356:1 1374:2
-1 349:1 541:1 559:1 831:1 1300:1 1313:1 1354:1 1374:2
-1 241:1 349:1 445:1 506:1 642:1 677:1 699:1 711:1 755:1 759:1 760:1 811:1 823:1 849:1 869:1 876:1 881:1 941:1 945:1 953:1 1022:1 1035:1 1100:1 1104:1 1111:1 1211:1 1240:1 1266:1 1354:1 1374:2
-1 246:2 406:1 559:2 681:2 701:1 1231:2 1236:1 1241:1 1292:2 1313:2 1374:7
-1 246:1 559:1 681:1 907:1 978:1 1231:1 1237:1 1292:1 1313:1 1356:1 1374:1
-1 349:1 559:1 681:1 699:1 1231:1 1240:1 1313:1 1354:1 1374:1
-1 246:1 559:1 907:1 1292:1 1313:1 1356:1 1374:1
-1 208:1 241:1 349:1 642:1 677:1 760:1 876:1 945:1 953:1 1100:1 1104:1 1354:1 1374:1
-1 192:1 246:1 308:1 349:1 559:1 981:1 1239:1 1292:1 1313:1 1335:1 1354:1 1374:2
-1 246:2 406:2 541:1 559:4 681:2 701:1 907:1 978:1 1231:2 1236:2 1237:1 1241:1 1292:2 1300:1 1313:4 1356:1 1374:6
-1 246:1 559:1 681:1 907:1 978:1 1231:1 1237:1 1292:1 1313:1 1356:1 1374:1
-1 559:1 755:1 891:1 1266:1 1313:1 1374:2
-1 382:1 1219:1 1374:2
-1 382:1 1219:1 1374:3
-1 559:1 891:1 1313:1 1374:3
-1 133:1 349:1 1354:1 1374:2
-1 122:1 241:1 246:1 279:1 349:1 486:1 541:1 559:1 642:1 647:1 656:1 677:1 681:1 699:1 701:1 703:1 760:1 911:1 945:1 953:1 978:1 1100:1 1207:1 1231:1 1237:1 1240:1 1241:1 1275:1 1292:1 1300:1 1312:1 1313:1 1354:1 1360:1 1369:1 1373:1 1374:1
-1 246:1 541:1 559:1 755:1 1266:1 1292:1 1300:1 1313:1 1374:2
-1 229:1 241:1 349:1 420:1 445:1 489:1 506:1 642:1 677:1 703:1 759:1 760:1 786:1 811:1 869:1 877:1 941:1 945:1 953:1 1022:1 1100:1 1104:1 1111:1 1207:1 1280:1 1354:1 1369:1 1374:2
-1 131:1 220:1 246:1 349:1 406:1 559:1 681:1 699:1 703:1 1062:1 1225:1 1231:1 1236:1 1240:1 1292:1 1313:1 1354:1 1374:1
-1 241:1 349:1 445:1 506:1 512:1 551:1 567:1 639:1 642:1 677:1 703:1 710:1 729:1 730:1 760:1 777:1 811:1 876:1 945:1 953:1 1022:1 1084:1 1100:1 1104:1 1123:1 1354:1 1374:2
-1 241:1 349:1 506:1 512:1 551:1 639:1 642:1 677:1 703:1 729:1 760:1 777:1 876:1 945:1 953:1 1068:1 1100:1 1104:1 1159:1 1354:1 1374:1 1376:2
-1 382:1 1219:1 1374:3
-1 131:1 246:2 406:3 541:1 559:5 681:2 701:1 907:1 978:1 981:1 1225:1 1231:2 1236:3 1237:1 1239:1 1241:1 1292:2 1300:1 1313:5 1356:1 1374:6
-1 131:1 246:2 406:3 559:5 681:2 701:1 907:1 978:1 981:1 1225:1 1231:2 1236:3 1237:1 1239:1 1241:1 1292:2 1313:5 1356:1 1374:6
-1 349:1 506:1 642:1 677:1 760:1 777:1 945:1 953:1 1100:1 1354:1 1374:2
-1 246:1 349:2 405:1 550:1 559:1 907:1 955:1 1292:1 1306:1 1313:1 1354:2 1356:1 1374:2
-1 349:1 489:1 559:1 642:1 677:1 681:1 699:1 748:1 760:1 924:1 945:1 953:1 1100:1 1231:1 1240:1 1313:1 1354:1 1374:3
-1 349:1 559:1 699:1 994:1 1240:1 1247:1 1313:1 1354:1 1374:2
-1 559:1 755:1 1266:1 1313:1 1374:2
-1 246:1 559:1 978:1 1237:1 1292:1 1313:1 1374:4
-1 382:1 1219:1 1374:3
-1 198:1 246:2 406:1 559:3 681:1 741:1 1231:1 1236:1 1258:1 1292:2 1313:3 1374:6
-1 349:1 541:1 559:1 1300:1 1313:1 1354:1 1374:1
-1 246:1 349:1 559:1 601:1 1292:1 1313:1 1354:1 1374:2
-1 349:1 541:1 559:1 703:1 1300:1 1313:1 1354:1 1374:3
-1 131:1 246:1 541:1 559:1 681:1 701:1 907:1 981:1 1225:1 1231:1 1239:1 1241:1 1292:1 1300:1 1313:1 1356:1 1374:2
-1 246:1 349:1 559:1 681:1 1231:1 1292:1 1313:1 1354:1 1374:2
-1 131:1 246:1 541:1 559:1 681:1 701:1 907:1 981:1 1225:1 1231:1 1239:1 1241:1 1292:1 1300:1 1313:1 1356:1 1374:3
-1 246:1 541:1 559:1 907:1 981:1 1239:1 1292:1 1300:1 1313:1 1356:1 1374:1
-1 246:1 349:1 559:1 843:1 1292:1 1313:1 1354:1 1374:2
-1 349:1 396:1 559:1 821:1 996:1 1144:1 1203:1 1313:1 1354:1 1374:6
-1 349:2 559:1 681:1 1231:1 1313:1 1354:2 1374:5 1376:275
-1 349:2 559:1 681:1 755:1 1231:1 1266:1 1313:1 1354:2 1374:5 1376:424
-1 349:2 559:1 681:1 755:1 1231:1 1266:1 1313:1 1354:2 1374:5 1376:305
-1 237:1 241:1 349:1 360:1 417:1 445:1 486:1 506:1 525:1 642:1 674:1 677:1 703:1 734:1 759:1 760:1 869:1 877:1 945:1 953:1 1022:1 1099:1 1100:1 1131:1 1275:1 1294:1 1354:1 1374:2
-1 237:1 241:1 349:1 360:1 417:1 445:1 486:1 506:1 525:1 642:1 674:1 677:1 703:1 734:1 759:1 760:1 869:1 877:1 945:1 953:1 1022:1 1099:1 1100:1 1131:1 1275:1 1294:1 1354:1 1374:2
-1 237:1 241:1 349:1 360:1 445:1 506:1 642:1 677:1 703:1 734:1 760:1 766:1 881:1 945:1 953:1 1099:1 1100:1 1131:1 1354:1 1374:2
-1 237:1 241:1 349:1 360:1 445:1 506:1 642:1 677:1 703:1 734:1 760:1 766:1 881:1 945:1 953:1 1099:1 1100:1 1131:1 1354:1 1374:2
-1 349:1 559:1 681:1 699:1 1231:1 1240:1 1313:1 1354:1 1374:2
-1 246:1 406:1 460:1 541:1 559:1 621:1 681:1 701:1 741:1 907:1 978:1 981:1 987:1 1231:1 1236:1 1237:1 1239:1 1241:1 1258:1 1265:1 1292:1 1300:1 1313:1 1348:1 1356:1 1374:1
-1 559:1 1313:1 1374:1
-1 559:1 1313:1 1374:1
-1 559:1 1313:1 1374:1
-1 325:1 559:1 776:1 1313:1 1374:2
-1 349:1 559:1 1101:1 1313:1 1354:1 1374:4
-1 188:1 241:1 246:1 298:1 304:1 406:1 445:1 559:1 582:1 642:1 665:1 681:1 693:1 699:1 703:1 741:1 760:1 766:1 876:1 877:1 881:1 901:1 945:1 953:1 1022:1 1084:1 1100:1 1131:1 1207:1 1231:1 1236:1 1240:1 1258:1 1292:1 1313:1 1328:1 1331:1 1369:1 1374:1
-1 559:1 755:1 887:1 980:1 1266:1 1313:1 1374:1
-1 1112:1 1310:1 1374:1
-1 246:1 282:1 349:1 559:1 681:1 699:1 755:1 1231:1 1240:1 1266:1 1292:1 1313:1 1354:1 1374:1
-1 559:1 1313:1 1374:3
-1 131:1 246:1 406:1 541:1 559:1 656:1 681:1 701:1 907:1 978:1 981:1 1225:1 1231:1 1236:1 1237:1 1239:1 1241:1 1292:1 1300:1 1313:1 1356:1 1373:1 1374:1
-1 349:1 559:1 1313:1 1354:1 1374:6
-1 559:1 1313:1 1374:3
-1 128:1 241:1 349:1 445:1 642:1 677:1 699:1 755:1 760:1 811:1 881:1 945:1 953:1 1082:1 1100:1 1104:1 1111:1 1223:1 1240:1 1266:1 1354:1 1374:2
-1 246:1 559:1 701:1 907:1 1241:1 1292:1 1313:1 1356:1 1374:3
-1 246:1 557:1 559:1 681:1 755:1 1011:1 1183:1 1231:1 1266:1 1292:1 1313:1 1374:1
-1 318:1 349:1 486:1 511:1 559:1 681:1 699:1 1157:1 1207:1 1231:1 1240:1 1275:1 1286:1 1313:1 1354:1 1369:1 1374:1
-1 349:2 466:1 497:1 559:1 781:1 841:1 1313:1 1354:2 1374:2
-1 188:1 237:1 241:1 349:1 406:1 445:1 506:1 512:1 642:1 677:1 703:1 759:1 760:1 811:1 823:1 876:1 945:1 953:1 1035:1 1100:1 1104:1 1123:1 1236:1 1354:1 1374:3
-1 382:1 1219:1 1374:3
-1 246:1 559:1 681:1 780:1 1231:1 1292:1 1313:1 1374:2
-1 246:1 349:1 559:1 701:1 1241:1 1292:1 1313:1 1354:1 1374:2
-1 246:1 333:1 349:1 541:1 559:1 681:1 699:1 701:1 907:1 975:1 981:1 1231:1 1239:1 1240:1 1241:1 1292:1 1300:1 1313:1 1354:1 1356:1 1374:3
-1 559:1 918:2 1313:1 1374:2
-1 131:1 246:1 406:1 460:1 496:1 541:1 559:1 681:1 741:1 907:1 978:1 981:1 1152:1 1225:1 1231:1 1236:1 1237:1 1239:1 1258:1 1265:1 1292:1 1300:1 1313:1 1334:1 1356:1 1374:1
-1 262:13 349:2 559:1 755:1 1266:1 1313:1 1354:2 1374:5
-1 131:1 246:1 559:1 681:1 907:1 978:1 1225:1 1231:1 1237:1 1292:1 1313:1 1356:1 1374:1
-1 246:1 349:1 460:1 486:1 525:1 541:1 559:1 681:1 741:1 837:1 907:1 978:1 981:1 1231:1 1237:1 1239:1 1258:1 1265:1 1275:1 1292:1 1294:1 1300:1 1302:1 1313:1 1354:1 1356:1 1374:4
-1 246:1 318:1 349:1 358:1 486:1 541:1 559:1 681:1 1157:1 1231:1 1275:1 1292:1 1300:1 1313:1 1354:1 1374:2
-1 382:1 1219:1 1374:3
-1 246:1 349:1 460:1 541:1 559:1 642:1 677:1 699:1 760:1 811:1 869:1 945:1 953:1 1022:1 1035:1 1100:1 1240:1 1265:1 1292:1 1300:1 1313:1 1354:1 1374:2
-1 241:1 246:1 349:1 417:1 460:1 541:1 559:1 567:1 639:1 642:1 677:1 681:1 699:1 701:1 703:1 759:1 760:1 777:1 811:1 876:1 907:1 945:1 953:1 981:1 1022:1 1035:1 1054:1 1084:1 1100:1 1104:1 1231:1 1239:1 1240:1 1241:1 1265:1 1292:1 1300:1 1313:1 1354:1 1356:1 1374:1
-1 246:1 349:1 559:1 659:1 907:1 978:1 1237:1 1292:1 1313:1 1354:1 1356:1 1374:2
-1 246:1 541:1 559:3 681:1 1231:1 1292:1 1300:1 1313:3 1374:6
-1 188:1 241:1 307:1 506:1 567:1 639:1 642:1 677:1 693:1 703:1 729:1 730:1 759:1 760:1 876:1 881:1 901:1 945:1 953:1 1045:1 1050:1 1100:1 1207:1 1369:1 1374:3
-1 246:1 349:1 559:1 1155:1 1292:1 1313:1 1354:1 1374:2
-1 509:1 559:1 780:1 1313:1 1374:1
-1 559:1 1313:1 1374:3
-1 382:1 1219:1 1374:3
-1 382:1 1219:1 1374:3
-1 349:1 559:1 1313:1 1354:1 1374:4
-1 320:1 349:1 1354:1 1374:2
-1 349:2 466:1 497:1 550:1 559:1 564:1 598:1 781:1 1306:1 1313:1 1354:2 1374:6
-1 349:1 559:1 681:1 1231:1 1313:1 1354:1 1374:2
-1 349:1 838:1 845:1 1354:1 1374:2
-1 382:1 1219:1 1374:4
-1 131:1 246:2 349:1 365:1 393:1 406:3 541:2 559:5 634:1 656:1 681:2 701:1 837:1 907:2 978:1 981:2 1225:1 1231:2 1236:3 1237:1 1239:2 1241:1 1292:2 1300:2 1302:1 1313:5 1354:1 1356:2 1357:1 1370:1 1373:1 1374:6
-1 382:1 1219:1 1374:3
-1 382:1 1219:1 1374:3
-1 382:1 1219:1 1374:3
-1 382:1 1219:1 1374:3
-1 382:1 1219:1 1374:2
-1 382:1 1219:1 1374:2
-1 246:2 406:1 559:2 681:2 701:1 1231:2 1236:1 1241:1 1292:2 1313:2 1374:6
-1 382:1 1219:1 1374:2
-1 382:1 1219:1 1374:4
-1 382:1 1219:1 1374:2
-1 131:1 246:1 406:1 541:1 559:1 681:1 701:1 907:1 981:1 1225:1 1231:1 1236:1 1239:1 1241:1 1292:1 1300:1 1313:1 1356:1 1374:5
-1 131:1 246:1 406:1 541:1 559:1 681:1 701:1 907:1 981:1 1225:1 1231:1 1236:1 1239:1 1241:1 1292:1 1300:1 1313:1 1356:1 1374:5
-1 246:1 559:1 681:1 794:1 907:1 980:1 1069:1 1191:1 1231:1 1292:1 1313:1 1356:1 1374:2
-1 214:1 230:1 246:1 406:1 559:1 738:1 981:1 1015:1 1236:1 1239:1 1292:1 1313:1 1374:1 1376:1
-1 294:1 325:1 530:1 550:1 559:1 675:1 863:1 955:1 1133:1 1149:1 1151:1 1195:1 1306:1 1313:1 1374:1
-1 219:1 246:1 251:1 289:1 436:1 460:1 541:1 559:1 576:1 578:1 681:1 693:1 718:1 765:1 830:1 912:1 1047:1 1231:1 1265:1 1292:1 1300:1 1313:1 1325:1 1374:3
-1 246:1 541:1 559:1 681:1 701:1 907:1 978:1 980:1 981:1 1108:1 1231:1 1237:1 1239:1 1241:1 1292:1 1300:1 1313:1 1356:1 1374:1
-1 241:1 349:1 406:1 420:1 445:1 489:1 506:1 535:1 642:1 677:1 699:1 703:1 711:1 759:1 760:1 811:1 823:1 869:1 881:1 927:1 945:1 953:1 1022:1 1035:1 1068:1 1100:1 1104:1 1111:1 1123:1 1236:1 1240:1 1354:1 1374:3
-1 246:1 541:1 559:1 621:1 681:1 701:1 810:1 907:1 978:1 1231:1 1237:1 1241:1 1291:1 1292:1 1300:1 1313:1 1348:1 1356:1 1374:3 1376:123
-1 246:1 307:1 349:1 406:1 445:1 506:1 559:1 642:1 657:1 677:1 699:1 703:1 728:1 730:1 742:1 760:1 811:1 834:1 881:1 945:1 953:1 981:1 1022:1 1100:1 1104:1 1169:1 1236:1 1239:1 1240:1 1292:1 1313:1 1354:1 1374:1
-1 131:1 232:1 246:3 355:1 406:3 459:1 541:2 559:4 681:2 701:1 895:1 905:1 907:1 981:1 1115:1 1225:1 1231:2 1236:3 1239:1 1241:1 1292:3 1300:2 1313:4 1350:1 1356:1 1374:4 1376:1
-1 131:1 246:2 406:3 559:4 681:2 701:1 907:1 981:1 1225:1 1231:2 1236:3 1239:1 1241:1 1292:2 1313:4 1356:1 1374:6
-1 131:1 246:2 406:3 541:1 559:4 634:1 681:2 701:1 780:1 907:1 981:1 1225:1 1231:2 1236:3 1239:1 1241:1 1292:2 1300:1 1313:4 1356:1 1357:1 1374:6
-1 246:1 329:1 343:1 541:1 559:1 681:1 736:1 895:1 907:1 1019:1 1176:1 1231:1 1292:1 1300:1 1313:1 1350:1 1356:1 1374:4
-1 131:1 246:2 406:3 559:4 634:1 681:2 701:1 907:1 978:1 981:1 1225:1 1231:2 1236:3 1237:1 1239:1 1241:1 1292:2 1313:4 1356:1 1357:1 1374:6
-1 382:1 1219:1 1374:2
-1 246:1 349:1 541:1 559:1 574:1 681:1 699:1 1231:1 1240:1 1292:1 1300:1 1313:1 1323:1 1354:1 1374:2
-1 246:1 349:1 406:1 559:1 681:1 703:1 1207:1 1231:1 1236:1 1292:1 1313:1 1354:1 1369:1 1374:1
-1 188:1 220:1 227:1 241:1 246:1 349:1 378:1 406:1 417:1 420:1 445:1 460:1 486:1 506:1 512:1 535:1 541:1 614:1 638:1 642:1 656:1 677:1 699:1 701:1 703:1 730:1 748:1 759:1 760:1 766:1 810:1 834:1 849:1 869:1 877:1 881:1 907:1 927:1 945:1 953:1 965:1 975:1 981:1 1022:1 1054:1 1062:1 1068:1 1100:1 1104:1 1131:1 1134:1 1157:1 1236:1 1239:1 1240:1 1241:1 1265:1 1275:1 1279:1 1291:1 1292:1 1300:1 1354:1 1356:1 1373:1 1374:1
-1 246:1 559:1 907:1 956:1 1292:1 1313:1 1356:1 1374:3
-1 131:1 246:1 559:1 681:1 907:1 978:1 1225:1 1231:1 1237:1 1292:1 1313:1 1356:1 1374:1
-1 349:1 559:1 681:1 699:1 981:1 1231:1 1239:1 1240:1 1313:1 1354:1 1374:1
-1 559:1 669:1 980:1 1313:1 1374:1
-1 559:1 980:1 1017:1 1313:1 1374:1
-1 246:2 406:1 559:2 681:2 701:1 1231:2 1236:1 1241:1 1292:2 1313:2 1374:7
-1 559:1 918:1 1313:1 1374:3
-1 237:1 241:1 307:1 349:1 406:1 420:1 445:1 506:1 535:1 642:1 677:1 703:1 730:1 759:1 760:1 777:1 811:1 823:1 849:1 869:1 876:1 881:1 908:1 927:1 945:1 953:1 1022:1 1035:1 1100:1 1103:1 1104:1 1123:1 1132:1 1236:1 1354:1 1374:3
-1 142:1 237:1 241:1 307:1 349:1 403:1 406:1 417:1 420:1 445:1 457:1 506:1 512:1 535:1 642:1 657:1 677:1 687:1 699:1 703:1 711:1 728:1 730:1 744:1 745:1 759:1 760:1 777:1 792:1 811:1 823:1 831:1 834:1 869:1 876:1 877:1 908:1 927:1 941:1 945:1 953:1 965:1 1022:1 1035:1 1060:1 1068:1 1100:1 1104:1 1123:1 1236:1 1240:1 1354:1 1374:1
-1 382:1 1219:1 1374:5
-1 237:1 241:1 307:1 349:1 406:1 420:1 445:1 457:1 506:1 535:1 642:1 677:1 687:1 703:1 730:1 759:1 760:1 766:1 777:1 811:1 823:1 849:1 869:1 876:1 877:1 881:1 908:1 927:1 945:1 953:1 1022:1 1034:1 1035:1 1068:1 1100:1 1103:1 1104:1 1123:1 1132:1 1236:1 1354:1 1374:3
-1 125:1 142:1 193:1 241:1 266:1 322:1 349:1 385:1 506:1 512:1 534:1 535:1 551:1 567:1 639:1 642:1 677:1 699:1 703:1 729:1 745:1 747:1 759:1 760:1 777:1 792:1 811:1 869:1 876:1 877:1 945:1 952:1 953:1 987:1 1016:1 1022:1 1045:1 1068:1 1100:1 1104:1 1123:1 1159:1 1207:1 1240:1 1354:1 1369:1 1374:2 1376:2
-1 241:1 307:1 349:1 445:1 506:1 538:1 642:1 677:1 760:1 831:1 869:1 881:1 945:1 953:1 1022:1 1100:1 1104:1 1111:1 1123:1 1354:1 1374:3
-1 246:1 267:1 349:1 559:1 681:1 699:1 858:1 1231:1 1240:1 1292:1 1301:1 1313:1 1354:1 1374:2
-1 241:1 349:1 506:1 512:1 559:1 639:1 642:1 677:1 729:1 760:1 811:1 876:1 945:1 953:1 981:1 1100:1 1104:1 1159:1 1239:1 1313:1 1354:1 1374:1 1376:2
-1 382:1 1219:1 1374:2
-1 246:2 406:2 559:4 681:3 701:1 1231:3 1236:2 1241:1 1292:2 1313:4 1374:6
-1 308:1 349:2 559:1 791:1 1313:1 1335:1 1354:2 1374:2
-1 246:1 343:1 350:1 559:1 1019:1 1292:1 1313:1 1374:2
-1 559:1 1172:1 1313:1 1374:3
-1 246:1 276:1 559:1 681:1 1231:1 1292:1 1313:1 1374:3
-1 246:1 349:2 365:1 406:1 541:1 559:1 634:1 681:1 755:1 907:1 978:1 981:1 1231:1 1236:1 1237:1 1239:1 1266:1 1292:1 1300:1 1313:1 1354:2 1356:1 1357:1 1370:1 1374:2 1376:2
-1 131:1 246:3 349:1 406:3 541:1 559:4 681:2 701:1 907:1 978:1 981:1 1225:1 1231:2 1236:3 1237:1 1239:1 1241:1 1292:3 1300:1 1313:4 1354:1 1356:1 1374:5
-1 559:1 755:1 1266:1 1313:1 1374:2
-1 246:1 267:1 298:1 406:1 486:1 511:1 559:1 665:1 681:1 693:1 901:1 981:1 1231:1 1236:1 1239:1 1275:1 1286:1 1292:1 1301:1 1313:1 1328:1 1374:1
-1 266:1 298:1 486:1 511:1 541:1 559:1 665:1 681:1 693:1 699:1 901:1 912:1 981:1 1207:1 1231:1 1239:1 1240:1 1275:1 1286:1 1300:1 1313:1 1328:1 1369:1 1374:1
-1 142:1 216:1 241:1 349:1 417:1 445:1 489:1 506:1 567:1 639:1 642:1 657:1 677:1 699:1 703:1 728:1 729:1 759:1 760:1 766:1 777:1 811:1 831:1 834:1 876:1 881:1 945:1 953:1 965:1 1022:1 1060:1 1068:1 1100:1 1104:1 1118:1 1240:1 1354:1 1374:1
-1 246:1 406:1 559:1 1236:1 1292:1 1313:1 1374:4
-1 382:1 1219:1 1374:3
-1 382:1 1219:1 1374:2
-1 382:1 1219:1 1374:3
-1 382:1 1219:1 1374:2
-1 382:1 1219:1 1374:3
-1 294:1 325:1 530:1 550:1 559:1 675:1 863:1 955:1 1133:1 1149:1 1151:1 1195:1 1306:1 1313:1 1374:1
-1 214:1 559:1 1313:1 1374:2
-1 382:1 1219:1 1374:3
-1 325:1 559:1 776:1 1313:1 1374:2
-1 131:1 246:1 406:1 559:1 681:1 785:1 981:1 1225:1 1231:1 1236:1 1239:1 1292:1 1313:1 1374:1
-1 142:1 180:1 241:1 307:1 417:1 445:1 489:1 506:1 595:1 642:1 677:1 695:1 699:1 730:1 748:1 759:1 760:1 777:1 811:1 868:1 869:1 881:1 945:1 953:1 1022:1 1100:1 1104:1 1111:1 1123:1 1207:1 1240:1 1369:1 1374:1
-1 246:1 349:1 406:1 460:1 495:1 559:1 681:1 842:1 981:1 1231:1 1236:1 1239:1 1265:1 1292:1 1313:1 1354:1 1374:2
-1 246:1 406:1 460:1 559:1 606:1 656:1 681:1 701:1 907:1 1231:1 1236:1 1241:1 1265:1 1292:1 1313:1 1343:1 1356:1 1373:1 1374:2
-1 246:1 349:1 559:1 907:1 1292:1 1313:1 1354:1 1356:1 1374:2
-1 246:1 349:1 406:1 407:1 460:1 495:1 541:1 559:1 681:1 699:1 796:1 810:1 981:1 1231:1 1235:1 1236:1 1239:1 1240:1 1265:1 1291:1 1292:1 1300:1 1313:1 1354:1 1374:2
-1 246:1 406:1 559:1 681:1 690:1 701:1 907:1 978:1 981:1 1152:1 1231:1 1236:1 1237:1 1239:1 1241:1 1292:1 1313:1 1334:1 1356:1 1374:2
-1 246:1 349:2 559:1 1292:1 1313:1 1354:2 1374:3
-1 117:1 241:1 349:1 358:1 445:1 460:1 479:1 559:1 596:1 642:1 677:1 699:1 760:1 811:1 869:1 945:1 953:1 1022:1 1100:1 1104:1 1111:1 1240:1 1265:1 1272:1 1313:1 1337:1 1354:1 1374:2
-1 142:1 174:1 216:1 241:1 274:1 307:1 349:1 385:1 403:1 420:1 445:1 469:1 489:1 506:1 512:1 567:1 639:1 642:1 677:1 687:1 699:1 703:1 711:1 729:1 730:1 745:1 759:1 760:1 766:1 777:1 792:1 811:1 831:1 854:1 869:1 876:1 877:1 881:1 945:1 953:1 1022:1 1035:1 1060:1 1084:1 1100:1 1104:1 1123:1 1131:1 1240:1 1354:1 1374:1
-1 131:1 246:1 406:1 541:1 559:1 681:1 907:1 978:1 981:1 1225:1 1231:1 1236:1 1237:1 1239:1 1292:1 1300:1 1313:1 1356:1 1374:3
-1 246:2 406:1 559:2 681:2 1231:2 1236:1 1292:2 1313:2 1374:7
-1 246:1 331:1 334:1 486:1 541:1 559:1 837:1 907:1 981:1 1239:1 1275:1 1292:1 1300:1 1302:1 1313:1 1346:1 1356:1 1374:2 1376:2
-1 246:1 541:1 559:1 907:1 981:1 1239:1 1292:1 1300:1 1313:1 1356:1 1374:2
-1 246:1 559:1 681:1 907:1 1231:1 1292:1 1313:1 1356:1 1374:2 1376:2
-1 131:1 246:1 406:1 541:1 559:1 681:1 981:1 1225:1 1231:1 1236:1 1239:1 1292:1 1300:1 1313:1 1374:1
-1 131:1 246:1 406:1 541:1 559:1 681:1 907:1 978:1 981:1 1225:1 1231:1 1236:1 1237:1 1239:1 1292:1 1300:1 1313:1 1356:1 1374:3
-1 246:1 541:1 559:1 907:1 981:1 1239:1 1292:1 1300:1 1313:1 1356:1 1374:2
-1 246:2 406:1 559:2 681:2 701:1 1231:2 1236:1 1241:1 1292:2 1313:2 1374:7
-1 1112:1 1310:1 1374:2
-1 246:2 406:1 559:4 681:3 701:1 1231:3 1236:1 1241:1 1292:2 1313:4 1374:5
-1 131:1 246:1 541:1 559:1 681:1 701:1 907:1 981:1 1225:1 1231:1 1239:1 1241:1 1292:1 1300:1 1313:1 1356:1 1374:3
-1 246:1 331:1 334:1 486:1 541:1 559:1 837:1 907:1 981:1 1239:1 1275:1 1292:1 1300:1 1302:1 1313:1 1346:1 1356:1 1374:1 1376:2
-1 131:1 246:1 406:1 541:1 559:1 681:1 907:1 978:1 981:1 1225:1 1231:1 1236:1 1237:1 1239:1 1292:1 1300:1 1313:1 1356:1 1374:3
-1 131:1 246:1 406:1 541:1 559:1 681:1 907:1 978:1 981:1 1225:1 1231:1 1236:1 1237:1 1239:1 1292:1 1300:1 1313:1 1356:1 1374:1
-1 246:2 406:2 559:4 681:3 701:1 1231:3 1236:2 1241:1 1292:2 1313:4 1374:6
-1 246:1 541:1 559:1 907:1 981:1 1239:1 1292:1 1300:1 1313:1 1356:1 1374:1
-1 246:1 331:1 334:1 486:1 541:1 559:1 837:1 907:1 981:1 1239:1 1275:1 1292:1 1300:1 1302:1 1313:1 1346:1 1356:1 1374:1 1376:2
-1 246:1 541:1 559:1 907:1 981:1 1239:1 1292:1 1300:1 1313:1 1356:1 1374:2
-1 246:1 331:1 334:1 486:1 541:1 559:1 837:1 907:1 981:1 1239:1 1275:1 1292:1 1300:1 1302:1 1313:1 1346:1 1356:1 1374:1 1376:2
-1 246:1 541:1 559:1 907:1 981:1 1239:1 1292:1 1300:1 1313:1 1356:1 1374:2
-1 246:1 541:1 559:1 907:1 981:1 1239:1 1292:1 1300:1 1313:1 1356:1 1374:2
-1 246:1 541:1 559:1 907:1 981:1 1239:1 1292:1 1300:1 1313:1 1356:1 1374:2
-1 131:1 246:1 559:1 681:1 1225:1 1231:1 1292:1 1313:1 1374:1
-1 246:2 406:1 559:2 681:2 1231:2 1236:1 1292:2 1313:2 1374:7
-1 699:1 1240:1 1374:2
-1 121:1 246:1 541:1 559:1 681:1 701:1 907:1 1217:1 1231:1 1241:1 1292:1 1300:1 1313:1 1356:1 1374:2
-1 246:1 541:1 559:1 907:1 981:1 1239:1 1292:1 1300:1 1313:1 1356:1 1374:2
-1 246:2 406:1 559:2 681:2 701:1 1231:2 1236:1 1241:1 1292:2 1313:2 1374:7
-1 246:1 541:1 559:1 907:1 981:1 1239:1 1292:1 1300:1 1313:1 1356:1 1374:2
-1 131:1 246:1 541:1 559:1 681:1 701:1 907:1 981:1 1225:1 1231:1 1239:1 1241:1 1292:1 1300:1 1313:1 1356:1 1374:3
-1 246:2 406:1 559:2 681:2 701:1 1231:2 1236:1 1241:1 1292:2 1313:2 1374:7
-1 246:2 406:1 559:2 681:2 701:1 1231:2 1236:1 1241:1 1292:2 1313:2 1374:7
-1 131:1 246:1 541:1 559:1 681:1 701:1 907:1 981:1 1225:1 1231:1 1239:1 1241:1 1292:1 1300:1 1313:1 1356:1 1374:3
-1 246:2 406:1 559:2 681:2 701:1 1231:2 1236:1 1241:1 1292:2 1313:2 1374:7
-1 131:1 246:1 541:1 559:1 681:1 701:1 907:1 981:1 1225:1 1231:1 1239:1 1241:1 1292:1 1300:1 1313:1 1356:1 1374:2
-1 246:1 559:1 701:1 981:1 1239:1 1241:1 1292:1 1313:1 1374:2
-1 193:1 241:1 349:1 417:1 506:1 577:1 642:1 656:1 677:1 699:1 703:1 759:1 760:1 811:1 849:1 869:1 881:1 945:1 953:1 1022:1 1068:1 1100:1 1123:1 1131:1 1207:1 1240:1 1354:1 1369:1 1373:1 1374:1
-1 131:1 246:1 406:1 541:1 559:1 681:1 907:1 978:1 981:1 1225:1 1231:1 1236:1 1237:1 1239:1 1292:1 1300:1 1313:1 1356:1 1374:2
-1 559:1 1313:1 1374:1
-1 246:1 541:1 559:1 907:1 981:1 1239:1 1292:1 1300:1 1313:1 1356:1 1374:2
-1 246:1 331:1 334:1 486:1 541:1 559:1 837:1 907:1 981:1 1239:1 1275:1 1292:1 1300:1 1302:1 1313:1 1346:1 1356:1 1374:2 1376:2
-1 246:2 406:1 559:2 681:2 701:1 1231:2 1236:1 1241:1 1292:2 1313:2 1374:7
-1 131:1 175:1 229:1 246:1 267:1 334:1 349:1 406:1 460:1 486:1 525:1 541:1 559:1 681:1 701:1 725:1 741:1 837:1 895:1 907:1 981:1 1164:1 1225:1 1231:1 1236:1 1239:1 1241:1 1251:1 1258:1 1265:1 1275:1 1280:1 1292:1 1294:1 1300:1 1301:1 1302:1 1313:1 1346:1 1350:1 1354:1 1356:1 1374:1
-1 246:1 541:1 559:1 907:1 981:1 1239:1 1292:1 1300:1 1313:1 1356:1 1374:2
-1 246:1 541:1 559:1 907:1 981:1 1239:1 1292:1 1300:1 1313:1 1356:1 1374:2
-1 241:1 349:1 445:1 489:1 506:1 642:1 677:1 699:1 711:1 755:1 759:1 760:1 811:1 823:1 869:1 927:1 945:1 953:1 1022:1 1035:1 1100:1 1104:1 1111:1 1123:1 1157:1 1211:1 1240:1 1266:1 1354:1 1374:3
-1 131:1 349:1 406:1 559:1 681:1 699:1 703:1 987:1 1225:1 1231:1 1236:1 1240:1 1313:1 1354:1 1374:2
-1 246:1 541:1 559:1 681:1 701:1 907:1 978:1 981:1 1207:1 1231:1 1237:1 1239:1 1241:1 1292:1 1300:1 1313:1 1356:1 1369:1 1374:1
-1 131:1 246:2 406:1 541:1 559:3 634:1 681:2 701:1 907:1 981:1 1225:1 1231:2 1236:1 1239:1 1241:1 1292:2 1300:1 1313:3 1356:1 1357:1 1374:6
-1 246:1 406:1 460:1 541:1 559:1 581:1 681:1 701:1 907:1 978:1 981:1 1152:1 1231:1 1236:1 1237:1 1239:1 1241:1 1265:1 1292:1 1300:1 1313:1 1334:1 1356:1 1374:1
-1 131:1 246:2 406:2 559:4 681:2 701:1 907:1 1225:1 1231:2 1236:2 1241:1 1292:2 1313:4 1356:1 1374:6
-1 131:1 246:1 406:1 559:1 681:1 701:1 907:1 978:1 1225:1 1231:1 1236:1 1237:1 1241:1 1292:1 1313:1 1356:1 1374:5
-1 246:1 349:1 559:1 1155:1 1292:1 1313:1 1354:1 1374:1
-1 246:1 559:1 581:1 634:1 681:1 701:1 907:1 1231:1 1241:1 1292:1 1313:1 1356:1 1357:1 1374:1
-1 382:1 1219:1 1374:3
-1 220:1 246:1 349:1 406:1 460:1 495:1 541:1 559:1 699:1 701:1 734:1 759:1 907:1 981:1 1207:1 1236:1 1239:1 1240:1 1241:1 1265:1 1292:1 1300:1 1313:1 1354:1 1356:1 1369:1 1374:1
-1 246:1 349:2 405:1 550:1 559:1 907:1 955:1 1292:1 1306:1 1313:1 1354:2 1356:1 1374:2
-1 382:1 1219:1 1374:3
-1 246:1 406:1 541:1 559:1 606:1 656:1 681:1 701:1 755:1 907:1 978:1 1231:1 1236:1 1237:1 1241:1 1266:1 1292:1 1300:1 1313:1 1343:1 1356:1 1373:1 1374:1
-1 382:1 1219:1 1374:3
-1 382:1 1219:1 1374:2
-1 382:1 1219:1 1374:4
-1 241:1 349:1 506:1 512:1 534:1 639:1 642:1 677:1 703:1 729:1 760:1 777:1 811:1 876:1 945:1 953:1 1068:1 1100:1 1104:1 1123:1 1159:1 1354:1 1374:2
-1 131:1 246:1 318:1 331:1 541:1 559:1 681:1 907:1 978:1 981:1 1225:1 1231:1 1237:1 1239:1 1292:1 1300:1 1313:1 1356:1 1374:1
-1 382:1 1219:1 1374:3
-1 559:1 887:1 980:1 1313:1 1374:1
-1 131:1 246:1 406:1 541:1 559:1 701:1 907:1 978:1 981:1 1225:1 1236:1 1237:1 1239:1 1241:1 1292:1 1300:1 1313:1 1356:1 1374:6
-1 246:1 349:1 406:1 541:1 559:1 981:1 1236:1 1239:1 1292:1 1300:1 1313:1 1354:1 1374:3
-1 128:1 131:1 148:1 214:1 246:1 406:1 460:1 541:1 559:1 621:1 634:1 652:1 681:1 701:1 837:1 895:1 897:1 907:1 981:1 1223:1 1225:1 1231:1 1236:1 1239:1 1241:1 1265:1 1292:1 1300:1 1302:1 1313:1 1348:1 1350:1 1356:1 1357:1 1371:1 1374:1
-1 246:2 406:1 559:2 681:2 701:1 1231:2 1236:1 1241:1 1292:2 1313:2 1374:7
-1 132:1 246:1 349:1 358:1 541:1 559:1 681:1 697:1 701:1 703:1 755:1 907:1 1181:1 1226:1 1231:1 1241:1 1266:1 1292:1 1300:1 1313:1 1349:1 1354:1 1356:1 1374:1
-1 307:1 349:1 559:1 642:1 681:1 699:1 760:1 945:1 953:1 1100:1 1231:1 1240:1 1313:1 1354:1 1374:3
-1 127:1 246:1 349:1 406:1 559:1 681:1 701:1 907:1 981:1 1231:1 1236:1 1239:1 1241:1 1292:1 1313:1 1354:1 1356:1 1374:2
-1 126:1 175:1 246:1 279:1 349:1 406:1 460:1 486:1 541:1 559:1 667:1 681:1 699:1 701:1 810:1 895:1 907:1 981:1 1164:1 1222:1 1231:1 1236:1 1239:1 1240:1 1241:1 1251:1 1265:1 1275:1 1291:1 1292:1 1300:1 1312:1 1313:1 1350:1 1354:1 1356:1 1374:2 1376:1
-1 131:1 246:1 406:1 460:1 486:1 511:1 525:1 541:1 559:1 681:1 864:1 907:1 978:1 981:1 1225:1 1231:1 1236:1 1237:1 1239:1 1265:1 1275:1 1286:1 1292:1 1294:1 1300:1 1313:1 1356:1 1374:1
-1 1112:1 1310:1 1374:1
-1 246:1 349:2 559:1 681:1 701:1 907:1 978:1 1231:1 1237:1 1241:1 1292:1 1313:1 1354:2 1356:1 1374:3
-1 177:1 247:1 559:1 755:1 1266:1 1313:1 1374:2
-1 131:1 246:1 349:1 460:1 486:1 525:1 541:1 559:1 681:1 701:1 741:1 907:1 1225:1 1231:1 1241:1 1258:1 1265:1 1275:1 1292:1 1294:1 1300:1 1313:1 1354:1 1356:1 1374:2
-1 188:1 237:1 241:1 307:1 344:1 406:1 420:1 426:1 445:1 486:1 489:1 506:1 511:1 614:1 642:1 665:1 677:1 686:1 693:1 703:1 711:1 759:1 760:1 766:1 777:1 811:1 831:1 864:1 869:1 876:1 877:1 881:1 901:1 927:1 945:1 953:1 1022:1 1054:1 1068:1 1100:1 1104:1 1123:1 1131:1 1207:1 1236:1 1275:1 1286:1 1369:1 1374:2
-1 142:1 174:1 241:1 264:1 349:1 383:1 445:1 506:1 642:1 677:1 703:1 730:1 760:1 766:1 777:1 853:1 876:1 881:1 945:1 953:1 1100:1 1104:1 1354:1 1374:1
-1 349:1 559:1 1313:1 1354:1 1374:3
-1 343:1 559:1 993:1 1019:1 1313:1 1374:3
-1 349:2 559:1 1313:1 1354:2 1374:2
-1 382:1 1219:1 1374:3
-1 131:1 246:2 406:2 559:5 681:2 701:1 907:1 1225:1 1231:2 1236:2 1241:1 1292:2 1313:5 1356:1 1374:6
-1 455:1 526:1 550:1 559:1 593:1 707:1 780:1 865:1 955:1 1306:1 1313:1 1374:3 1376:30
-1 382:1 1219:1 1374:3
-1 382:1 1219:1 1374:3
-1 382:1 1219:1 1374:2
-1 382:1 1219:1 1374:3
-1 382:1 1219:1 1374:3
-1 214:1 455:1 550:1 559:1 819:1 897:1 1306:1 1313:1 1374:2
-1 131:1 246:2 406:2 559:5 681:2 701:1 907:1 1225:1 1231:2 1236:2 1241:1 1292:2 1313:5 1356:1 1374:6
-1 131:1 246:2 406:2 559:5 681:2 701:1 907:1 1225:1 1231:2 1236:2 1241:1 1292:2 1313:5 1356:1 1374:6
-1 349:1 559:1 1313:1 1354:1 1374:3
-1 349:1 550:1 559:1 955:1 1042:1 1306:1 1313:1 1354:1 1374:2
-1 131:1 246:2 406:2 559:4 681:2 701:1 907:1 978:1 1225:1 1231:2 1236:2 1237:1 1241:1 1292:2 1313:4 1356:1 1374:6
-1 246:1 349:1 365:1 406:1 541:1 559:1 681:1 701:1 755:1 907:1 978:1 981:1 1231:1 1236:1 1237:1 1239:1 1241:1 1266:1 1292:1 1300:1 1313:1 1354:1 1356:1 1370:1 1374:4
-1 246:1 406:1 460:1 559:1 570:1 634:1 681:1 701:1 741:1 907:1 978:1 981:1 1152:1 1231:1 1236:1 1237:1 1239:1 1241:1 1258:1 1265:1 1292:1 1313:1 1334:1 1356:1 1357:1 1374:1
-1 229:1 246:1 266:1 365:1 406:1 407:1 460:1 541:1 559:1 570:1 581:1 621:1 634:1 679:1 681:1 755:1 810:1 895:1 907:1 978:1 981:1 1152:1 1231:1 1235:1 1236:1 1237:1 1239:1 1265:1 1266:1 1280:1 1291:1 1292:1 1300:1 1313:1 1334:1 1348:1 1350:1 1356:1 1357:1 1370:1 1374:6
-1 246:1 365:1 406:1 407:1 460:1 541:1 559:1 570:1 621:1 634:1 681:1 701:1 810:1 895:1 907:1 981:1 1152:1 1231:1 1235:1 1236:1 1239:1 1241:1 1265:1 1291:1 1292:1 1300:1 1313:1 1334:1 1348:1 1350:1 1356:1 1357:1 1370:1 1374:4
-1 246:1 365:1 406:1 407:1 460:1 541:1 550:1 559:1 570:1 621:1 634:1 681:1 701:1 755:1 810:1 837:1 895:1 907:1 955:1 981:1 1152:1 1231:1 1235:1 1236:1 1239:1 1241:1 1265:1 1266:1 1291:1 1292:1 1300:1 1302:1 1306:1 1313:1 1334:1 1348:1 1350:1 1356:1 1357:1 1370:1 1374:4
-1 131:1 246:1 406:1 460:1 541:1 559:1 681:1 701:1 895:1 907:1 978:1 981:1 1152:1 1225:1 1231:1 1236:1 1237:1 1239:1 1241:1 1265:1 1292:1 1300:1 1313:1 1334:1 1350:1 1356:1 1374:1
-1 349:1 365:1 559:1 642:1 677:1 703:1 760:1 945:1 953:1 1100:1 1313:1 1354:1 1370:1 1374:3
-1 246:1 493:1 559:1 1189:1 1292:1 1313:1 1374:2
-1 227:1 246:1 349:1 406:1 541:1 559:1 642:1 681:1 699:1 703:1 760:1 925:1 945:1 953:1 981:1 1074:1 1100:1 1207:1 1231:1 1236:1 1239:1 1240:1 1279:1 1292:1 1300:1 1313:1 1354:1 1369:1 1374:1
-1 246:1 331:1 365:1 406:1 407:1 460:1 541:1 559:1 621:1 634:1 681:1 701:1 837:1 895:1 907:1 978:1 981:1 1231:1 1235:1 1236:1 1237:1 1239:1 1241:1 1265:1 1292:1 1300:1 1302:1 1313:1 1348:1 1350:1 1356:1 1357:1 1370:1 1374:1
-1 142:1 166:1 188:1 216:1 237:1 241:1 280:1 298:1 307:1 344:1 352:1 358:1 403:1 416:1 445:1 474:1 486:1 489:1 506:1 512:1 525:1 567:1 607:1 635:1 639:1 642:1 665:1 677:1 686:1 693:1 699:1 703:1 729:1 730:1 755:1 759:1 760:1 764:1 766:1 777:1 811:1 815:1 831:1 849:1 858:1 869:1 876:1 877:1 881:1 901:1 912:1 914:1 945:1 953:1 1022:1 1050:1 1084:1 1088:1 1100:1 1104:1 1123:1 1240:1 1266:1 1275:1 1294:1 1328:1 1374:3
-1 246:1 349:1 541:1 559:1 642:1 677:1 681:1 701:1 703:1 759:1 760:1 945:1 953:1 1100:1 1231:1 1241:1 1292:1 1300:1 1313:1 1354:1 1374:2
-1 131:1 246:1 541:1 559:1 681:1 701:1 907:1 981:1 1225:1 1231:1 1239:1 1241:1 1292:1 1300:1 1313:1 1356:1 1374:3
-1 219:1 289:1 436:1 559:1 578:1 693:1 1047:1 1313:1 1374:3
-1 349:2 559:1 1313:1 1354:2 1374:5 1376:8
-1 246:1 379:1 559:1 570:1 634:1 907:1 978:1 1186:1 1216:1 1237:1 1292:1 1313:1 1356:1 1357:1 1374:2
-1 246:2 406:2 559:4 681:3 701:1 1231:3 1236:2 1241:1 1292:2 1313:4 1374:6
-1 699:1 1240:1 1374:1
-1 382:1 1219:1 1374:2
-1 246:1 349:1 559:1 681:1 1231:1 1292:1 1313:1 1354:1 1374:2
-1 382:1 1219:1 1374:3
-1 382:1 1219:1 1374:3
-1 246:1 349:1 365:1 406:1 460:1 541:1 559:1 667:1 699:1 701:1 759:1 810:1 895:1 907:1 981:1 1236:1 1239:1 1240:1 1241:1 1265:1 1291:1 1292:1 1300:1 1313:1 1350:1 1354:1 1356:1 1370:1 1374:3
-1 246:1 349:1 406:1 407:1 460:1 541:1 559:1 667:1 681:1 699:1 701:1 810:1 895:1 907:1 978:1 981:1 1024:1 1231:1 1235:1 1236:1 1237:1 1239:1 1240:1 1241:1 1265:1 1291:1 1292:1 1300:1 1313:1 1350:1 1354:1 1356:1 1374:1
-1 349:1 559:1 681:1 755:1 1231:1 1266:1 1313:1 1354:1 1374:2
-1 382:1 1219:1 1374:3
-1 559:1 918:1 1313:1 1374:3
-1 246:1 541:1 559:1 681:1 1189:1 1231:1 1292:1 1300:1 1313:1 1374:2
-1 382:1 1219:1 1374:3
-1 162:1 227:1 246:1 334:1 349:1 406:1 407:1 460:1 508:1 541:1 559:1 570:1 581:1 634:1 681:1 699:1 701:1 895:1 907:1 981:1 1074:1 1231:1 1235:1 1236:1 1239:1 1240:1 1241:1 1244:1 1265:1 1279:1 1292:1 1300:1 1313:1 1346:1 1350:1 1354:1 1356:1 1357:1 1374:2
-1 349:2 559:1 1313:1 1354:2 1374:2
-1 349:2 559:1 1313:1 1354:2 1374:2
-1 559:1 1313:1 1374:2
-1 349:1 559:1 681:1 699:1 1231:1 1240:1 1313:1 1354:1 1374:2
-1 382:1 1219:1 1374:3
-1 559:1 755:1 1266:1 1313:1 1374:2
-1 1112:1 1310:1 1374:1
-1 246:1 349:1 406:1 460:1 541:1 559:1 634:1 681:1 701:1 810:1 907:1 981:1 1231:1 1236:1 1239:1 1241:1 1265:1 1291:1 1292:1 1300:1 1313:1 1354:1 1356:1 1357:1 1374:1
-1 246:1 348:1 349:2 559:1 634:1 1292:1 1313:1 1354:2 1357:1 1374:4
-1 198:1 246:1 349:1 406:1 460:1 541:1 559:1 606:1 681:1 699:1 741:1 981:1 1207:1 1231:1 1236:1 1239:1 1240:1 1258:1 1265:1 1292:1 1300:1 1313:1 1343:1 1354:1 1369:1 1374:1
-1 382:1 1219:1 1374:3
-1 382:1 1219:1 1374:3
-1 246:1 349:1 379:1 406:1 541:1 550:1 559:1 634:1 681:1 701:1 780:1 837:1 907:1 955:1 981:1 1216:1 1231:1 1236:1 1239:1 1241:1 1292:1 1300:1 1302:1 1306:1 1313:1 1354:1 1356:1 1357:1 1374:7
-1 349:1 417:1 445:1 506:1 572:1 642:1 677:1 703:1 760:1 777:1 945:1 953:1 1022:1 1100:1 1123:1 1354:1 1374:2
-1 382:1 1219:1 1374:3
-1 349:1 559:1 681:1 1231:1 1313:1 1354:1 1374:2
-1 246:1 541:1 559:1 701:1 780:1 907:1 978:1 1172:1 1237:1 1241:1 1292:1 1300:1 1313:1 1356:1 1374:3
-1 159:1 246:1 379:1 523:1 536:1 541:1 559:1 634:1 681:1 701:1 727:1 907:1 978:1 981:1 1089:1 1186:1 1216:1 1231:1 1237:1 1239:1 1241:1 1292:1 1297:1 1300:1 1313:1 1356:1 1357:1 1374:4
-1 128:1 246:1 406:1 460:1 511:1 541:1 559:1 596:1 681:1 741:1 755:1 837:1 895:1 907:1 981:1 1223:1 1231:1 1236:1 1239:1 1258:1 1265:1 1266:1 1286:1 1292:1 1300:1 1302:1 1313:1 1337:1 1350:1 1356:1 1374:2
-1 131:1 227:1 246:1 267:1 406:1 460:1 541:1 559:1 576:1 621:1 681:1 701:1 837:1 907:1 981:1 1087:1 1225:1 1231:1 1236:1 1239:1 1241:1 1265:1 1279:1 1292:1 1300:1 1301:1 1302:1 1313:1 1325:1 1348:1 1356:1 1374:1 1376:4
-1 128:1 131:1 227:1 246:1 267:1 365:1 406:1 460:1 541:1 559:1 576:1 681:1 755:1 837:1 907:1 981:1 1207:1 1223:1 1225:1 1231:1 1236:1 1239:1 1265:1 1266:1 1279:1 1292:1 1300:1 1301:1 1302:1 1313:1 1325:1 1356:1 1369:1 1370:1 1374:2 1376:12
-1 628:1 1374:1
-1 246:1 541:1 559:1 634:1 681:1 755:1 907:1 978:1 1231:1 1237:1 1266:1 1292:1 1300:1 1313:1 1356:1 1357:1 1374:2
-1 246:1 559:1 701:1 801:1 907:1 978:1 1237:1 1241:1 1292:1 1313:1 1356:1 1374:2
-1 246:1 349:1 559:1 659:1 907:1 978:1 1237:1 1292:1 1313:1 1354:1 1356:1 1374:2
-1 241:1 349:1 406:1 489:1 506:1 511:1 551:1 567:1 639:1 642:1 677:1 699:1 703:1 730:1 759:1 760:1 764:1 777:1 869:1 876:1 945:1 953:1 1022:1 1023:1 1100:1 1104:1 1236:1 1240:1 1286:1 1354:1 1374:1
-1 241:1 298:1 349:1 414:1 445:1 506:1 512:1 551:1 567:1 620:1 639:1 642:1 677:1 703:1 729:1 745:1 759:1 760:1 766:1 777:1 876:1 881:1 945:1 953:1 1068:1 1100:1 1104:1 1123:1 1185:1 1328:1 1354:1 1374:1
-1 220:1 246:1 349:1 406:1 460:1 495:1 541:1 559:1 681:1 699:1 701:1 895:1 907:1 981:1 1231:1 1236:1 1239:1 1240:1 1241:1 1265:1 1292:1 1300:1 1313:1 1350:1 1354:1 1356:1 1374:2
-1 131:1 246:2 365:1 406:3 541:1 559:4 681:2 701:1 907:1 978:1 981:1 1225:1 1231:2 1236:3 1237:1 1239:1 1241:1 1292:2 1300:1 1313:4 1356:1 1370:1 1374:6
-1 382:1 1219:1 1374:3
-1 382:1 1219:1 1374:2
-1 162:1 227:1 246:1 334:1 349:1 406:1 407:1 460:1 508:1 541:1 559:1 570:1 581:1 634:1 681:1 699:1 701:1 895:1 907:1 981:1 1074:1 1231:1 1235:1 1236:1 1239:1 1240:1 1241:1 1244:1 1265:1 1279:1 1292:1 1300:1 1313:1 1346:1 1350:1 1354:1 1356:1 1357:1 1374:2
-1 382:1 1219:1 1374:2
-1 131:1 246:2 406:2 559:5 681:2 701:1 907:1 1225:1 1231:2 1236:2 1241:1 1292:2 1313:5 1356:1 1374:6
-1 246:2 406:1 550:1 559:3 634:1 681:2 701:1 907:1 978:1 981:1 1231:2 1236:1 1237:1 1239:1 1241:1 1292:2 1306:1 1313:3 1356:1 1357:1 1374:6
-1 382:1 1219:1 1374:3
-1 382:1 1219:1 1374:3
-1 193:1 241:1 246:1 298:1 349:1 445:1 506:1 559:1 614:1 642:1 657:1 677:1 699:1 759:1 760:1 811:1 849:1 876:1 877:1 881:1 945:1 953:1 1022:1 1060:1 1100:1 1111:1 1123:1 1207:1 1240:1 1292:1 1313:1 1328:1 1354:1 1369:1 1374:1 1376:222
-1 193:1 349:1 406:1 541:1 559:1 642:1 677:1 681:1 703:1 755:1 760:1 945:1 953:1 981:1 1100:1 1197:1 1207:1 1231:1 1236:1 1239:1 1266:1 1300:1 1313:1 1354:1 1362:1 1369:1 1374:2
-1 266:1 298:1 349:1 406:1 486:1 489:1 559:1 642:1 681:1 699:1 703:1 822:1 945:1 981:1 1100:1 1131:1 1207:1 1231:1 1236:1 1239:1 1240:1 1275:1 1313:1 1328:1 1354:1 1369:1 1374:2
-1 214:1 246:1 334:1 406:1 541:1 559:1 681:1 701:1 738:1 907:1 981:1 1015:1 1231:1 1236:1 1239:1 1241:1 1292:1 1300:1 1313:1 1346:1 1356:1 1374:1 1376:1
-1 214:1 246:1 406:1 541:1 559:1 738:1 981:1 1015:1 1236:1 1239:1 1292:1 1300:1 1313:1 1374:1 1376:1
-1 214:1 246:1 406:1 541:1 559:1 738:1 981:1 1015:1 1236:1 1239:1 1292:1 1300:1 1313:1 1374:1 1376:5
-1 131:1 246:2 406:2 559:5 681:2 701:1 907:1 1225:1 1231:2 1236:2 1241:1 1292:2 1313:5 1356:1 1374:6
-1 349:2 559:1 1313:1 1354:2 1374:3
-1 214:1 246:1 365:1 541:1 559:1 681:1 907:1 981:1 1231:1 1239:1 1292:1 1300:1 1313:1 1356:1 1370:1 1374:2
-1 218:1 246:1 349:2 559:1 634:1 1292:1 1313:1 1354:2 1357:1 1374:2
-1 699:1 1240:1 1374:2
-1 246:1 333:1 349:1 369:1 406:1 541:1 559:1 681:1 699:1 975:1 981:1 1134:1 1231:1 1236:1 1239:1 1240:1 1292:1 1300:1 1313:1 1354:1 1374:2
-1 382:1 1219:1 1374:3
-1 246:1 349:1 559:1 681:1 1231:1 1292:1 1313:1 1354:1 1374:2
-1 382:1 1219:1 1374:3
-1 1112:1 1310:1 1374:1
-1 453:1 559:1 1313:1 1374:4
-1 246:1 559:1 681:1 1231:1 1292:1 1313:1 1374:4
-1 349:1 559:1 1313:1 1354:1 1374:5
-1 246:1 325:1 406:1 559:1 981:1 1236:1 1239:1 1292:1 1313:1 1374:1
-1 246:1 406:1 541:1 559:1 681:1 907:1 981:1 1231:1 1236:1 1239:1 1292:1 1300:1 1313:1 1356:1 1374:3
-1 246:2 406:1 559:4 681:3 701:1 1231:3 1236:1 1241:1 1292:2 1313:4 1374:5
-1 246:1 541:1 559:1 681:1 1231:1 1292:1 1300:1 1313:1 1374:3
-1 131:1 246:1 541:1 559:1 681:1 701:1 907:1 981:1 1225:1 1231:1 1239:1 1241:1 1292:1 1300:1 1313:1 1356:1 1374:4
-1 246:1 559:1 755:1 1266:1 1292:1 1313:1 1374:1
-1 210:1 478:1 559:1 576:1 837:1 1302:1 1313:1 1325:1 1374:1
-1 246:1 406:1 541:1 559:1 576:1 681:1 701:1 755:1 907:1 1231:1 1236:1 1241:1 1266:1 1292:1 1300:1 1313:1 1325:1 1356:1 1374:1 1376:19
-1 210:1 478:1 559:1 1313:1 1374:1
-1 349:2 396:1 466:1 505:1 559:1 781:1 1313:1 1354:2 1374:2
-1 131:1 246:2 406:2 559:5 681:2 701:1 907:1 1225:1 1231:2 1236:2 1241:1 1292:2 1313:5 1356:1 1374:6
-1 246:1 349:1 371:1 406:1 460:1 495:1 541:1 559:1 667:1 681:1 699:1 701:1 810:1 895:1 907:1 981:1 1074:1 1207:1 1231:1 1236:1 1239:1 1240:1 1241:1 1265:1 1291:1 1292:1 1300:1 1313:1 1350:1 1354:1 1356:1 1369:1 1374:1
-1 131:1 246:2 406:3 541:4 550:1 559:5 681:2 690:1 701:1 907:1 955:1 978:1 981:4 1225:1 1231:2 1236:3 1237:1 1239:4 1241:1 1292:2 1300:4 1306:1 1313:5 1356:1 1374:5
-1 382:1 1219:1 1374:2
-1 460:1 559:1 681:1 1231:1 1265:1 1313:1 1374:1
-1 382:1 1219:1 1374:3
-1 246:2 406:1 559:2 681:2 701:1 1231:2 1236:1 1241:1 1292:2 1313:2 1374:7
-1 131:1 246:1 559:1 681:1 907:1 978:1 1225:1 1231:1 1237:1 1292:1 1313:1 1356:1 1374:1
-1 382:1 1219:1 1374:3
-1 559:1 780:1 1313:1 1374:2
-1 131:1 246:1 559:1 681:1 907:1 978:1 1225:1 1231:1 1237:1 1292:1 1313:1 1356:1 1374:1
-1 246:2 406:1 559:2 681:2 701:1 1231:2 1236:1 1241:1 1292:2 1313:2 1374:7
-1 246:1 541:1 559:1 681:1 780:1 1231:1 1292:1 1300:1 1313:1 1374:2
-1 246:2 406:1 559:2 681:2 701:1 1231:2 1236:1 1241:1 1292:2 1313:2 1374:8
-1 246:2 406:1 559:2 681:2 701:1 1231:2 1236:1 1241:1 1292:2 1313:2 1374:7
-1 382:1 1219:1 1374:3
-1 246:1 325:1 460:1 559:1 675:1 774:1 949:1 1265:1 1292:1 1313:1 1374:2
-1 131:1 246:1 406:1 460:1 511:1 541:1 559:1 656:1 681:1 701:1 780:1 837:1 907:1 981:1 1207:1 1225:1 1231:1 1236:1 1239:1 1241:1 1265:1 1286:1 1292:1 1300:1 1302:1 1313:1 1356:1 1369:1 1373:1 1374:1
-1 382:1 1219:1 1374:4
-1 1112:1 1310:1 1374:1
-1 246:1 550:1 559:1 632:1 907:1 955:1 1292:1 1306:1 1313:1 1356:1 1374:2
-1 131:1 246:2 406:2 559:5 681:2 701:1 907:1 1225:1 1231:2 1236:2 1241:1 1292:2 1313:5 1356:1 1374:6
-1 180:1 241:1 415:1 433:1 445:1 506:1 642:1 657:1 677:1 695:1 699:1 728:1 759:1 760:1 777:1 811:1 869:1 881:1 882:1 945:1 953:1 1100:1 1104:1 1123:1 1207:1 1240:1 1369:1 1374:3
-1 121:1 246:1 541:1 559:1 681:1 701:1 907:1 1217:1 1231:1 1241:1 1292:1 1300:1 1313:1 1356:1 1374:3
-1 382:1 1219:1 1374:3
-1 349:2 530:1 559:1 1313:1 1354:2 1374:3
-1 382:1 1219:1 1374:3
-1 382:1 1219:1 1374:3
-1 382:1 1219:1 1374:3
-1 382:1 1219:1 1374:3
-1 382:1 1219:1 1374:3
-1 382:1 1219:1 1374:3
-1 382:1 1219:1 1374:3
-1 382:1 1219:1 1374:3
-1 382:1 1219:1 1374:3
-1 382:1 1219:1 1374:3
-1 382:1 1219:1 1374:3
-1 382:1 1219:1 1374:3
-1 382:1 1219:1 1374:3
-1 349:2 559:1 1313:1 1354:2 1374:3
-1 175:1 246:1 331:1 406:1 460:1 541:1 559:1 681:1 701:1 907:1 981:1 1231:1 1236:1 1239:1 1241:1 1251:1 1265:1 1292:1 1300:1 1313:1 1356:1 1374:3
-1 246:1 349:1 559:1 681:1 699:1 1231:1 1240:1 1292:1 1313:1 1354:1 1374:1
-1 246:1 550:1 559:1 634:1 907:1 972:1 1151:1 1292:1 1306:1 1313:1 1356:1 1357:1 1374:1 1376:1
-1 382:1 1219:1 1374:2
-1 131:1 246:1 559:1 681:1 907:1 978:1 1225:1 1231:1 1237:1 1292:1 1313:1 1356:1 1374:1
-1 246:1 274:1 349:1 406:1 460:1 559:1 681:1 981:1 1106:1 1231:1 1236:1 1239:1 1265:1 1292:1 1313:1 1354:1 1374:1
-1 255:1 349:1 466:1 505:1 559:1 781:1 804:1 1313:1 1354:1 1374:3
-1 349:1 505:1 559:1 781:1 804:1 1313:1 1354:1 1374:3
-1 349:1 559:1 634:1 780:1 1313:1 1354:1 1357:1 1374:3
-1 131:1 246:2 349:1 365:1 406:3 460:1 541:2 559:5 681:2 701:1 907:2 978:1 981:1 1225:1 1231:2 1236:3 1237:1 1239:1 1241:1 1265:1 1292:2 1300:2 1313:5 1354:1 1356:2 1370:1 1374:6
-1 349:2 396:1 466:1 497:1 505:1 559:1 781:1 804:1 1313:1 1354:2 1374:3
-1 131:1 246:1 406:1 541:1 559:1 701:1 907:1 978:1 981:1 1225:1 1236:1 1237:1 1239:1 1241:1 1292:1 1300:1 1313:1 1356:1 1374:4
-1 240:1 246:1 298:1 349:1 559:1 642:1 677:1 681:1 699:1 759:1 760:1 945:1 953:1 1100:1 1231:1 1240:1 1290:1 1292:1 1313:1 1328:1 1354:1 1374:2
-1 246:1 541:1 559:1 1292:1 1300:1 1313:1 1374:3
-1 131:1 227:1 246:1 267:1 334:1 406:1 486:1 559:1 606:1 656:1 681:1 755:1 907:1 978:1 981:1 1225:1 1231:1 1236:1 1237:1 1239:1 1266:1 1275:1 1279:1 1292:1 1301:1 1313:1 1343:1 1346:1 1356:1 1373:1 1374:1
-1 246:1 349:1 406:1 460:1 559:1 577:1 662:1 681:1 699:1 701:1 741:1 827:1 907:1 981:1 1086:1 1207:1 1231:1 1236:1 1239:1 1240:1 1241:1 1258:1 1265:1 1292:1 1313:1 1354:1 1356:1 1369:1 1374:1
-1 246:1 349:1 406:1 495:1 541:1 559:1 577:1 681:1 729:1 981:1 1231:1 1236:1 1239:1 1292:1 1300:1 1313:1 1354:1 1374:2
-1 246:1 349:1 559:1 618:1 1292:1 1313:1 1354:1 1374:3
-1 131:1 246:1 349:1 406:1 460:1 559:1 656:1 681:1 699:1 703:1 755:1 806:1 1157:1 1225:1 1231:1 1236:1 1240:1 1265:1 1266:1 1292:1 1313:1 1354:1 1373:1 1374:2
-1 349:1 642:1 677:1 760:1 945:1 953:1 1100:1 1354:1 1374:3
-1 349:1 642:1 677:1 760:1 945:1 953:1 1100:1 1354:1 1374:3
-1 349:1 642:1 677:1 760:1 945:1 953:1 1100:1 1354:1 1374:3
-1 349:1 642:1 677:1 760:1 945:1 953:1 1100:1 1354:1 1374:3
-1 349:1 559:1 642:1 677:1 760:1 945:1 953:1 1100:1 1313:1 1354:1 1374:3
-1 349:1 642:1 677:1 760:1 945:1 953:1 1100:1 1354:1 1374:3
-1 349:1 642:1 677:1 760:1 945:1 953:1 1100:1 1354:1 1374:3
-1 131:1 246:1 349:1 460:1 486:1 495:1 525:1 541:1 559:1 577:1 681:1 699:1 729:1 976:1 981:1 1139:1 1225:1 1231:1 1239:1 1240:1 1265:1 1275:1 1292:1 1294:1 1300:1 1313:1 1354:1 1374:2
-1 349:1 559:1 681:1 699:1 1231:1 1240:1 1313:1 1354:1 1374:2
-1 117:1 146:1 246:1 349:1 358:1 406:1 445:1 457:1 460:1 486:1 495:1 496:1 541:1 559:1 567:1 639:1 642:1 677:1 699:1 728:1 729:1 741:1 760:1 777:1 811:1 823:1 834:1 858:1 877:1 881:1 907:1 945:1 953:1 965:1 981:1 1005:1 1016:1 1018:1 1060:1 1100:1 1123:1 1131:1 1236:1 1239:1 1240:1 1258:1 1265:1 1275:1 1292:1 1300:1 1313:1 1354:1 1356:1 1374:3
-1 142:1 241:1 349:1 360:1 445:1 506:1 512:1 642:1 677:1 745:1 759:1 760:1 766:1 811:1 876:1 881:1 945:1 953:1 1035:1 1050:1 1100:1 1104:1 1123:1 1354:1 1374:2
-1 349:1 460:1 541:1 567:1 639:1 642:1 677:1 699:1 759:1 760:1 876:1 877:1 945:1 953:1 1100:1 1240:1 1265:1 1300:1 1354:1 1374:3
-1 246:1 349:1 460:1 495:1 541:1 559:1 642:1 677:1 681:1 703:1 760:1 945:1 953:1 1100:1 1231:1 1265:1 1292:1 1300:1 1313:1 1354:1 1374:3
-1 246:1 406:1 460:1 541:1 559:1 681:1 701:1 907:1 1231:1 1236:1 1241:1 1265:1 1292:1 1300:1 1313:1 1356:1 1374:2
-1 246:1 349:1 559:1 642:1 677:1 760:1 945:1 953:1 1100:1 1292:1 1313:1 1354:1 1374:2
-1 246:1 541:1 559:1 681:1 701:1 907:1 1231:1 1241:1 1292:1 1300:1 1313:1 1356:1 1374:2
-1 246:1 559:1 576:1 634:1 681:1 1231:1 1292:1 1313:1 1325:1 1357:1 1374:1 1376:2
-1 246:1 559:1 907:1 1292:1 1313:1 1356:1 1374:3
-1 246:1 559:1 701:1 907:1 981:1 1239:1 1241:1 1292:1 1313:1 1356:1 1374:2
-1 186:1 241:1 246:1 349:1 365:1 394:1 417:1 506:1 541:1 559:1 642:1 677:1 699:1 759:1 760:1 869:1 881:1 907:1 945:1 953:1 1022:1 1060:1 1100:1 1229:1 1240:1 1292:1 1300:1 1313:1 1354:1 1356:1 1370:1 1374:2
-1 382:1 1219:1 1374:4
-1 382:1 1219:1 1374:2
-1 131:1 246:1 559:1 681:1 701:1 907:1 1225:1 1231:1 1241:1 1292:1 1313:1 1356:1 1374:2
-1 131:1 246:1 348:1 406:1 541:1 559:1 634:1 681:1 701:1 755:1 856:1 907:1 978:1 981:1 1192:1 1202:1 1225:1 1231:1 1236:1 1237:1 1239:1 1241:1 1266:1 1292:1 1300:1 1313:1 1356:1 1357:1 1374:5
-1 241:1 349:1 506:1 642:1 677:1 760:1 869:1 945:1 953:1 1068:1 1100:1 1123:1 1354:1 1374:4
-1 216:1 241:1 246:1 349:1 445:1 489:1 506:1 559:1 642:1 677:1 699:1 745:1 759:1 760:1 811:1 831:1 869:1 876:1 877:1 881:1 945:1 953:1 1022:1 1068:1 1100:1 1104:1 1123:1 1240:1 1292:1 1313:1 1354:1 1374:2
-1 559:1 918:1 1313:1 1374:2
-1 349:2 559:1 1313:1 1354:2 1374:2
-1 382:1 1219:1 1374:3
-1 246:1 406:1 541:1 559:1 656:1 907:1 981:1 1236:1 1239:1 1292:1 1300:1 1313:1 1356:1 1373:1 1374:5
-1 246:1 349:1 559:1 618:1 1292:1 1313:1 1354:1 1374:3
-1 559:1 1313:1 1374:1
-1 131:1 241:1 246:1 303:1 349:1 445:1 460:1 506:1 642:1 677:1 699:1 760:1 786:1 811:1 849:1 869:1 881:1 927:1 945:1 953:1 1022:1 1068:1 1100:1 1104:1 1111:1 1123:1 1157:1 1225:1 1240:1 1265:1 1292:1 1354:1 1374:3
-1 246:1 294:1 321:1 541:1 550:1 559:1 632:1 681:1 688:1 755:1 1207:1 1231:1 1266:1 1292:1 1300:1 1306:1 1313:1 1369:1 1374:2
-1 349:1 559:1 634:1 1313:1 1354:1 1357:1 1374:3
-1 349:1 559:1 577:1 681:1 1231:1 1313:1 1354:1 1374:2
-1 246:1 541:1 559:1 1292:1 1300:1 1313:1 1374:3
-1 246:2 406:1 559:2 681:2 701:1 1231:2 1236:1 1241:1 1292:2 1313:2 1374:7
-1 241:1 307:1 349:1 406:1 445:1 506:1 642:1 677:1 699:1 703:1 745:1 759:1 760:1 876:1 881:1 945:1 953:1 1100:1 1123:1 1131:1 1207:1 1236:1 1240:1 1354:1 1369:1 1374:2
-1 131:1 246:1 349:1 358:1 406:1 460:1 559:1 640:1 656:1 681:1 697:1 699:1 703:1 755:1 806:1 1157:1 1225:1 1231:1 1236:1 1240:1 1265:1 1266:1 1292:1 1313:1 1354:1 1361:1 1373:1 1374:2
-1 131:1 246:1 349:1 358:1 406:1 460:1 559:1 640:1 656:1 681:1 697:1 699:1 703:1 755:1 806:1 1157:1 1225:1 1231:1 1236:1 1240:1 1265:1 1266:1 1292:1 1313:1 1354:1 1361:1 1373:1 1374:2
-1 209:1 216:1 237:1 241:1 246:1 280:1 318:1 349:1 406:1 417:1 420:1 445:1 460:1 489:1 495:1 506:1 535:1 541:1 559:1 589:1 595:1 642:1 677:1 699:1 701:1 730:1 745:1 746:1 758:1 759:1 760:1 777:1 810:1 811:1 814:1 831:1 842:1 869:1 876:1 877:1 881:1 907:1 945:1 953:1 1022:1 1045:1 1068:1 1084:1 1093:1 1100:1 1102:1 1104:1 1123:1 1131:1 1236:1 1240:1 1241:1 1265:1 1291:1 1292:1 1300:1 1313:1 1354:1 1356:1 1374:2
-1 246:1 349:2 406:1 505:1 541:1 559:1 634:1 663:1 681:1 701:1 755:1 907:1 978:1 981:1 1231:1 1236:1 1237:1 1239:1 1241:1 1266:1 1292:1 1300:1 1313:1 1354:2 1356:1 1357:1 1374:2
-1 246:1 349:1 559:1 681:1 1092:1 1231:1 1292:1 1299:1 1313:1 1354:1 1374:2
-1 241:1 349:1 642:1 657:1 677:1 699:1 728:1 760:1 945:1 953:1 1100:1 1207:1 1240:1 1354:1 1369:1 1374:2
-1 128:1 131:1 246:1 406:1 541:1 559:1 576:1 681:1 701:1 755:1 907:1 978:1 1223:1 1225:1 1231:1 1236:1 1237:1 1241:1 1266:1 1292:1 1300:1 1313:1 1325:1 1356:1 1374:1
-1 128:1 131:1 246:1 406:1 541:1 559:1 576:1 681:1 701:1 755:1 907:1 978:1 981:1 1223:1 1225:1 1231:1 1236:1 1237:1 1239:1 1241:1 1266:1 1292:1 1300:1 1313:1 1325:1 1356:1 1374:1
-1 188:1 241:1 506:1 512:1 639:1 642:1 665:1 677:1 693:1 699:1 703:1 729:1 760:1 777:1 876:1 901:1 912:1 945:1 953:1 1060:1 1100:1 1104:1 1159:1 1240:1 1374:1
-1 214:1 246:1 559:1 560:1 897:1 951:1 1292:1 1313:1 1374:3
-1 382:1 1219:1 1374:3
-1 382:1 1219:1 1374:2
-1 559:1 1313:1 1374:1
-1 406:1 559:1 580:1 1236:1 1313:1 1374:1
-1 246:2 406:1 559:2 681:2 701:1 1231:2 1236:1 1241:1 1292:2 1313:2 1374:7
-1 349:1 530:1 559:1 978:1 1237:1 1313:1 1354:1 1374:3
-1 246:2 406:2 559:4 681:1 1231:1 1236:2 1292:2 1313:4 1374:6
-1 349:1 542:1 559:1 1313:1 1354:1 1374:3
-1 349:1 542:1 559:1 1313:1 1354:1 1374:3
-1 349:1 542:1 559:1 1313:1 1354:1 1374:3
-1 246:1 247:1 395:1 406:1 559:1 634:1 755:1 981:1 1236:1 1239:1 1266:1 1292:1 1313:1 1357:1 1374:1 1376:75
-1 349:1 838:1 1354:1 1374:3
-1 1112:1 1310:1 1374:1
-1 349:1 559:1 1313:1 1354:1 1374:2
-1 246:1 349:1 559:1 1292:1 1313:1 1354:1 1374:3
-1 246:1 349:1 406:1 559:1 907:1 981:1 1236:1 1239:1 1292:1 1313:1 1354:1 1356:1 1374:2
-1 246:1 349:1 559:1 1292:1 1313:1 1354:1 1374:2
-1 246:1 349:1 559:1 1292:1 1313:1 1354:1 1374:3
-1 349:1 838:1 1354:1 1374:1
-1 246:1 559:1 681:1 907:1 978:1 1231:1 1237:1 1292:1 1313:1 1356:1 1374:1
-1 131:1 246:1 541:1 559:1 681:1 701:1 907:1 981:1 1225:1 1231:1 1239:1 1241:1 1292:1 1300:1 1313:1 1356:1 1374:3
-1 349:1 838:1 1354:1 1374:3
-1 246:1 308:1 349:1 559:1 618:1 621:1 664:1 701:1 895:1 907:1 981:1 1239:1 1241:1 1292:1 1313:1 1335:1 1348:1 1350:1 1354:1 1356:1 1374:2
-1 382:1 1219:1 1374:3
-1 453:1 559:1 1313:1 1374:4 1376:3
-1 246:1 349:2 541:1 559:1 681:1 780:1 907:1 981:1 1231:1 1239:1 1292:1 1300:1 1313:1 1354:2 1356:1 1374:3
-1 1112:1 1310:1 1374:1
-1 382:1 1219:1 1374:3
-1 246:1 349:1 406:1 541:1 559:1 681:1 701:1 907:1 978:1 981:1 1231:1 1236:1 1237:1 1239:1 1241:1 1292:1 1300:1 1313:1 1354:1 1356:1 1374:4
-1 559:1 887:1 980:1 1313:1 1374:1
-1 246:2 406:1 559:2 681:2 701:1 1231:2 1236:1 1241:1 1292:2 1313:2 1374:6
-1 382:1 1219:1 1374:3
-1 246:1 349:2 389:1 405:1 550:1 559:1 907:1 955:1 1292:1 1306:1 1313:1 1354:2 1356:1 1374:2
-1 246:1 349:2 550:1 559:1 907:1 1292:1 1306:1 1313:1 1354:2 1356:1 1374:2 1376:26
-1 382:1 1219:1 1374:3
-1 382:1 1219:1 1374:3
-1 382:1 1219:1 1374:2
-1 349:1 559:1 1313:1 1354:1 1374:3
-1 128:1 131:1 246:1 406:1 541:1 559:1 634:1 681:1 701:1 907:1 978:1 981:1 1223:1 1225:1 1231:1 1236:1 1237:1 1239:1 1241:1 1292:1 1300:1 1313:1 1356:1 1357:1 1374:2
-1 246:1 406:1 559:1 701:1 1236:1 1241:1 1292:1 1313:1 1374:2
-1 246:1 349:2 541:1 559:1 681:1 780:1 907:1 981:1 1231:1 1239:1 1292:1 1300:1 1313:1 1354:2 1356:1 1374:2
-1 246:1 343:1 559:1 621:1 701:1 724:1 780:1 907:1 1241:1 1292:1 1313:1 1348:1 1356:1 1374:3
-1 308:1 349:1 550:1 559:1 865:1 955:1 1042:1 1306:1 1313:1 1335:1 1354:1 1374:2
-1 246:2 406:1 559:2 681:2 701:1 1231:2 1236:1 1241:1 1292:2 1313:2 1374:7
-1 246:1 349:1 403:1 406:1 559:1 642:1 681:1 711:1 760:1 831:1 945:1 953:1 1100:1 1231:1 1236:1 1292:1 1313:1 1354:1 1374:3
-1 133:1 246:1 349:1 435:1 541:1 559:1 681:1 907:1 992:1 1231:1 1292:1 1300:1 1313:1 1354:1 1356:1 1374:2
-1 131:1 246:1 541:1 559:1 681:1 701:1 907:1 981:1 1225:1 1231:1 1239:1 1241:1 1292:1 1300:1 1313:1 1356:1 1374:3
-1 142:1 349:1 406:1 417:1 426:1 506:1 614:1 642:1 657:1 677:1 699:1 703:1 710:1 728:1 730:1 746:1 759:1 760:1 777:1 811:1 849:1 869:1 881:1 941:1 945:1 953:1 1022:1 1054:1 1068:1 1100:1 1104:1 1123:1 1131:1 1236:1 1240:1 1354:1 1374:2
-1 152:1 203:1 298:1 301:1 307:1 349:1 473:1 506:1 515:1 527:1 568:1 609:1 625:1 677:1 699:1 782:1 811:1 818:1 846:1 864:1 953:1 961:1 990:1 1000:1 1035:1 1041:1 1132:1 1207:1 1209:1 1240:1 1328:1 1354:1 1369:1 1374:2
-1 382:1 1219:1 1374:3
-1 131:1 246:1 349:1 460:1 559:1 699:1 755:1 1225:1 1240:1 1265:1 1266:1 1292:1 1313:1 1354:1 1374:2
-1 246:1 349:2 559:1 634:1 681:1 780:1 1231:1 1292:1 1313:1 1354:2 1357:1 1374:2
-1 308:1 349:1 460:1 559:1 681:1 1231:1 1265:1 1313:1 1335:1 1354:1 1374:2
-1 246:1 349:2 541:1 559:1 634:1 681:1 701:1 780:1 907:1 978:1 981:1 1231:1 1237:1 1239:1 1241:1 1292:1 1300:1 1313:1 1354:2 1356:1 1357:1 1374:2
-1 349:2 396:1 466:1 505:1 559:1 781:1 1313:1 1354:2 1374:2
-1 152:1 203:1 301:1 349:1 473:1 506:1 515:1 527:1 568:1 609:1 646:1 677:1 750:1 759:1 766:1 818:1 846:1 953:1 961:1 969:1 990:1 1000:1 1083:1 1132:1 1354:1 1374:2
-1 1112:1 1310:1 1374:1
-1 349:1 445:1 506:1 642:1 677:1 699:1 760:1 766:1 777:1 837:1 881:1 945:1 953:1 1100:1 1123:1 1240:1 1302:1 1354:1 1374:2
-1 172:1 559:1 1313:1 1374:2
-1 172:1 559:1 1313:1 1374:2
-1 246:1 349:1 541:1 559:1 681:1 1231:1 1292:1 1300:1 1313:1 1354:1 1374:1
-1 246:1 349:1 541:1 559:1 606:1 681:1 701:1 907:1 978:1 1231:1 1237:1 1241:1 1292:1 1300:1 1313:1 1343:1 1354:1 1356:1 1374:2
-1 1112:1 1310:1 1374:1
-1 121:1 131:1 246:1 406:1 541:1 559:1 681:1 701:1 907:1 981:1 1207:1 1217:1 1225:1 1231:1 1236:1 1239:1 1241:1 1292:1 1300:1 1313:1 1356:1 1369:1 1374:2
-1 131:1 246:1 406:1 541:1 559:1 681:1 701:1 907:1 978:1 981:1 1225:1 1231:1 1236:1 1237:1 1239:1 1241:1 1292:1 1300:1 1313:1 1356:1 1374:5
-1 559:1 1313:1 1374:1
-1 246:1 298:1 349:1 365:1 406:1 541:1 559:1 681:1 699:1 701:1 703:1 978:1 1157:1 1231:1 1236:1 1237:1 1240:1 1241:1 1292:1 1300:1 1313:1 1328:1 1354:1 1370:1 1374:2
-1 188:1 298:1 559:1 642:1 665:1 681:1 693:1 699:1 703:1 760:1 876:1 901:1 945:1 953:1 981:1 1100:1 1231:1 1239:1 1240:1 1313:1 1328:1 1374:1
-1 188:1 241:1 246:1 298:1 304:1 406:1 445:1 559:1 582:1 642:1 665:1 681:1 693:1 699:1 703:1 741:1 760:1 766:1 876:1 877:1 881:1 901:1 945:1 953:1 1022:1 1084:1 1100:1 1131:1 1207:1 1231:1 1236:1 1240:1 1258:1 1292:1 1313:1 1328:1 1331:1 1369:1 1374:1
-1 229:1 237:1 241:1 266:1 269:1 349:1 406:1 420:1 426:1 445:1 489:1 506:1 512:1 535:1 602:1 640:1 642:1 677:1 699:1 703:1 755:1 759:1 760:1 766:1 786:1 792:1 811:1 849:1 869:1 877:1 927:1 945:1 953:1 1022:1 1100:1 1104:1 1111:1 1132:1 1184:1 1236:1 1240:1 1266:1 1280:1 1354:1 1361:1 1374:1
-1 128:1 241:1 349:1 445:1 642:1 677:1 699:1 755:1 760:1 811:1 869:1 945:1 953:1 1022:1 1100:1 1104:1 1111:1 1223:1 1240:1 1266:1 1354:1 1374:1
-1 1112:1 1310:1 1374:1
-1 1112:1 1310:1 1374:1
-1 246:1 559:1 1292:1 1313:1 1374:1
-1 382:1 1219:1 1374:3
-1 246:2 406:1 559:4 681:3 701:1 1231:3 1236:1 1241:1 1292:2 1313:4 1374:4
-1 246:1 406:1 407:1 460:1 541:1 559:1 681:1 701:1 810:1 907:1 981:1 1152:1 1231:1 1235:1 1236:1 1239:1 1241:1 1265:1 1291:1 1292:1 1300:1 1313:1 1334:1 1356:1 1374:1
-1 214:1 246:1 559:1 981:1 1015:1 1239:1 1292:1 1313:1 1374:1 1376:1
-1 246:1 406:1 541:1 559:1 681:1 907:1 981:1 1231:1 1236:1 1239:1 1292:1 1300:1 1313:1 1356:1 1374:1
-1 349:1 530:1 559:1 1313:1 1354:1 1374:4
-1 246:1 406:1 541:1 559:1 681:1 701:1 741:1 907:1 978:1 981:1 1231:1 1236:1 1237:1 1239:1 1241:1 1258:1 1292:1 1300:1 1313:1 1356:1 1374:1
-1 247:1 559:1 1313:1 1374:2
-1 151:1 152:1 301:1 349:1 387:1 420:1 473:1 506:1 515:1 527:1 568:1 609:1 646:1 677:1 699:1 750:1 759:1 777:1 782:1 818:1 823:1 834:1 846:1 875:1 953:1 961:1 965:1 969:1 990:1 1000:1 1083:1 1240:1 1354:1 1374:1
-1 559:1 780:1 1313:1 1374:2
-1 246:1 349:1 559:1 1155:1 1292:1 1313:1 1354:1 1374:2
-1 246:1 349:1 559:1 1155:1 1292:1 1313:1 1354:1 1374:2
-1 246:2 406:1 559:2 681:2 701:1 1231:2 1236:1 1241:1 1292:2 1313:2 1374:6
-1 559:1 1313:1 1374:2
-1 246:1 349:1 559:1 1155:1 1292:1 1313:1 1354:1 1374:2
-1 559:1 780:1 1313:1 1374:2
-1 559:1 1313:1 1374:2
-1 559:1 780:1 1313:1 1374:2
-1 246:1 349:1 406:1 559:1 681:1 981:1 1231:1 1236:1 1239:1 1292:1 1313:1 1354:1 1374:1
-1 246:1 349:1 406:1 460:1 559:1 681:1 981:1 1231:1 1236:1 1239:1 1265:1 1292:1 1313:1 1354:1 1374:1
-1 246:2 406:1 559:2 681:2 701:1 1231:2 1236:1 1241:1 1292:2 1313:2 1374:7
-1 246:1 536:1 559:1 570:1 634:1 652:1 696:1 888:1 907:1 981:1 1239:1 1292:1 1297:1 1313:1 1356:1 1357:1 1371:1 1374:2
-1 246:1 536:1 559:1 570:1 634:1 652:1 696:1 888:1 907:1 981:1 1239:1 1292:1 1297:1 1313:1 1356:1 1357:1 1371:1 1374:2
-1 246:1 536:1 559:1 570:1 634:1 652:1 696:1 888:1 907:1 981:1 1239:1 1292:1 1297:1 1313:1 1356:1 1357:1 1371:1 1374:2
-1 1112:1 1310:1 1374:1
-1 131:1 227:1 246:1 541:1 559:1 681:1 701:1 755:1 907:1 1225:1 1231:1 1241:1 1266:1 1279:1 1292:1 1300:1 1313:1 1356:1 1374:3
-1 179:1 224:1 550:1 559:1 955:1 1306:1 1313:1 1374:1
-1 179:1 455:1 550:1 559:1 955:1 1306:1 1313:1 1374:1
-1 246:1 559:1 634:1 895:1 978:1 1237:1 1292:1 1313:1 1350:1 1357:1 1374:1
-1 179:1 397:1 550:1 559:1 1306:1 1313:1 1374:1
-1 179:1 455:1 550:1 559:1 955:1 1306:1 1313:1 1374:1
-1 179:1 530:1 550:1 559:1 955:1 1306:1 1313:1 1374:1
-1 179:1 246:1 550:1 559:1 634:1 907:1 955:1 1292:1 1306:1 1313:1 1356:1 1357:1 1374:1
-1 179:1 455:1 550:1 559:1 1306:1 1313:1 1374:1
-1 246:1 349:2 541:1 559:1 634:1 681:1 701:1 780:1 907:1 978:1 981:1 1231:1 1237:1 1239:1 1241:1 1292:1 1300:1 1313:1 1354:2 1356:1 1357:1 1374:2
-1 246:1 349:2 541:1 559:1 634:1 681:1 780:1 907:1 978:1 981:1 1231:1 1237:1 1239:1 1292:1 1300:1 1313:1 1354:2 1356:1 1357:1 1374:2
-1 246:1 349:1 559:1 907:1 1292:1 1313:1 1354:1 1356:1 1374:2
-1 246:2 406:1 559:4 681:3 701:1 1231:3 1236:1 1241:1 1292:2 1313:4 1374:5
-1 229:1 241:1 349:1 420:1 445:1 489:1 506:1 642:1 677:1 759:1 760:1 786:1 811:1 869:1 877:1 881:1 945:1 953:1 1022:1 1068:1 1100:1 1104:1 1111:1 1280:1 1354:1 1374:2
-1 246:2 406:1 559:2 681:2 701:1 1231:2 1236:1 1241:1 1292:2 1313:2 1374:6
-1 246:2 406:1 559:2 681:2 701:1 1231:2 1236:1 1241:1 1292:2 1313:2 1374:7
-1 382:1 1219:1 1374:2
-1 237:1 241:1 349:1 420:1 445:1 506:1 642:1 677:1 759:1 760:1 777:1 811:1 849:1 869:1 881:1 909:1 945:1 953:1 1022:1 1100:1 1104:1 1111:1 1354:1 1374:2
-1 246:1 559:1 570:1 634:1 652:1 780:1 888:1 1292:1 1313:1 1357:1 1371:1 1374:2
-1 237:1 241:1 445:1 506:1 642:1 677:1 699:1 748:1 760:1 811:1 849:1 854:1 869:1 876:1 881:1 927:1 945:1 953:1 1022:1 1068:1 1100:1 1104:1 1240:1 1374:1
-1 131:1 246:2 406:2 438:1 559:4 681:2 701:1 907:1 1225:1 1231:2 1236:2 1241:1 1292:2 1313:4 1356:1 1374:6
-1 349:1 559:1 755:1 1266:1 1313:1 1354:1 1374:2
-1 382:1 1219:1 1374:2
-1 382:1 1219:1 1374:2
-1 382:1 1219:1 1374:2
-1 382:1 1219:1 1374:2
-1 227:1 246:1 282:1 349:1 460:1 489:1 541:1 559:1 642:1 681:1 699:1 760:1 764:1 907:1 953:1 1100:1 1155:1 1231:1 1240:1 1265:1 1279:1 1292:1 1300:1 1313:1 1354:1 1356:1 1374:3
-1 442:1 493:1 520:1 559:1 627:1 743:1 1006:1 1055:1 1189:1 1313:1 1374:1 1376:30
-1 246:1 406:1 460:1 541:1 559:1 656:1 681:1 701:1 907:1 978:1 981:1 1231:1 1236:1 1237:1 1239:1 1241:1 1265:1 1292:1 1300:1 1313:1 1356:1 1373:1 1374:2
-1 349:1 559:1 1313:1 1354:1 1374:2
-1 246:1 349:2 396:1 466:1 497:1 505:1 559:1 781:1 804:1 981:1 1239:1 1292:1 1313:1 1354:2 1374:4
-1 246:1 559:1 1292:1 1313:1 1374:4 1376:5
-1 559:1 1172:1 1313:1 1374:4
-1 131:1 246:2 406:4 541:2 559:4 621:1 656:1 681:3 701:2 907:1 978:1 981:2 1225:1 1231:3 1236:4 1237:1 1239:2 1241:2 1292:2 1300:2 1313:4 1348:1 1356:1 1373:1 1374:5
-1 131:1 246:1 541:1 559:1 681:1 701:1 907:1 981:1 1225:1 1231:1 1239:1 1241:1 1292:1 1300:1 1313:1 1356:1 1374:3
-1 128:1 131:1 246:1 460:1 541:1 559:1 681:1 701:1 837:1 907:1 981:1 1223:1 1225:1 1231:1 1239:1 1241:1 1265:1 1292:1 1300:1 1302:1 1313:1 1356:1 1374:3
-1 559:1 1313:1 1374:1
-1 174:1 241:1 349:1 445:1 506:1 510:1 642:1 677:1 759:1 760:1 777:1 811:1 823:1 869:1 881:1 923:1 945:1 953:1 1022:1 1100:1 1104:1 1111:1 1211:1 1354:1 1374:2
-1 131:1 246:1 406:1 460:1 541:1 559:1 681:1 701:1 907:1 978:1 981:1 1225:1 1231:1 1236:1 1237:1 1239:1 1241:1 1265:1 1292:1 1300:1 1313:1 1356:1 1374:1
-1 131:1 246:1 406:1 460:1 541:1 559:1 681:1 701:1 907:1 978:1 981:1 1225:1 1231:1 1236:1 1237:1 1239:1 1241:1 1265:1 1292:1 1300:1 1313:1 1356:1 1374:1
-1 131:1 246:1 406:1 460:1 541:1 559:1 681:1 701:1 907:1 978:1 981:1 1225:1 1231:1 1236:1 1237:1 1239:1 1241:1 1265:1 1292:1 1300:1 1313:1 1356:1 1374:1
-1 442:1 513:1 559:1 743:1 1055:1 1150:1 1313:1 1374:1 1376:1
-1 559:1 1189:1 1313:1 1374:2
-1 246:1 559:1 1189:1 1292:1 1313:1 1374:2
-1 325:1 559:1 1313:1 1374:2
-1 246:1 541:1 559:1 681:1 1231:1 1292:1 1300:1 1313:1 1374:1
-1 131:1 246:1 349:1 406:1 460:1 541:1 559:1 681:1 981:1 1225:1 1231:1 1236:1 1239:1 1265:1 1292:1 1300:1 1313:1 1354:1 1374:1
-1 246:1 559:1 1292:1 1313:1 1374:2
-1 246:1 559:1 681:1 1231:1 1292:1 1313:1 1374:1
-1 246:2 406:1 559:2 681:2 701:1 1231:2 1236:1 1241:1 1292:2 1313:2 1374:7
-1 310:1 349:2 559:1 1313:1 1354:2 1374:2
-1 246:1 349:1 541:1 559:1 681:1 701:1 780:1 907:1 1231:1 1241:1 1292:1 1300:1 1313:1 1354:1 1356:1 1374:2
-1 382:1 1219:1 1374:3
-1 131:1 246:2 406:3 559:4 681:2 701:1 907:1 978:1 981:1 1225:1 1231:2 1236:3 1237:1 1239:1 1241:1 1292:2 1313:4 1356:1 1374:6
-1 246:1 559:1 681:1 907:1 1231:1 1292:1 1313:1 1356:1 1374:1
-1 246:1 349:1 559:1 567:1 639:1 642:1 677:1 681:1 699:1 703:1 723:1 760:1 945:1 953:1 981:1 1100:1 1231:1 1239:1 1240:1 1292:1 1313:1 1354:1 1374:3
-1 131:1 227:1 246:1 406:1 541:1 559:1 681:1 981:1 1225:1 1231:1 1236:1 1239:1 1279:1 1292:1 1300:1 1313:1 1374:1
-1 237:1 241:1 349:1 406:1 445:1 512:1 607:1 642:1 677:1 686:1 703:1 759:1 760:1 777:1 945:1 953:1 1074:1 1100:1 1104:1 1207:1 1236:1 1354:1 1369:1 1374:2
-1 237:1 241:1 349:1 506:1 642:1 677:1 699:1 703:1 759:1 760:1 811:1 823:1 869:1 945:1 953:1 1022:1 1035:1 1068:1 1100:1 1123:1 1240:1 1354:1 1374:3
-1 349:1 559:1 1313:1 1354:1 1374:4
-1 559:1 1172:1 1313:1 1374:3
-1 246:1 349:1 559:1 681:1 701:1 907:1 978:1 1231:1 1237:1 1241:1 1292:1 1313:1 1354:1 1356:1 1374:3
-1 246:1 349:1 460:1 559:1 567:1 639:1 642:1 677:1 703:1 729:1 760:1 945:1 953:1 1100:1 1265:1 1292:1 1313:1 1354:1 1374:3
-1 188:1 241:1 307:1 445:1 506:1 642:1 677:1 693:1 699:1 759:1 760:1 823:1 869:1 876:1 901:1 945:1 953:1 1022:1 1035:1 1100:1 1123:1 1131:1 1240:1 1374:3
-1 246:1 349:1 559:1 567:1 639:1 642:1 677:1 681:1 703:1 729:1 760:1 945:1 953:1 1100:1 1231:1 1292:1 1313:1 1354:1 1374:1
-1 241:1 349:1 506:1 551:1 642:1 677:1 703:1 759:1 760:1 876:1 945:1 953:1 1100:1 1104:1 1354:1 1374:1
-1 349:1 559:1 1313:1 1354:1 1374:3
-1 246:1 349:1 407:1 457:1 495:1 541:1 559:1 681:1 699:1 701:1 842:1 981:1 1231:1 1235:1 1239:1 1240:1 1241:1 1292:1 1300:1 1313:1 1354:1 1374:2
-1 382:1 1219:1 1374:4
-1 131:1 246:1 406:1 541:1 559:1 681:1 701:1 907:1 981:1 1225:1 1231:1 1236:1 1239:1 1241:1 1292:1 1300:1 1313:1 1356:1 1374:3
-1 246:2 349:1 406:2 559:4 681:1 1231:1 1236:2 1292:2 1313:4 1354:1 1374:5
-1 349:2 559:1 1313:1 1354:2 1374:2
-1 308:1 349:1 559:1 618:1 681:1 1231:1 1313:1 1335:1 1354:1 1374:3
-1 131:1 246:1 541:1 559:1 681:1 701:1 907:1 981:1 1225:1 1231:1 1239:1 1241:1 1292:1 1300:1 1313:1 1356:1 1374:3
-1 455:1 550:1 559:1 955:1 1306:1 1313:1 1374:2
-1 241:1 267:1 326:1 349:1 445:1 486:1 642:1 676:1 677:1 699:1 760:1 766:1 811:1 869:1 881:1 945:1 953:1 1022:1 1100:1 1104:1 1111:1 1240:1 1275:1 1301:1 1354:1 1374:2
-1 131:1 246:1 291:1 382:1 406:1 460:1 559:1 576:1 681:1 981:1 1027:1 1219:1 1225:1 1231:1 1236:1 1239:1 1265:1 1292:1 1313:1 1325:1 1374:1 1376:1
-1 246:1 349:1 559:1 681:1 1231:1 1292:1 1313:1 1354:1 1374:2
-1 246:1 349:1 559:1 681:1 1231:1 1292:1 1313:1 1354:1 1374:2
-1 246:1 406:1 559:1 701:1 1236:1 1241:1 1292:1 1313:1 1374:2
-1 131:1 246:1 331:1 406:1 486:1 525:1 541:1 559:1 681:1 837:1 864:1 907:1 981:1 1207:1 1225:1 1231:1 1236:1 1239:1 1275:1 1292:1 1294:1 1300:1 1302:1 1313:1 1356:1 1369:1 1374:2
-1 131:1 246:1 331:1 406:1 486:1 525:1 541:1 559:1 681:1 837:1 864:1 907:1 981:1 1207:1 1225:1 1231:1 1236:1 1239:1 1275:1 1292:1 1294:1 1300:1 1302:1 1313:1 1356:1 1369:1 1374:2
-1 246:1 559:1 1292:1 1313:1 1374:3
-1 131:1 246:1 541:1 559:1 681:1 701:1 907:1 981:1 1225:1 1231:1 1239:1 1241:1 1292:1 1300:1 1313:1 1356:1 1374:4
-1 246:1 349:1 559:1 681:1 1231:1 1292:1 1313:1 1354:1 1374:2
-1 237:1 241:1 246:1 349:1 417:1 445:1 506:1 642:1 657:1 677:1 699:1 728:1 730:1 741:1 748:1 759:1 760:1 777:1 811:1 823:1 834:1 861:1 869:1 876:1 877:1 881:1 945:1 953:1 965:1 1022:1 1063:1 1068:1 1100:1 1104:1 1123:1 1164:1 1240:1 1258:1 1292:1 1354:1 1374:1 1376:142
-1 246:1 349:1 559:1 681:1 981:1 1063:1 1164:1 1231:1 1239:1 1292:1 1313:1 1354:1 1374:2 1376:2
-1 246:1 559:1 1292:1 1313:1 1374:3
-1 1112:1 1310:1 1374:1
-1 1112:1 1310:1 1374:1
-1 349:1 559:1 981:1 1239:1 1313:1 1354:1 1374:3
-1 246:1 349:1 559:1 1292:1 1313:1 1354:1 1374:1
-1 237:1 307:1 349:1 417:1 445:1 506:1 642:1 677:1 699:1 746:1 759:1 760:1 777:1 811:1 869:1 881:1 900:1 927:1 945:1 953:1 1022:1 1100:1 1104:1 1111:1 1123:1 1240:1 1354:1 1374:3
-1 131:1 132:1 246:1 300:1 349:1 486:1 525:1 541:1 559:1 681:1 699:1 978:1 1225:1 1226:1 1231:1 1237:1 1240:1 1275:1 1292:1 1294:1 1300:1 1313:1 1329:1 1354:1 1374:1
-1 131:1 300:1 559:1 1225:1 1313:1 1329:1 1374:1
-1 246:1 559:1 701:1 1241:1 1292:1 1313:1 1374:2
-1 382:1 1219:1 1374:3
-1 246:1 460:1 559:1 1265:1 1292:1 1313:1 1374:4
-1 246:1 349:2 559:1 634:1 981:1 1239:1 1292:1 1313:1 1354:2 1357:1 1374:3
-1 382:1 1219:1 1374:2
-1 246:1 349:2 541:1 559:1 576:1 907:1 978:1 1237:1 1292:1 1300:1 1313:1 1325:1 1354:2 1356:1 1374:3
-1 214:1 246:1 541:1 559:1 701:1 1241:1 1292:1 1300:1 1313:1 1374:3
-1 1112:1 1310:1 1374:1
-1 1112:1 1310:1 1374:1
-1 131:1 175:1 214:1 246:1 379:1 393:1 406:1 460:1 541:1 559:1 621:1 634:1 656:1 681:1 701:1 837:1 907:1 978:1 979:1 981:1 1186:1 1216:1 1225:1 1231:1 1236:1 1237:1 1239:1 1241:1 1251:1 1265:1 1292:1 1300:1 1302:1 1313:1 1348:1 1356:1 1357:1 1373:1 1374:1 1376:1025
-1 131:1 232:1 246:3 340:1 355:1 406:3 459:1 541:1 559:6 581:1 634:1 681:2 701:1 895:1 905:1 907:1 978:1 981:1 1115:1 1175:1 1225:1 1231:2 1236:3 1237:1 1239:1 1241:1 1292:3 1300:1 1313:6 1350:1 1356:1 1357:1 1374:4 1376:1
-1 131:1 246:1 393:1 406:1 541:1 559:1 681:1 690:1 701:1 907:1 978:1 981:1 1225:1 1231:1 1236:1 1237:1 1239:1 1241:1 1292:1 1300:1 1313:1 1356:1 1374:5
-1 246:1 349:2 541:1 559:1 681:1 701:1 978:1 1231:1 1237:1 1241:1 1292:1 1300:1 1313:1 1354:2 1374:3
-1 246:1 349:1 406:1 541:1 559:1 981:1 1236:1 1239:1 1292:1 1300:1 1313:1 1354:1 1374:2
-1 294:1 325:1 530:1 550:1 559:1 675:1 863:1 955:1 1001:1 1133:1 1149:1 1151:1 1195:1 1306:1 1313:1 1374:2
-1 1112:1 1310:1 1374:1
-1 131:1 217:1 232:1 246:3 323:1 340:1 349:1 355:1 406:3 541:2 559:6 634:1 681:2 701:1 780:1 895:1 905:1 907:2 981:1 1115:1 1175:2 1225:1 1231:2 1236:3 1239:1 1241:1 1292:3 1300:2 1313:6 1350:1 1354:1 1356:2 1357:1 1374:4 1376:1
-1 294:1 325:1 530:1 550:1 559:1 675:1 863:1 955:1 1133:1 1149:1 1151:1 1195:1 1306:1 1313:1 1374:1
-1 246:1 559:1 980:1 1070:1 1292:1 1313:1 1374:1
-1 131:1 246:1 541:1 559:1 681:1 701:1 907:1 981:1 1225:1 1231:1 1239:1 1241:1 1292:1 1300:1 1313:1 1356:1 1374:3
-1 246:1 349:2 559:1 681:1 1231:1 1292:1 1313:1 1354:2 1374:3
-1 159:1 246:1 379:1 523:1 536:1 541:1 559:1 634:1 681:1 701:1 727:1 907:1 978:1 981:1 1186:1 1216:1 1231:1 1237:1 1239:1 1241:1 1292:1 1297:1 1300:1 1313:1 1356:1 1357:1 1374:2
-1 246:1 379:1 406:1 536:1 541:1 559:1 634:1 681:1 701:1 907:1 978:1 981:1 1186:1 1216:1 1231:1 1236:1 1237:1 1239:1 1241:1 1292:1 1297:1 1300:1 1313:1 1356:1 1357:1 1374:4
-1 159:1 246:1 379:1 523:1 536:1 541:1 559:1 634:1 681:1 701:1 727:1 907:1 978:1 981:1 1186:1 1216:1 1231:1 1237:1 1239:1 1241:1 1292:1 1297:1 1300:1 1313:1 1356:1 1357:1 1374:2
-1 159:1 246:1 379:1 523:1 536:1 541:1 559:1 634:1 681:1 701:1 727:1 907:1 978:1 981:1 1089:1 1186:1 1216:1 1231:1 1237:1 1239:1 1241:1 1292:1 1297:1 1300:1 1313:1 1356:1 1357:1 1374:4
-1 382:1 1219:1 1374:3
-1 131:1 246:1 379:1 406:1 541:1 559:1 621:1 634:1 681:1 690:1 701:1 810:1 907:1 978:1 981:1 1216:1 1225:1 1231:1 1236:1 1237:1 1239:1 1241:1 1291:1 1292:1 1300:1 1313:1 1348:1 1356:1 1357:1 1374:2
-1 382:1 1219:1 1374:3
-1 246:1 349:1 536:1 541:1 550:1 559:1 618:1 634:1 681:1 780:1 907:1 978:1 1231:1 1237:1 1292:1 1297:1 1300:1 1306:1 1313:1 1354:1 1356:1 1357:1 1374:2 1376:202
-1 131:1 246:1 541:1 559:1 681:1 701:1 907:1 981:1 1225:1 1231:1 1239:1 1241:1 1292:1 1300:1 1313:1 1356:1 1374:3
-1 246:1 406:1 530:1 559:1 1236:1 1292:1 1313:1 1374:4
-1 131:1 246:2 365:1 406:2 541:1 559:5 681:2 701:1 907:1 978:1 1225:1 1231:2 1236:2 1237:1 1241:1 1292:2 1300:1 1313:5 1356:1 1370:1 1374:7
-1 382:1 1219:1 1374:3
-1 382:1 1219:1 1374:2
-1 246:1 353:1 541:1 559:1 681:1 980:1 1108:1 1231:1 1292:1 1300:1 1313:1 1374:1
-1 349:1 504:1 559:1 1313:1 1354:1 1374:7
-1 246:1 349:2 559:1 634:1 755:1 1266:1 1292:1 1313:1 1354:2 1357:1 1374:3
-1 131:1 246:1 406:1 460:1 541:1 559:1 681:1 701:1 895:1 907:1 978:1 981:1 1225:1 1231:1 1236:1 1237:1 1239:1 1241:1 1265:1 1292:1 1300:1 1313:1 1350:1 1356:1 1374:1
-1 246:1 349:2 541:1 559:1 621:1 634:1 681:1 780:1 907:1 981:1 1231:1 1239:1 1292:1 1300:1 1313:1 1348:1 1354:2 1356:1 1357:1 1374:2
-1 131:1 246:1 541:1 559:1 681:1 701:1 907:1 981:1 1225:1 1231:1 1239:1 1241:1 1292:1 1300:1 1313:1 1356:1 1374:3
-1 184:1 225:1 246:1 278:1 406:1 449:1 541:1 559:1 575:1 681:1 701:1 829:1 907:1 978:1 980:1 981:1 999:1 1108:1 1143:1 1231:1 1236:1 1237:1 1239:1 1241:1 1292:1 1300:1 1313:1 1356:1 1374:1 1376:1
-1 246:1 406:1 541:1 559:1 681:1 980:1 981:1 1231:1 1236:1 1239:1 1292:1 1300:1 1313:1 1374:1
-1 486:1 525:1 559:1 681:1 980:1 1231:1 1275:1 1294:1 1313:1 1374:2
-1 267:1 449:1 559:1 576:1 681:1 755:1 980:1 1231:1 1266:1 1301:1 1313:1 1325:1 1374:3
-1 156:1 184:1 225:1 246:1 406:1 449:1 460:1 541:1 559:1 575:1 681:1 701:1 810:1 829:1 895:1 907:1 943:1 962:1 978:1 980:1 981:1 999:1 1108:1 1143:1 1231:1 1236:1 1237:1 1239:1 1241:1 1265:1 1291:1 1292:1 1300:1 1313:1 1350:1 1356:1 1374:2
-1 184:1 225:1 246:1 406:1 449:1 541:1 559:1 575:1 701:1 829:1 907:1 980:1 981:1 999:1 1108:1 1143:1 1236:1 1239:1 1241:1 1292:1 1300:1 1313:1 1356:1 1374:2
-1 227:1 246:1 406:1 486:1 541:1 559:1 634:1 681:1 741:1 755:1 907:1 980:1 981:1 1231:1 1236:1 1239:1 1258:1 1266:1 1275:1 1279:1 1292:1 1300:1 1313:1 1356:1 1357:1 1374:1 1376:30
-1 246:1 406:1 559:1 681:1 980:1 981:1 1108:1 1231:1 1236:1 1239:1 1292:1 1313:1 1374:1
-1 246:1 406:1 460:1 541:1 559:1 681:1 701:1 895:1 907:1 980:1 981:1 1108:1 1231:1 1236:1 1239:1 1241:1 1265:1 1292:1 1300:1 1313:1 1350:1 1356:1 1374:1
-1 246:1 406:1 449:1 460:1 541:1 559:1 575:1 667:1 681:1 810:1 829:1 895:1 907:1 980:1 981:1 999:1 1108:1 1143:1 1231:1 1236:1 1239:1 1265:1 1291:1 1292:1 1300:1 1313:1 1350:1 1356:1 1374:1 1376:11
-1 246:1 406:1 486:1 541:1 559:1 681:1 755:1 780:1 980:1 981:1 1231:1 1236:1 1239:1 1266:1 1275:1 1292:1 1300:1 1313:1 1374:1
-1 382:1 1219:1 1374:4
-1 246:1 406:1 460:1 541:1 559:1 621:1 681:1 701:1 741:1 895:1 907:1 981:1 1231:1 1236:1 1239:1 1241:1 1258:1 1265:1 1292:1 1300:1 1313:1 1348:1 1350:1 1356:1 1374:1
-1 382:1 1219:1 1374:2
-1 1112:1 1310:1 1374:1
-1 246:1 406:1 407:1 460:1 541:1 559:1 634:1 681:1 701:1 907:1 978:1 1231:1 1235:1 1236:1 1237:1 1241:1 1265:1 1292:1 1300:1 1313:1 1356:1 1357:1 1374:6
-1 131:1 246:1 559:1 681:1 907:1 978:1 1225:1 1231:1 1237:1 1292:1 1313:1 1356:1 1374:1
-1 308:1 348:1 349:1 541:1 559:1 681:1 910:1 1089:1 1231:1 1300:1 1313:1 1335:1 1354:1 1374:2
-1 246:2 406:2 550:2 559:4 634:1 681:2 701:1 907:1 955:1 978:1 1231:2 1236:2 1237:1 1241:1 1292:2 1306:2 1313:4 1356:1 1357:1 1374:6
-1 131:1 246:1 541:1 559:1 681:1 701:1 907:1 981:1 1225:1 1231:1 1239:1 1241:1 1292:1 1300:1 1313:1 1356:1 1374:3
-1 246:2 406:1 559:2 681:2 701:1 1231:2 1236:1 1241:1 1292:2 1313:2 1374:6
-1 246:1 559:1 681:1 780:1 974:1 981:1 1231:1 1239:1 1292:1 1313:1 1374:3
-1 246:1 559:1 681:1 780:1 974:1 981:1 1231:1 1239:1 1292:1 1313:1 1374:3
-1 294:1 325:1 530:1 550:1 559:1 675:1 955:1 1133:1 1149:1 1151:1 1306:1 1313:1 1374:2
-1 247:1 321:1 466:1 559:1 781:1 1048:1 1313:1 1374:1
-1 246:1 293:1 321:1 342:1 559:1 570:1 623:1 634:1 688:1 852:1 981:1 1239:1 1292:1 1313:1 1357:1 1374:2
-1 382:1 1219:1 1374:2
-1 406:1 559:1 981:1 1134:1 1236:1 1239:1 1313:1 1374:2
-1 246:1 406:1 460:1 541:1 559:1 681:1 981:1 1231:1 1236:1 1239:1 1265:1 1292:1 1300:1 1313:1 1374:1
-1 131:1 227:1 267:1 460:1 541:1 559:1 576:1 681:1 1225:1 1231:1 1265:1 1279:1 1300:1 1301:1 1313:1 1325:1 1374:1
-1 246:1 349:1 541:1 559:1 1292:1 1300:1 1313:1 1354:1 1374:2
-1 131:1 246:2 406:3 541:1 559:1 681:2 701:1 907:1 978:1 981:1 1225:1 1231:2 1236:3 1237:1 1239:1 1241:1 1292:2 1300:1 1313:1 1356:1 1374:12
-1 246:1 559:1 1292:1 1313:1 1374:1
-1 173:1 349:1 406:1 514:1 559:1 642:1 670:1 681:1 703:1 760:1 945:1 1100:1 1134:1 1164:1 1231:1 1236:1 1313:1 1354:1 1374:1
-1 151:1 173:1 216:1 237:1 241:1 349:1 378:1 406:1 417:1 420:1 445:1 506:1 512:1 614:1 642:1 657:1 677:1 699:1 703:1 759:1 760:1 777:1 811:1 823:1 869:1 881:1 945:1 953:1 985:1 1022:1 1035:1 1068:1 1100:1 1104:1 1110:1 1123:1 1134:1 1158:1 1185:1 1207:1 1236:1 1240:1 1338:1 1354:1 1369:1 1374:1
-1 246:1 247:1 382:1 406:1 460:1 541:1 559:1 681:1 762:1 907:1 981:1 1219:1 1231:1 1236:1 1239:1 1265:1 1292:1 1300:1 1313:1 1356:1 1374:1
-1 131:1 246:2 379:1 406:3 407:1 541:2 559:4 634:1 681:2 701:1 907:1 978:1 981:1 1216:1 1225:1 1231:2 1235:1 1236:3 1237:1 1239:1 1241:1 1292:2 1300:2 1313:4 1356:1 1357:1 1374:6
-1 246:1 247:1 395:1 406:1 530:1 559:1 634:1 780:1 981:1 1236:1 1239:1 1292:1 1313:1 1357:1 1374:1 1376:75
-1 559:1 634:1 1042:1 1313:1 1357:1 1374:2
-1 246:1 392:1 559:1 907:1 1292:1 1313:1 1356:1 1374:1
-1 117:1 128:1 174:1 241:1 280:1 298:1 307:1 349:1 358:1 420:1 445:1 479:1 506:1 535:1 642:1 657:1 677:1 728:1 755:1 759:1 760:1 766:1 811:1 834:1 869:1 881:1 945:1 953:1 965:1 1022:1 1035:1 1100:1 1104:1 1111:1 1123:1 1211:1 1223:1 1266:1 1272:1 1328:1 1354:1 1374:2
-1 382:1 1219:1 1374:3
-1 246:1 559:1 1292:1 1313:1 1374:1
-1 131:1 246:1 541:1 559:1 681:1 701:1 907:1 981:1 1225:1 1231:1 1239:1 1241:1 1292:1 1300:1 1313:1 1356:1 1374:2
-1 246:1 349:1 460:1 541:1 559:1 681:1 907:1 1231:1 1265:1 1292:1 1300:1 1313:1 1354:1 1356:1 1374:3
-1 246:1 349:1 406:1 460:1 541:1 559:1 681:1 699:1 701:1 981:1 1231:1 1236:1 1239:1 1240:1 1241:1 1265:1 1292:1 1300:1 1313:1 1354:1 1374:2
-1 382:1 1219:1 1374:3
-1 131:1 246:2 406:2 541:1 559:4 681:2 701:1 907:1 1225:1 1231:2 1236:2 1241:1 1292:2 1300:1 1313:4 1356:1 1374:6
-1 246:2 406:1 559:3 681:2 701:1 907:1 1231:2 1236:1 1241:1 1292:2 1313:3 1356:1 1374:6
-1 131:1 246:1 349:1 358:1 460:1 559:1 656:1 697:1 699:1 755:1 1157:1 1225:1 1240:1 1265:1 1266:1 1292:1 1313:1 1354:1 1373:1 1374:2
-1 246:2 406:1 559:2 681:2 701:1 1231:2 1236:1 1241:1 1292:2 1313:2 1374:8
-1 246:1 349:1 541:1 559:1 681:1 1231:1 1292:1 1300:1 1313:1 1354:1 1374:4
-1 246:1 541:1 559:1 1292:1 1300:1 1313:1 1374:2
-1 349:1 559:1 642:1 677:1 703:1 760:1 945:1 953:1 1100:1 1313:1 1354:1 1374:2
-1 214:1 246:1 541:1 559:1 681:1 701:1 780:1 907:1 978:1 981:1 1231:1 1237:1 1239:1 1241:1 1292:1 1300:1 1313:1 1356:1 1374:2
-1 246:1 349:1 541:1 559:1 681:1 699:1 701:1 1231:1 1240:1 1241:1 1292:1 1300:1 1313:1 1354:1 1374:2
-1 343:1 559:1 1313:1 1374:3
-1 349:2 559:1 1313:1 1354:2 1374:2
-1 349:2 559:1 1313:1 1354:2 1374:2
-1 246:2 406:1 559:2 681:2 701:1 1231:2 1236:1 1241:1 1292:2 1313:2 1374:7
-1 349:2 559:1 1313:1 1354:2 1374:2
-1 349:2 559:1 1313:1 1354:2 1374:2
-1 145:1 349:2 550:1 559:1 933:1 947:1 1306:1 1313:1 1354:2 1374:6
-1 349:1 536:1 559:1 1297:1 1313:1 1354:1 1374:3
-1 246:2 406:3 541:1 559:6 681:1 981:1 1231:1 1236:3 1239:1 1292:2 1300:1 1313:6 1374:5
-1 246:1 349:1 541:1 550:1 559:1 618:1 634:1 681:1 907:1 955:1 981:1 1231:1 1239:1 1292:1 1300:1 1306:1 1313:1 1354:1 1356:1 1357:1 1374:2
-1 343:1 559:1 1313:1 1374:3
-1 246:1 318:1 349:1 406:1 559:1 681:1 699:1 741:1 981:1 1207:1 1231:1 1236:1 1239:1 1240:1 1258:1 1292:1 1313:1 1354:1 1369:1 1374:1
-1 241:1 246:1 349:1 406:1 445:1 506:1 559:1 642:1 677:1 703:1 742:1 760:1 811:1 881:1 945:1 953:1 981:1 1100:1 1104:1 1236:1 1239:1 1292:1 1313:1 1354:1 1374:1
-1 220:1 246:1 266:1 298:1 349:1 378:1 406:1 559:1 606:1 681:1 699:1 719:1 741:1 975:1 981:1 1110:1 1134:1 1207:1 1231:1 1236:1 1239:1 1240:1 1258:1 1292:1 1313:1 1328:1 1343:1 1354:1 1369:1 1374:1 1376:18
-1 628:1 1374:1
-1 559:1 1313:1 1374:1
-1 246:1 349:1 559:1 843:1 1292:1 1313:1 1354:1 1374:2
-1 246:1 559:1 681:1 701:1 907:1 1231:1 1241:1 1292:1 1313:1 1356:1 1374:4
-1 131:1 246:1 541:1 559:1 681:1 701:1 907:1 981:1 1225:1 1231:1 1239:1 1241:1 1292:1 1300:1 1313:1 1356:1 1374:2
-1 349:1 544:1 642:1 677:1 760:1 877:1 945:1 953:1 1100:1 1354:1 1374:2
-1 246:1 384:1 523:1 541:1 559:1 626:1 634:1 643:1 644:1 755:1 1266:1 1292:1 1300:1 1313:1 1357:1 1374:1
-1 131:1 246:1 541:1 559:1 681:1 701:1 907:1 981:1 1225:1 1231:1 1239:1 1241:1 1292:1 1300:1 1313:1 1356:1 1374:3
-1 246:2 406:1 559:2 681:2 701:1 1231:2 1236:1 1241:1 1292:2 1313:2 1374:6
-1 246:2 406:2 559:4 681:2 701:1 780:1 907:1 978:1 1231:2 1236:2 1237:1 1241:1 1292:2 1313:4 1356:1 1374:6
-1 131:1 246:1 541:1 559:1 681:1 907:1 978:1 981:1 1225:1 1231:1 1237:1 1239:1 1292:1 1300:1 1313:1 1356:1 1374:2
-1 382:1 1219:1 1374:3
-1 241:1 261:1 349:1 420:1 445:1 506:1 642:1 677:1 699:1 703:1 760:1 811:1 823:1 869:1 876:1 945:1 953:1 1022:1 1100:1 1104:1 1111:1 1123:1 1131:1 1240:1 1354:1 1374:2
-1 142:1 216:1 220:1 237:1 241:1 264:1 280:1 298:1 307:1 349:1 420:1 445:1 489:1 506:1 525:1 614:1 640:1 642:1 674:1 677:1 699:1 711:1 720:1 730:1 734:1 759:1 760:1 766:1 777:1 811:1 834:1 862:1 869:1 876:1 877:1 881:1 927:1 945:1 953:1 965:1 1022:1 1054:1 1060:1 1095:1 1100:1 1104:1 1123:1 1185:1 1207:1 1211:1 1240:1 1294:1 1328:1 1354:1 1361:1 1369:1 1374:4
-1 142:1 216:1 237:1 241:1 349:1 489:1 506:1 640:1 642:1 674:1 677:1 699:1 711:1 748:1 759:1 760:1 777:1 811:1 862:1 869:1 876:1 945:1 953:1 1022:1 1100:1 1123:1 1240:1 1354:1 1361:1 1374:4
-1 168:1 220:1 237:1 241:1 280:1 307:1 349:1 406:1 445:1 506:1 642:1 677:1 699:1 703:1 730:1 759:1 760:1 854:1 869:1 876:1 881:1 945:1 953:1 1022:1 1068:1 1100:1 1103:1 1123:1 1236:1 1240:1 1354:1 1374:4
-1 131:1 246:1 406:1 541:1 559:1 634:1 681:1 701:1 907:1 978:1 1225:1 1231:1 1236:1 1237:1 1241:1 1292:1 1300:1 1313:1 1356:1 1357:1 1374:5
-1 237:1 241:1 280:1 298:1 307:1 349:1 406:1 420:1 445:1 506:1 642:1 677:1 699:1 703:1 759:1 760:1 766:1 811:1 823:1 849:1 869:1 881:1 945:1 953:1 1022:1 1100:1 1104:1 1111:1 1123:1 1131:1 1207:1 1211:1 1236:1 1240:1 1328:1 1354:1 1369:1 1374:1
-1 131:1 246:1 349:1 559:1 681:1 701:1 864:1 907:1 1225:1 1231:1 1241:1 1292:1 1313:1 1354:1 1356:1 1374:2
-1 132:1 246:1 318:1 349:1 406:1 460:1 486:1 541:1 559:1 634:1 681:1 699:1 701:1 755:1 810:1 895:1 907:1 978:1 981:1 1164:1 1226:1 1231:1 1236:1 1237:1 1239:1 1240:1 1241:1 1265:1 1266:1 1275:1 1291:1 1292:1 1300:1 1313:1 1350:1 1354:1 1356:1 1357:1 1374:1
-1 246:1 349:1 559:1 681:1 755:1 780:1 907:1 1231:1 1266:1 1292:1 1313:1 1354:1 1356:1 1374:2
-1 131:1 246:1 349:1 460:1 559:1 699:1 755:1 1225:1 1240:1 1265:1 1266:1 1292:1 1313:1 1354:1 1374:2
-1 559:1 1313:1 1374:1
-1 131:1 246:1 349:1 358:1 460:1 559:1 681:1 699:1 755:1 858:1 1157:1 1158:1 1225:1 1231:1 1240:1 1265:1 1266:1 1292:1 1313:1 1338:1 1354:1 1374:1
-1 131:1 246:1 559:1 681:1 755:1 907:1 978:1 1225:1 1231:1 1237:1 1266:1 1292:1 1313:1 1356:1 1374:1
-1 246:1 349:1 406:1 460:1 541:1 559:1 594:1 681:1 907:1 981:1 1231:1 1236:1 1239:1 1265:1 1292:1 1300:1 1313:1 1354:1 1356:1 1374:1
-1 382:1 1219:1 1374:5
-1 382:1 1219:1 1374:3
-1 128:1 142:1 237:1 241:1 260:1 307:1 349:1 406:1 417:1 445:1 486:1 506:1 511:1 512:1 567:1 639:1 642:1 645:1 676:1 677:1 699:1 703:1 729:1 759:1 760:1 766:1 777:1 785:1 811:1 869:1 876:1 881:1 945:1 948:1 953:1 995:1 1022:1 1060:1 1068:1 1084:1 1100:1 1104:1 1118:1 1123:1 1131:1 1147:1 1207:1 1208:1 1211:1 1223:1 1236:1 1240:1 1275:1 1286:1 1354:1 1369:1 1374:2
-1 237:1 241:1 298:1 307:1 349:1 400:1 417:1 445:1 506:1 642:1 677:1 699:1 730:1 759:1 760:1 811:1 849:1 864:1 869:1 877:1 881:1 945:1 953:1 1022:1 1035:1 1100:1 1104:1 1123:1 1207:1 1240:1 1328:1 1354:1 1369:1 1374:2
-1 246:1 310:1 550:1 559:1 907:1 955:1 1292:1 1306:1 1313:1 1356:1 1374:3
-1 246:2 406:1 559:4 681:3 701:1 1231:3 1236:1 1241:1 1292:2 1313:4 1374:5
-1 246:1 349:1 559:1 1292:1 1313:1 1354:1 1374:5
-1 246:1 349:1 406:1 541:1 559:1 634:1 681:1 701:1 907:1 978:1 981:1 1231:1 1236:1 1237:1 1239:1 1241:1 1292:1 1300:1 1313:1 1354:1 1356:1 1357:1 1374:2
-1 382:1 1219:1 1374:3
-1 241:1 349:1 506:1 512:1 567:1 639:1 642:1 677:1 703:1 729:1 759:1 760:1 876:1 945:1 953:1 1050:1 1100:1 1104:1 1354:1 1374:2
-1 131:1 246:1 541:1 559:1 681:1 701:1 907:1 981:1 1225:1 1231:1 1239:1 1241:1 1292:1 1300:1 1313:1 1356:1 1374:3
-1 131:1 246:1 541:1 559:1 681:1 701:1 907:1 981:1 1225:1 1231:1 1239:1 1241:1 1292:1 1300:1 1313:1 1356:1 1374:2
-1 241:1 280:1 307:1 349:1 378:1 406:1 417:1 445:1 506:1 642:1 657:1 677:1 699:1 703:1 759:1 760:1 777:1 811:1 834:1 866:1 869:1 877:1 881:1 927:1 945:1 953:1 1022:1 1054:1 1060:1 1068:1 1100:1 1104:1 1123:1 1131:1 1207:1 1236:1 1240:1 1354:1 1369:1 1374:2
-1 131:1 246:1 541:1 559:1 681:1 701:1 907:1 981:1 1225:1 1231:1 1239:1 1241:1 1292:1 1300:1 1313:1 1356:1 1374:3
-1 246:1 406:1 460:1 541:1 559:1 681:1 701:1 907:1 978:1 981:1 1152:1 1231:1 1236:1 1237:1 1239:1 1241:1 1265:1 1292:1 1300:1 1313:1 1334:1 1356:1 1374:2
-1 246:1 349:1 559:1 1292:1 1313:1 1354:1 1374:5
-1 382:1 1219:1 1374:4
-1 131:1 246:1 349:1 460:1 541:1 559:1 576:1 681:1 699:1 864:1 981:1 1207:1 1225:1 1231:1 1239:1 1240:1 1265:1 1292:1 1300:1 1313:1 1325:1 1354:1 1369:1 1374:2
-1 131:1 132:1 175:1 246:1 267:1 334:1 349:1 406:1 460:1 486:1 525:1 541:1 559:1 576:1 606:1 681:1 699:1 701:1 773:1 837:1 981:1 1225:1 1226:1 1231:1 1236:1 1239:1 1240:1 1241:1 1251:1 1265:1 1275:1 1292:1 1294:1 1300:1 1301:1 1302:1 1313:1 1325:1 1343:1 1346:1 1354:1 1374:1
-1 131:1 246:1 349:1 559:1 681:1 701:1 907:1 1225:1 1231:1 1241:1 1292:1 1313:1 1354:1 1356:1 1374:2
-1 246:1 349:1 406:1 495:1 551:1 559:1 567:1 642:1 677:1 699:1 703:1 760:1 945:1 953:1 981:1 1100:1 1236:1 1239:1 1240:1 1292:1 1313:1 1354:1 1374:2
-1 382:1 1219:1 1374:4
-1 382:1 1219:1 1374:2
-1 382:1 1219:1 1374:3
-1 382:1 1219:1 1374:2
-1 246:1 406:1 407:1 460:1 541:1 559:1 681:1 701:1 907:1 978:1 981:1 1152:1 1231:1 1235:1 1236:1 1237:1 1239:1 1241:1 1265:1 1292:1 1300:1 1313:1 1334:1 1356:1 1374:2
-1 349:1 567:1 639:1 642:1 677:1 760:1 777:1 945:1 953:1 1100:1 1131:1 1354:1 1374:2
-1 241:1 349:1 506:1 551:1 642:1 677:1 703:1 759:1 760:1 876:1 945:1 953:1 1100:1 1104:1 1354:1 1374:1
-1 246:1 349:1 559:1 1292:1 1313:1 1354:1 1374:4
-1 382:1 1219:1 1374:3
-1 131:1 246:1 541:1 559:1 681:1 701:1 907:1 981:1 1225:1 1231:1 1239:1 1241:1 1292:1 1300:1 1313:1 1356:1 1374:3
-1 382:1 1219:1 1374:3
-1 349:1 406:1 559:1 981:1 1236:1 1239:1 1313:1 1354:1 1374:2
-1 246:1 349:1 541:1 559:1 681:1 701:1 907:1 981:1 1231:1 1239:1 1241:1 1292:1 1300:1 1313:1 1354:1 1356:1 1374:2
-1 246:1 349:1 559:1 681:1 701:1 907:1 981:1 1231:1 1239:1 1241:1 1292:1 1313:1 1354:1 1356:1 1374:2
-1 214:1 246:1 541:1 559:1 681:1 701:1 907:1 981:1 1231:1 1239:1 1241:1 1292:1 1300:1 1313:1 1356:1 1374:2
-1 246:1 247:1 559:1 681:1 701:1 907:1 981:1 1231:1 1239:1 1241:1 1292:1 1313:1 1356:1 1374:2
-1 246:1 541:1 559:1 681:1 701:1 907:1 981:1 1231:1 1239:1 1241:1 1292:1 1300:1 1313:1 1356:1 1374:1
-1 131:1 246:1 406:1 541:1 559:1 634:1 656:1 681:1 701:1 780:1 907:1 978:1 981:1 1225:1 1231:1 1236:1 1237:1 1239:1 1241:1 1292:1 1300:1 1313:1 1356:1 1357:1 1373:1 1374:4
-1 246:1 349:1 406:1 541:1 559:1 981:1 1236:1 1239:1 1292:1 1300:1 1313:1 1354:1 1374:2
-1 246:1 406:1 460:1 541:1 559:1 681:1 755:1 907:1 981:1 1231:1 1236:1 1239:1 1265:1 1266:1 1292:1 1300:1 1313:1 1356:1 1374:2
-1 1374:2
-1 142:1 146:1 211:1 216:1 237:1 241:1 282:1 298:1 307:1 349:1 420:1 444:1 445:1 469:1 489:1 506:1 535:1 614:1 642:1 676:1 677:1 699:1 728:1 745:1 748:1 751:1 759:1 760:1 811:1 814:1 823:1 834:1 849:1 869:1 876:1 881:1 945:1 953:1 965:1 1022:1 1045:1 1054:1 1068:1 1100:1 1104:1 1123:1 1126:1 1131:1 1132:1 1185:1 1207:1 1240:1 1328:1 1354:1 1369:1 1374:1
-1 246:1 348:1 349:2 406:1 559:1 652:1 895:1 907:1 1040:1 1236:1 1292:1 1313:1 1350:1 1354:2 1356:1 1371:1 1374:2
-1 241:1 349:1 506:1 642:1 677:1 699:1 703:1 742:1 760:1 811:1 869:1 945:1 953:1 1022:1 1100:1 1104:1 1111:1 1123:1 1240:1 1354:1 1374:3
-1 246:1 365:1 406:1 407:1 460:1 541:1 559:1 621:1 634:1 681:1 701:1 755:1 895:1 907:1 978:1 981:1 1152:1 1231:1 1235:1 1236:1 1237:1 1239:1 1241:1 1265:1 1266:1 1292:1 1300:1 1313:1 1334:1 1348:1 1350:1 1356:1 1357:1 1370:1 1374:1
-1 1112:1 1310:1 1374:1
-1 382:1 1219:1 1374:4
-1 246:1 541:1 559:1 681:1 701:1 810:1 907:1 978:1 1231:1 1237:1 1241:1 1291:1 1292:1 1300:1 1313:1 1356:1 1374:1
-1 131:1 246:2 406:2 541:2 559:4 681:2 701:1 907:1 978:1 981:1 1225:1 1231:2 1236:2 1237:1 1239:1 1241:1 1292:2 1300:2 1313:4 1356:1 1374:6
-1 131:1 246:1 406:1 541:1 559:1 681:1 701:1 907:1 978:1 981:1 1225:1 1231:1 1236:1 1237:1 1239:1 1241:1 1292:1 1300:1 1313:1 1356:1 1374:5
-1 246:1 406:1 460:1 541:1 559:1 681:1 701:1 810:1 907:1 978:1 981:1 1231:1 1236:1 1237:1 1239:1 1241:1 1265:1 1291:1 1292:1 1300:1 1313:1 1356:1 1374:2
-1 349:1 460:1 559:1 1265:1 1313:1 1354:1 1374:2
-1 1374:2
-1 155:1 203:1 241:1 307:1 349:1 417:1 506:1 642:1 677:1 735:1 782:1 786:1 811:1 869:1 953:1 1058:1 1083:1 1111:1 1123:1 1131:1 1132:1 1354:1 1374:2 1376:2
-1 155:1 203:1 241:1 307:1 349:1 506:1 642:1 677:1 735:1 786:1 869:1 953:1 969:1 1083:1 1111:1 1123:1 1131:1 1354:1 1374:3
-1 131:1 246:1 349:1 406:1 460:1 541:1 559:1 634:1 681:1 699:1 741:1 850:1 895:1 907:1 954:1 981:1 987:1 1135:1 1207:1 1225:1 1231:1 1236:1 1239:1 1240:1 1258:1 1265:1 1292:1 1300:1 1313:1 1350:1 1354:1 1356:1 1357:1 1369:1 1374:2
-1 246:2 406:1 559:4 681:3 701:1 1231:3 1236:1 1241:1 1292:2 1313:4 1374:4
-1 1112:1 1310:1 1374:1
-1 382:1 1219:1 1374:3
-1 131:1 246:1 541:1 559:1 681:1 701:1 907:1 981:1 1225:1 1231:1 1239:1 1241:1 1292:1 1300:1 1313:1 1356:1 1374:3
-1 246:1 406:1 460:1 541:1 559:1 681:1 981:1 1231:1 1236:1 1239:1 1265:1 1292:1 1300:1 1313:1 1374:2
-1 246:1 349:1 541:1 559:1 642:1 677:1 760:1 945:1 953:1 1100:1 1292:1 1300:1 1313:1 1354:1 1374:2
-1 246:2 406:1 559:2 681:2 701:1 1231:2 1236:1 1241:1 1292:2 1313:2 1374:7
-1 559:1 681:1 980:1 1231:1 1313:1 1374:2 1376:3
-1 246:1 406:1 460:1 541:1 559:1 701:1 907:1 981:1 1236:1 1239:1 1241:1 1265:1 1292:1 1300:1 1313:1 1356:1 1374:2
-1 246:1 349:2 541:1 559:1 907:1 978:1 1237:1 1292:1 1300:1 1313:1 1354:2 1356:1 1374:3
-1 349:1 559:1 1009:1 1313:1 1354:1 1374:3
-1 246:1 349:1 406:1 460:1 463:1 486:1 541:1 559:1 681:1 699:1 837:1 981:1 1231:1 1236:1 1239:1 1240:1 1265:1 1275:1 1292:1 1300:1 1302:1 1313:1 1354:1 1374:2
-1 246:1 349:1 406:1 460:1 486:1 541:1 559:1 645:1 681:1 701:1 837:1 981:1 1231:1 1236:1 1239:1 1241:1 1265:1 1275:1 1292:1 1300:1 1302:1 1313:1 1354:1 1374:2
-1 241:1 349:1 445:1 506:1 642:1 677:1 699:1 745:1 759:1 760:1 881:1 945:1 953:1 1022:1 1068:1 1100:1 1123:1 1131:1 1240:1 1354:1 1374:2
-1 246:1 349:1 495:1 541:1 559:1 567:1 639:1 642:1 677:1 681:1 699:1 703:1 760:1 945:1 953:1 981:1 1100:1 1157:1 1207:1 1231:1 1239:1 1240:1 1292:1 1300:1 1313:1 1354:1 1369:1 1374:3
-1 241:1 307:1 349:1 445:1 506:1 614:1 642:1 677:1 699:1 703:1 742:1 759:1 760:1 766:1 811:1 823:1 869:1 876:1 881:1 927:1 945:1 953:1 1022:1 1035:1 1100:1 1104:1 1111:1 1123:1 1131:1 1240:1 1354:1 1374:2 1376:191
-1 128:1 241:1 307:1 349:1 445:1 506:1 642:1 677:1 711:1 759:1 760:1 786:1 806:1 811:1 823:1 869:1 876:1 881:1 927:1 941:1 945:1 953:1 1022:1 1035:1 1068:1 1100:1 1104:1 1111:1 1123:1 1132:1 1223:1 1354:1 1374:1
-1 237:1 241:1 307:1 345:1 349:1 445:1 506:1 642:1 677:1 699:1 742:1 745:1 759:1 760:1 777:1 811:1 869:1 881:1 945:1 953:1 1059:1 1068:1 1100:1 1104:1 1123:1 1240:1 1278:1 1354:1 1374:1
-1 530:1 559:1 681:1 755:1 799:1 865:1 939:1 1202:1 1231:1 1266:1 1313:1 1374:2
-1 141:1 559:1 681:1 805:1 865:1 1231:1 1313:1 1374:2
-1 349:1 559:1 981:1 1239:1 1313:1 1354:1 1374:2
-1 246:1 305:1 349:1 371:1 406:1 407:1 559:1 567:1 639:1 667:1 681:1 729:1 810:1 895:1 907:1 981:1 987:1 1084:1 1121:1 1231:1 1235:1 1236:1 1239:1 1291:1 1292:1 1313:1 1350:1 1354:1 1356:1 1374:3
-1 128:1 227:1 246:1 267:1 274:1 307:1 349:1 406:1 460:1 541:1 559:1 606:1 681:1 699:1 780:1 907:1 981:1 1223:1 1231:1 1236:1 1239:1 1240:1 1265:1 1279:1 1292:1 1300:1 1301:1 1313:1 1343:1 1354:1 1356:1 1374:1
-1 349:1 559:1 681:1 1231:1 1313:1 1354:1 1374:3
-1 246:1 349:1 406:1 541:1 559:1 681:1 907:1 981:1 1231:1 1236:1 1239:1 1292:1 1300:1 1313:1 1354:1 1356:1 1374:1
-1 349:1 559:1 1313:1 1354:1 1374:3
-1 246:1 349:1 406:1 460:1 559:1 681:1 895:1 907:1 981:1 1231:1 1236:1 1239:1 1265:1 1292:1 1313:1 1350:1 1354:1 1356:1 1374:2 1376:1
-1 246:2 406:1 559:2 681:2 701:1 1231:2 1236:1 1241:1 1292:2 1313:2 1374:6
-1 1374:1
-1 132:1 175:1 246:1 266:1 274:1 349:1 406:1 460:1 541:1 559:1 634:1 681:1 699:1 701:1 907:1 978:1 981:1 1207:1 1226:1 1231:1 1236:1 1237:1 1239:1 1240:1 1241:1 1251:1 1265:1 1292:1 1300:1 1313:1 1354:1 1356:1 1357:1 1369:1 1374:1
-1 382:1 1219:1 1374:3
-1 349:1 406:1 541:1 559:1 681:1 703:1 967:1 1023:1 1231:1 1236:1 1300:1 1313:1 1354:1 1374:1
-1 131:1 246:2 406:2 559:5 681:2 701:1 907:1 1225:1 1231:2 1236:2 1241:1 1292:2 1313:5 1356:1 1374:6
-1 246:1 296:1 470:1 559:1 576:1 681:1 755:1 802:1 1032:1 1081:1 1200:1 1231:1 1266:1 1292:1 1313:1 1325:1 1374:1
-1 174:1 188:1 267:1 365:1 460:1 484:1 541:1 559:1 567:1 639:1 642:1 665:1 677:1 681:1 693:1 699:1 703:1 729:1 760:1 777:1 787:1 849:1 869:1 876:1 881:1 901:1 912:1 945:1 953:1 1100:1 1104:1 1231:1 1240:1 1265:1 1300:1 1301:1 1313:1 1370:1 1374:2
-1 142:1 188:1 241:1 307:1 420:1 445:1 506:1 567:1 639:1 642:1 665:1 677:1 693:1 699:1 703:1 759:1 760:1 766:1 777:1 811:1 854:1 869:1 876:1 881:1 901:1 945:1 953:1 1022:1 1100:1 1104:1 1123:1 1240:1 1374:2
-1 349:1 439:1 506:1 512:1 639:1 642:1 677:1 699:1 703:1 729:1 759:1 760:1 777:1 945:1 953:1 981:1 1068:1 1100:1 1159:1 1239:1 1240:1 1354:1 1374:1 1376:3
-1 246:1 349:1 406:1 460:1 541:1 559:1 681:1 741:1 981:1 1231:1 1236:1 1239:1 1258:1 1265:1 1292:1 1300:1 1313:1 1354:1 1374:2
-1 246:1 349:1 559:1 864:1 1292:1 1313:1 1354:1 1374:2
-1 155:1 161:1 203:1 241:1 297:1 349:1 406:1 420:1 473:1 489:1 506:1 642:1 677:1 699:1 735:1 759:1 782:1 811:1 831:1 869:1 876:1 953:1 969:1 1054:1 1083:1 1236:1 1240:1 1354:1 1374:1
-1 349:1 559:1 1009:1 1313:1 1354:1 1374:3
-1 246:1 541:1 559:1 681:1 701:1 907:1 981:1 1231:1 1239:1 1241:1 1292:1 1300:1 1313:1 1356:1 1374:2
-1 559:1 780:1 1313:1 1374:2
-1 246:1 460:1 486:1 525:1 541:1 559:1 656:1 681:1 780:1 1231:1 1265:1 1275:1 1292:1 1294:1 1300:1 1313:1 1373:1 1374:1
-1 246:1 460:1 559:1 681:1 780:1 1231:1 1265:1 1292:1 1313:1 1374:1
-1 246:1 406:1 460:1 541:1 559:1 681:1 701:1 907:1 981:1 1231:1 1236:1 1239:1 1241:1 1265:1 1292:1 1300:1 1313:1 1356:1 1374:3
-1 349:1 541:1 559:1 1300:1 1313:1 1354:1 1374:2
-1 349:1 559:1 1313:1 1354:1 1374:3
-1 382:1 1219:1 1374:2
-1 349:1 439:1 460:1 541:1 559:1 567:1 639:1 642:1 677:1 703:1 760:1 945:1 953:1 1100:1 1265:1 1300:1 1313:1 1354:1 1374:2
-1 131:1 246:1 349:1 406:1 559:1 681:1 981:1 1225:1 1231:1 1236:1 1239:1 1292:1 1313:1 1354:1 1374:1 1376:1
-1 155:1 203:1 241:1 307:1 349:1 473:1 642:1 677:1 876:1 953:1 969:1 1058:1 1083:1 1123:1 1131:1 1354:1 1374:2 1376:81
-1 349:1 506:1 559:1 614:1 642:1 677:1 699:1 720:1 759:1 760:1 777:1 831:1 869:1 945:1 953:1 1022:1 1054:1 1068:1 1100:1 1123:1 1240:1 1313:1 1354:1 1374:3
-1 131:1 246:2 406:2 541:2 559:4 621:1 656:1 681:2 701:1 780:1 895:1 907:1 978:1 981:2 1115:1 1225:1 1231:2 1236:2 1237:1 1239:2 1241:1 1292:2 1300:2 1313:4 1348:1 1350:1 1356:1 1373:1 1374:5
-1 349:1 541:1 559:1 567:1 602:1 639:1 681:1 981:1 1231:1 1239:1 1300:1 1313:1 1354:1 1374:2
-1 246:1 460:1 541:1 559:1 701:1 907:1 981:1 1239:1 1241:1 1265:1 1292:1 1300:1 1313:1 1356:1 1374:2
-1 246:1 406:1 460:1 541:1 559:1 681:1 981:1 1231:1 1236:1 1239:1 1265:1 1292:1 1300:1 1313:1 1374:1
-1 349:2 559:1 780:1 1313:1 1354:2 1374:3
-1 142:1 241:1 349:1 403:1 506:1 642:1 677:1 703:1 760:1 945:1 953:1 1100:1 1354:1 1374:2
-1 241:1 349:1 642:1 677:1 703:1 760:1 811:1 869:1 945:1 953:1 1100:1 1131:1 1354:1 1374:3
-1 142:1 171:1 180:1 237:1 241:1 417:1 445:1 506:1 642:1 677:1 695:1 699:1 703:1 748:1 759:1 760:1 766:1 777:1 869:1 881:1 945:1 953:1 985:1 1022:1 1100:1 1118:1 1131:1 1207:1 1240:1 1369:1 1374:3 1376:1
-1 227:1 246:1 275:1 349:1 406:1 460:1 541:1 559:1 681:1 699:1 701:1 703:1 907:1 1231:1 1236:1 1240:1 1241:1 1265:1 1279:1 1292:1 1300:1 1313:1 1354:1 1356:1 1374:2
-1 142:1 181:1 216:1 237:1 241:1 288:1 304:1 307:1 349:1 360:1 445:1 457:1 506:1 512:1 544:1 642:1 677:1 699:1 711:1 715:1 729:1 759:1 760:1 777:1 811:1 834:1 869:1 876:1 881:1 945:1 953:1 1022:1 1050:1 1084:1 1100:1 1104:1 1123:1 1131:1 1240:1 1354:1 1374:1
-1 246:2 406:1 559:4 681:3 701:1 1231:3 1236:1 1241:1 1292:2 1313:4 1374:5
-1 185:1 246:1 359:1 513:1 541:1 559:1 681:1 701:1 714:1 907:1 978:1 981:1 1150:1 1231:1 1237:1 1239:1 1241:1 1292:1 1300:1 1313:1 1356:1 1374:2
-1 246:2 406:1 559:4 681:3 701:1 1231:3 1236:1 1241:1 1292:2 1313:4 1374:5
-1 246:2 406:1 559:2 681:2 701:1 1231:2 1236:1 1241:1 1292:2 1313:2 1374:7
-1 246:1 308:1 349:1 402:1 541:1 559:1 681:1 701:1 907:1 978:1 981:1 1231:1 1237:1 1239:1 1241:1 1292:1 1300:1 1313:1 1335:1 1354:1 1356:1 1374:2
-1 246:1 349:1 541:1 559:1 681:1 837:1 1231:1 1292:1 1300:1 1302:1 1313:1 1354:1 1374:1
-1 131:1 246:1 406:1 541:1 559:1 681:1 701:1 755:1 780:1 907:1 978:1 981:1 1225:1 1231:1 1236:1 1237:1 1239:1 1241:1 1266:1 1292:1 1300:1 1313:1 1356:1 1374:5
-1 349:1 559:1 634:1 780:1 1313:1 1354:1 1357:1 1374:4
-1 349:2 559:1 1313:1 1354:2 1374:2
-1 349:1 559:1 1049:1 1313:1 1354:1 1374:5
-1 131:1 246:3 349:1 406:3 541:1 559:5 606:1 681:3 701:1 907:1 978:1 981:1 1225:1 1231:3 1236:3 1237:1 1239:1 1241:1 1292:3 1300:1 1313:5 1343:1 1354:1 1356:1 1374:4 1376:3
-1 241:1 349:1 445:1 506:1 642:1 677:1 699:1 759:1 760:1 876:1 881:1 945:1 953:1 1100:1 1104:1 1207:1 1240:1 1354:1 1369:1 1374:1
-1 382:1 1219:1 1374:2
-1 239:1 241:1 349:1 614:1 642:1 677:1 699:1 760:1 869:1 945:1 953:1 994:1 1022:1 1100:1 1240:1 1247:1 1354:1 1374:2
-1 246:1 349:1 541:1 559:1 621:1 634:1 681:1 701:1 907:1 1231:1 1241:1 1292:1 1300:1 1313:1 1348:1 1354:1 1356:1 1357:1 1374:4
-1 246:1 349:1 541:1 559:1 621:1 634:1 681:1 701:1 907:1 1231:1 1241:1 1292:1 1300:1 1313:1 1348:1 1354:1 1356:1 1357:1 1374:4
-1 170:1 246:1 406:1 541:1 559:1 681:1 907:1 980:1 981:1 1174:1 1231:1 1236:1 1239:1 1292:1 1300:1 1313:1 1356:1 1374:2 1376:4
-1 1374:2
-1 559:1 1313:1 1374:1
-1 349:2 559:1 780:1 1313:1 1354:2 1374:3
-1 349:2 559:1 681:1 780:1 1231:1 1313:1 1354:2 1374:3 1376:256
-1 349:1 1122:1 1354:1 1374:2
-1 246:1 349:1 559:1 681:1 1231:1 1292:1 1313:1 1354:1 1374:2
-1 349:2 559:1 681:1 1231:1 1313:1 1354:2 1374:3
-1 382:1 1219:1 1374:3
-1 382:1 1219:1 1374:3
-1 382:1 1219:1 1374:3
-1 131:1 246:1 541:1 559:1 681:1 701:1 907:1 981:1 1225:1 1231:1 1239:1 1241:1 1292:1 1300:1 1313:1 1356:1 1374:2
-1 382:1 1219:1 1374:2
-1 559:1 681:1 1231:1 1313:1 1374:3 1376:46
-1 246:1 349:1 358:1 374:1 541:1 559:1 634:1 681:1 699:1 701:1 822:1 858:1 895:1 907:1 981:1 1030:1 1231:1 1239:1 1240:1 1241:1 1292:1 1300:1 1313:1 1350:1 1354:1 1356:1 1357:1 1374:1
-1 246:2 406:1 559:2 681:2 701:1 1231:2 1236:1 1241:1 1292:2 1313:2 1374:7
-1 382:1 1219:1 1374:3
-1 133:1 246:1 349:1 435:1 559:1 561:1 681:1 1231:1 1292:1 1313:1 1354:1 1374:2
-1 246:1 349:1 536:1 559:1 618:1 681:1 907:1 1186:1 1231:1 1292:1 1297:1 1313:1 1354:1 1356:1 1374:2
-1 246:1 349:1 406:1 415:1 445:1 642:1 677:1 703:1 759:1 760:1 811:1 823:1 854:1 876:1 945:1 953:1 1035:1 1100:1 1104:1 1131:1 1236:1 1292:1 1354:1 1374:1
-1 246:1 349:1 559:1 1292:1 1313:1 1354:1 1374:6
-1 131:1 246:1 393:1 406:1 541:1 559:1 681:1 701:1 907:1 978:1 981:1 1225:1 1231:1 1236:1 1237:1 1239:1 1241:1 1292:1 1300:1 1313:1 1356:1 1374:5
-1 1112:1 1310:1 1374:1
-1 246:1 559:1 1292:1 1313:1 1374:3
-1 131:1 246:1 541:1 559:1 681:1 701:1 907:1 981:1 1225:1 1231:1 1239:1 1241:1 1292:1 1300:1 1313:1 1356:1 1374:2
-1 559:1 980:1 1313:1 1374:2
-1 246:2 406:1 559:2 681:2 701:1 1231:2 1236:1 1241:1 1292:2 1313:2 1374:7
-1 246:1 365:1 406:1 407:1 460:1 541:1 550:1 559:1 621:1 634:1 681:1 701:1 810:1 895:1 907:1 981:1 1152:1 1231:1 1235:1 1236:1 1239:1 1241:1 1265:1 1291:1 1292:1 1300:1 1306:1 1313:1 1334:1 1348:1 1350:1 1356:1 1357:1 1370:1 1374:3
-1 1112:1 1310:1 1374:1
-1 131:1 246:1 541:1 559:1 681:1 701:1 907:1 981:1 1225:1 1231:1 1239:1 1241:1 1292:1 1300:1 1313:1 1356:1 1374:2
-1 246:1 559:1 681:1 1231:1 1292:1 1313:1 1374:1
-1 382:1 1219:1 1374:4
-1 1112:1 1310:1 1374:1
-1 246:2 406:1 559:2 681:2 701:1 1231:2 1236:1 1241:1 1292:2 1313:2 1374:7
-1 131:1 246:1 541:1 559:1 681:1 701:1 907:1 981:1 1225:1 1231:1 1239:1 1241:1 1292:1 1300:1 1313:1 1356:1 1374:3
