1 222:1 1224:4 1235:1 1264:4
1 222:1 1224:5 1235:1 1264:5
1 222:1 1224:3 1235:1 1264:3
1 222:1 1224:4 1235:1 1264:4
1 222:1 1224:4 1235:1 1264:4
1 222:1 1224:3 1235:1 1264:3
1 222:1 1224:4 1235:1 1264:4
1 222:1 1224:4 1235:1 1264:4
1 222:1 1224:3 1235:1 1264:3
1 222:1 1224:3 1235:1 1264:3
1 222:1 1224:3 1235:1 1264:3
1 598:1 605:1 1224:2 1226:1 1228:1 1264:2
1 598:1 605:1 1224:2 1226:1 1228:1 1264:2
1 222:1 1224:3 1235:1 1264:3
1 222:1 1224:3 1235:1 1264:3
1 222:1 1224:3 1235:1 1264:3
1 222:1 1224:4 1235:1 1264:4
1 222:1 1224:2 1235:1 1264:2
1 222:1 1224:3 1235:1 1264:3
1 222:1 1224:4 1235:1 1264:4
1 222:1 1224:3 1235:1 1264:3
1 222:1 1224:3 1235:1 1264:3
1 222:1 1224:3 1235:1 1264:3
1 222:1 226:1 418:1 524:1 598:1 625:1 1182:1 1206:1 1216:1 1224:7 1226:1 1235:1 1236:1 1238:1 1245:1 1249:1 1260:1 1264:7
1 222:1 1224:3 1235:1 1264:3
1 222:1 1224:3 1235:1 1264:3
1 222:1 1224:3 1235:1 1264:3
1 222:1 1224:3 1235:1 1264:3
1 222:1 1224:4 1235:1 1264:4
1 222:1 1224:3 1235:1 1264:3
1 222:1 1224:3 1235:1 1264:3
1 222:1 1224:3 1235:1 1264:3
1 222:1 1224:3 1235:1 1264:3
1 222:1 1224:3 1235:1 1264:3
1 157:1 226:1 418:1 524:1 574:1 598:1 625:1 748:1 868:1 1182:1 1216:1 1223:1 1224:2 1226:1 1236:1 1237:1 1238:1 1243:1 1245:1 1248:1 1249:1 1264:2
1 222:1 1224:3 1235:1 1264:3
1 222:1 1224:3 1235:1 1264:3
1 174:1 226:1 598:1 1224:4 1226:1 1236:1 1251:1 1264:4
1 222:1 1224:3 1235:1 1264:3
1 222:1 1224:4 1235:1 1264:4
1 222:1 1224:3 1235:1 1264:3
1 222:1 1224:3 1235:1 1264:3
1 222:1 1224:3 1235:1 1264:3
1 598:1 1224:2 1226:1 1264:2
1 598:1 1224:2 1226:1 1264:2
1 222:1 1224:3 1235:1 1264:3
1 598:1 605:1 1224:2 1226:1 1228:1 1264:2
1 222:1 1224:4 1235:1 1264:4
1 226:1 598:1 1224:1 1226:1 1236:1 1264:1
1 222:1 1224:3 1235:1 1264:3
1 222:1 1224:3 1235:1 1264:3
1 222:1 1224:3 1235:1 1264:3
1 222:1 1224:4 1235:1 1264:4
1 222:1 1224:3 1235:1 1264:3
1 222:1 1224:3 1235:1 1264:3
1 222:1 1224:3 1235:1 1264:3
1 222:1 1224:3 1235:1 1264:3
1 222:1 1224:3 1235:1 1264:3
1 222:1 1224:3 1235:1 1264:3
1 598:1 1224:9 1226:1 1264:9
1 222:1 1224:3 1235:1 1264:3
1 222:1 1224:4 1235:1 1264:4
1 226:1 491:1 598:2 1224:7 1226:2 1236:1 1247:1 1264:7
1 222:1 1224:3 1235:1 1264:3
1 222:1 1224:3 1235:1 1264:3
1 222:1 1224:3 1235:1 1264:3
1 222:1 1224:4 1235:1 1264:4
1 222:1 1224:4 1235:1 1264:4
1 222:1 1224:3 1235:1 1264:3
1 222:1 1224:3 1235:1 1264:3
1 222:1 1224:3 1235:1 1264:3
1 222:1 1224:3 1235:1 1264:3
1 222:1 1224:3 1235:1 1264:3
1 222:1 1224:3 1235:1 1264:3
1 222:1 1224:3 1235:1 1264:3
1 222:1 1224:3 1235:1 1264:3
1 157:1 226:1 418:1 524:1 598:1 748:1 1182:1 1216:1 1224:3 1226:1 1236:1 1237:1 1238:1 1243:1 1249:1 1264:3
1 222:1 1224:3 1235:1 1264:3
1 139:1 157:1 226:3 236:1 418:3 491:1 499:1 524:1 591:1 598:4 605:1 625:3 748:2 791:1 881:1 920:2 1166:1 1182:3 1199:1 1206:1 1216:1 1218:1 1222:1 1224:5 1226:4 1228:1 1229:1 1230:1 1233:1 1236:3 1237:2 1238:3 1241:1 1243:1 1245:3 1247:1 1249:3 1253:1 1257:1 1258:2 1260:1 1264:5
1 222:1 1224:3 1235:1 1264:3
1 222:1 1224:3 1235:1 1264:3
1 222:1 1224:3 1235:1 1264:3
1 222:1 1224:4 1235:1 1264:4
1 222:1 1224:3 1235:1 1264:3
1 222:1 1224:3 1235:1 1264:3
1 222:1 1224:4 1235:1 1264:4
1 222:1 1224:3 1235:1 1264:3
1 222:1 1224:3 1235:1 1264:3
1 222:1 1224:4 1235:1 1264:4
1 222:1 1224:4 1235:1 1264:4
1 222:1 1224:3 1235:1 1264:3
1 222:1 1224:3 1235:1 1264:3
1 222:1 1224:3 1235:1 1264:3
1 222:1 1224:6 1235:1 1264:6
1 222:1 1224:3 1235:1 1264:3
1 222:1 1224:3 1235:1 1264:3
1 157:1 226:1 236:1 418:1 520:1 524:1 543:1 591:1 598:1 625:1 748:1 810:1 858:1 868:1 881:1 958:1 1182:1 1206:1 1214:1 1216:1 1221:1 1222:1 1223:1 1224:1 1226:1 1227:1 1229:1 1234:1 1236:1 1237:1 1238:1 1239:1 1241:1 1243:1 1245:1 1249:1 1260:1 1264:1
1 598:1 605:1 1224:2 1226:1 1228:1 1264:2
1 222:1 1224:3 1235:1 1264:3
1 222:1 1224:3 1235:1 1264:3
1 1224:2 1264:2
1 222:1 1224:3 1235:1 1264:3
1 222:1 1224:3 1235:1 1264:3
1 157:1 226:1 236:1 418:1 520:1 524:1 543:1 591:1 598:1 625:1 748:1 810:1 858:1 868:1 881:1 958:1 1182:1 1206:1 1214:1 1216:1 1221:1 1222:1 1223:1 1224:2 1226:1 1227:1 1229:1 1234:1 1236:1 1237:1 1238:1 1239:1 1241:1 1243:1 1245:1 1249:1 1260:1 1264:2
1 222:1 1224:3 1235:1 1264:3
1 598:1 605:1 1224:3 1226:1 1228:1 1264:3
1 222:1 1224:3 1235:1 1264:3
1 222:1 1224:3 1235:1 1264:3
1 222:1 1224:3 1235:1 1264:3
1 222:1 1224:3 1235:1 1264:3
1 222:1 1224:3 1235:1 1264:3
1 222:1 1224:4 1235:1 1264:4
1 222:1 1224:4 1235:1 1264:4
1 222:1 1224:3 1235:1 1264:3
1 222:1 1224:4 1235:1 1264:4
1 222:1 1224:4 1235:1 1264:4
1 157:1 226:1 418:1 524:1 598:1 748:1 1182:1 1216:1 1224:3 1226:1 1236:1 1237:1 1238:1 1243:1 1249:1 1264:3
1 222:1 1224:3 1235:1 1264:3
1 222:1 1224:4 1235:1 1264:4
1 222:1 1224:3 1235:1 1264:3
1 222:1 1224:4 1235:1 1264:4
1 222:1 1224:4 1235:1 1264:4
1 222:1 1224:3 1235:1 1264:3
1 222:1 1224:3 1235:1 1264:3
1 222:1 1224:3 1235:1 1264:3
1 222:1 1224:3 1235:1 1264:3
1 222:1 1224:3 1235:1 1264:3
1 157:1 226:1 418:1 524:1 598:1 625:1 748:1 868:1 1182:1 1216:1 1223:1 1224:3 1226:1 1236:1 1237:1 1238:1 1243:1 1245:1 1249:1 1264:3
1 222:1 1224:3 1235:1 1264:3
1 222:1 1224:3 1235:1 1264:3
1 222:1 1224:4 1235:1 1264:4
1 222:1 1224:4 1235:1 1264:4
1 222:1 1224:3 1235:1 1264:3
1 222:1 1224:3 1235:1 1264:3
1 222:1 1224:4 1235:1 1264:4
1 598:1 605:1 1224:2 1226:1 1228:1 1264:2
1 222:1 1224:3 1235:1 1264:3
1 222:1 1224:3 1235:1 1264:3
1 222:1 1224:4 1235:1 1264:4
1 222:1 1224:3 1235:1 1264:3
1 222:1 1224:3 1235:1 1264:3
1 222:1 1224:3 1235:1 1264:3
1 222:1 1224:4 1235:1 1264:4
1 222:1 1224:4 1235:1 1264:4
1 157:1 226:1 418:1 524:1 598:1 748:1 1182:1 1216:1 1224:3 1226:1 1236:1 1237:1 1238:1 1243:1 1249:1 1264:3
1 222:1 1224:3 1235:1 1264:3
1 157:1 226:1 236:1 418:1 520:1 524:1 543:1 591:1 598:1 625:1 748:1 810:1 858:1 868:1 881:1 958:1 1182:1 1206:1 1214:1 1216:1 1221:1 1222:1 1223:1 1224:1 1226:1 1227:1 1229:1 1234:1 1236:1 1237:1 1238:1 1239:1 1241:1 1243:1 1245:1 1249:1 1260:1 1264:1
1 222:1 226:1 418:1 598:1 1182:1 1224:5 1226:1 1235:1 1236:1 1238:1 1249:1 1264:5
1 1224:4 1264:4
1 222:1 1224:5 1235:1 1264:5
1 222:1 1224:3 1235:1 1264:3
1 222:1 1224:3 1235:1 1264:3
1 222:1 226:1 418:1 524:1 598:1 625:1 1182:1 1206:1 1216:1 1224:6 1226:1 1235:1 1236:1 1238:1 1245:1 1249:1 1260:1 1264:6
1 222:1 1224:3 1235:1 1264:3
1 222:1 1224:3 1235:1 1264:3
1 222:1 1224:3 1235:1 1264:3
1 222:1 226:1 418:1 524:1 598:1 625:1 1182:1 1206:1 1216:1 1224:7 1226:1 1235:1 1236:1 1238:1 1245:1 1249:1 1260:1 1264:7
1 222:1 1224:2 1235:1 1264:2
1 222:1 226:1 418:1 524:1 598:1 625:1 1182:1 1206:1 1216:1 1224:7 1226:1 1235:1 1236:1 1238:1 1245:1 1249:1 1260:1 1264:7
1 222:1 1224:4 1235:1 1264:4
1 222:1 1224:2 1235:1 1264:2
1 222:1 1224:4 1235:1 1264:4
1 222:1 1224:3 1235:1 1264:3
1 222:1 1224:4 1235:1 1264:4
1 226:1 418:2 524:1 598:3 625:1 1182:2 1216:1 1224:6 1226:3 1236:1 1238:2 1245:1 1249:2 1264:6
1 222:1 1224:3 1235:1 1264:3
1 222:1 1224:4 1235:1 1264:4
1 454:1 1219:1 1224:3 1264:3
1 222:1 1224:3 1235:1 1264:3
1 222:1 1224:3 1235:1 1264:3
1 598:1 605:1 625:1 1224:2 1226:1 1228:1 1245:1 1264:2
1 222:1 1224:3 1235:1 1264:3
1 222:1 1224:4 1235:1 1264:4
1 222:1 1224:4 1235:1 1264:4
1 222:1 1224:3 1235:1 1264:3
1 222:1 1224:4 1235:1 1264:4
1 222:1 1224:3 1235:1 1264:3
1 222:1 1224:3 1235:1 1264:3
1 222:1 1224:3 1235:1 1264:3
1 222:1 1224:3 1235:1 1264:3
1 222:1 1224:5 1235:1 1264:5
1 222:1 1224:3 1235:1 1264:3
1 222:1 1224:3 1235:1 1264:3
1 222:1 1224:5 1235:1 1264:5
1 222:1 1224:2 1235:1 1264:2
1 222:1 1224:4 1235:1 1264:4
1 222:1 1224:3 1235:1 1264:3
1 222:1 1224:3 1235:1 1264:3
1 222:1 1224:3 1235:1 1264:3
1 222:1 1224:4 1235:1 1264:4
1 1224:2 1264:2
1 222:1 1224:3 1235:1 1264:3
1 222:1 1224:3 1235:1 1264:3
1 222:1 1224:3 1235:1 1264:3
1 222:1 1224:3 1235:1 1264:3
1 222:1 1224:3 1235:1 1264:3
1 222:1 1224:3 1235:1 1264:3
1 222:1 1224:3 1235:1 1264:3
1 222:1 1224:3 1235:1 1264:3
1 222:1 1224:3 1235:1 1264:3
1 157:1 226:1 418:1 524:1 598:1 748:1 1182:1 1216:1 1224:2 1226:1 1236:1 1237:1 1238:1 1243:1 1249:1 1264:2
1 222:1 1224:4 1235:1 1264:4
1 222:1 226:1 418:1 524:1 598:1 625:1 1182:1 1206:1 1216:1 1224:7 1226:1 1235:1 1236:1 1238:1 1245:1 1249:1 1260:1 1264:7
1 222:1 1224:3 1235:1 1264:3
1 598:1 605:1 625:1 1224:2 1226:1 1228:1 1245:1 1264:2
1 222:1 1224:3 1235:1 1264:3
1 222:1 1224:3 1235:1 1264:3
1 222:1 1224:3 1235:1 1264:3
1 222:1 1224:3 1235:1 1264:3
1 222:1 1224:5 1235:1 1264:5
1 222:1 1224:3 1235:1 1264:3
1 222:1 1224:3 1235:1 1264:3
1 222:1 1224:3 1235:1 1264:3
1 222:1 1224:3 1235:1 1264:3
1 222:1 1224:3 1235:1 1264:3
1 222:1 1224:3 1235:1 1264:3
1 157:1 174:1 226:1 418:1 524:1 574:1 591:1 598:1 748:1 1216:1 1222:1 1224:4 1226:1 1236:1 1237:1 1238:1 1243:1 1248:1 1251:1 1264:4
1 222:1 1224:3 1235:1 1264:3
1 222:1 1224:3 1235:1 1264:3
1 222:1 1224:3 1235:1 1264:3
1 454:1 1219:1 1224:2 1264:2
1 222:1 1224:3 1235:1 1264:3
1 222:1 1224:5 1235:1 1264:5
1 222:1 1224:3 1235:1 1264:3
1 222:1 1224:3 1235:1 1264:3
1 222:1 1224:3 1235:1 1264:3
1 222:1 1224:3 1235:1 1264:3
1 222:1 1224:4 1235:1 1264:4
1 222:1 1224:5 1235:1 1264:5
1 222:1 1224:4 1235:1 1264:4
1 222:1 1224:3 1235:1 1264:3
1 222:1 1224:3 1235:1 1264:3
1 222:1 1224:4 1235:1 1264:4
1 222:1 1224:3 1235:1 1264:3
1 222:1 1224:3 1235:1 1264:3
1 222:1 1224:3 1235:1 1264:3
1 222:1 1224:3 1235:1 1264:3
1 222:1 1224:3 1235:1 1264:3
1 222:1 1224:3 1235:1 1264:3
1 222:1 1224:5 1235:1 1264:5
1 222:1 1224:3 1235:1 1264:3
1 222:1 1224:4 1235:1 1264:4
1 222:1 1224:4 1235:1 1264:4
1 222:1 1224:3 1235:1 1264:3
1 222:1 1224:3 1235:1 1264:3
1 222:1 1224:4 1235:1 1264:4
1 222:1 1224:4 1235:1 1264:4
1 222:1 1224:3 1235:1 1264:3
1 222:1 1224:3 1235:1 1264:3
1 222:1 1224:3 1235:1 1264:3
1 174:1 598:1 1224:4 1226:1 1251:1 1264:4
1 222:1 1224:3 1235:1 1264:3
1 222:1 1224:3 1235:1 1264:3
1 222:1 1224:3 1235:1 1264:3
1 222:1 1224:3 1235:1 1264:3
1 222:1 1224:3 1235:1 1264:3
1 222:1 1224:4 1235:1 1264:4
1 222:1 1224:3 1235:1 1264:3
1 222:1 1224:3 1235:1 1264:3
1 222:1 226:1 418:1 524:1 598:1 625:1 1182:1 1206:1 1216:1 1224:7 1226:1 1235:1 1236:1 1238:1 1245:1 1249:1 1260:1 1264:7
1 222:1 1224:3 1235:1 1264:3
1 222:1 1224:5 1235:1 1264:5
1 222:1 1224:4 1235:1 1264:4
1 222:1 226:1 418:1 524:1 598:1 625:1 1182:1 1206:1 1216:1 1224:7 1226:1 1235:1 1236:1 1238:1 1245:1 1249:1 1260:1 1264:7
1 222:1 1224:4 1235:1 1264:4
1 222:1 1224:3 1235:1 1264:3
1 222:1 1224:3 1235:1 1264:3
1 226:1 491:1 598:2 1224:7 1226:2 1236:1 1247:1 1264:7
1 222:1 1224:4 1235:1 1264:4
1
1 222:1 1224:3 1235:1 1264:3
1 222:1 1224:3 1235:1 1264:3
1 222:1 1224:3 1235:1 1264:3
1 222:1 1224:3 1235:1 1264:3
1 222:1 1224:2 1235:1 1264:2
1 157:1 226:1 236:1 418:1 520:1 524:1 543:1 591:1 598:1 625:1 748:1 810:1 858:1 868:1 881:1 958:1 1182:1 1206:1 1214:1 1216:1 1221:1 1222:1 1223:1 1224:2 1226:1 1227:1 1229:1 1234:1 1236:1 1237:1 1238:1 1239:1 1241:1 1243:1 1245:1 1249:1 1260:1 1264:2
1 222:1 226:1 418:1 524:1 598:1 625:1 1182:1 1206:1 1216:1 1224:7 1226:1 1235:1 1236:1 1238:1 1245:1 1249:1 1260:1 1264:7
1 222:1 1224:5 1235:1 1264:5
1 222:1 1224:3 1235:1 1264:3
1 222:1 1224:3 1235:1 1264:3
1 222:1 1224:3 1235:1 1264:3
1 222:1 1224:4 1235:1 1264:4
1 222:1 1224:4 1235:1 1264:4
1 222:1 1224:3 1235:1 1264:3
1 1224:3 1264:3
1 222:1 1224:3 1235:1 1264:3
1 222:1 1224:3 1235:1 1264:3
1 222:1 1224:4 1235:1 1264:4
1 1224:2 1264:2
1 222:1 1224:3 1235:1 1264:3
1 222:1 1224:3 1235:1 1264:3
1 222:1 1224:3 1235:1 1264:3
1 222:1 1224:2 1235:1 1264:2
1 222:1 1224:5 1235:1 1264:5
1 222:1 1224:3 1235:1 1264:3
1 222:1 1224:3 1235:1 1264:3
1 418:1 598:1 1224:2 1226:1 1238:1 1264:2
1 222:1 1224:3 1235:1 1264:3
1 222:1 1224:3 1235:1 1264:3
1 222:1 1224:4 1235:1 1264:4
1 222:1 1224:3 1235:1 1264:3
1 222:1 1224:3 1235:1 1264:3
1 222:1 1224:2 1235:1 1264:2
1 222:1 1224:3 1235:1 1264:3
1 222:1 1224:4 1235:1 1264:4
1 222:1 1224:3 1235:1 1264:3
1 222:1 1224:4 1235:1 1264:4
1 222:1 1224:3 1235:1 1264:3
1 222:1 1224:4 1235:1 1264:4
1 222:1 1224:3 1235:1 1264:3
1 222:1 1224:3 1235:1 1264:3
1 222:1 1224:3 1235:1 1264:3
1 222:1 1224:3 1235:1 1264:3
1 222:1 1224:3 1235:1 1264:3
1 222:1 1224:4 1235:1 1264:4
1 222:1 1224:4 1235:1 1264:4
1 598:1 605:1 1224:3 1226:1 1228:1 1264:3
1 222:1 226:1 418:1 524:1 598:1 625:1 1182:1 1206:1 1216:1 1224:6 1226:1 1235:1 1236:1 1238:1 1245:1 1249:1 1260:1 1264:6
1 222:1 1224:4 1235:1 1264:4
1 222:1 1224:3 1235:1 1264:3
1 222:1 1224:3 1235:1 1264:3
1 222:1 1224:3 1235:1 1264:3
1 222:1 1224:3 1235:1 1264:3
1 222:1 1224:3 1235:1 1264:3
1 222:1 1224:3 1235:1 1264:3
1 222:1 1224:3 1235:1 1264:3
1 226:1 491:1 598:2 1224:7 1226:2 1236:1 1247:1 1264:7
1 222:1 1224:4 1235:1 1264:4
1 598:1 605:1 1224:2 1226:1 1228:1 1264:2
1 222:1 1224:3 1235:1 1264:3
1 222:1 1224:3 1235:1 1264:3
1 418:1 574:1 598:1 1224:3 1226:1 1238:1 1248:1 1264:3
1 222:1 1224:3 1235:1 1264:3
1 222:1 1224:4 1235:1 1264:4
1 222:1 1224:4 1235:1 1264:4
1 222:1 1224:3 1235:1 1264:3
1 222:1 1224:4 1235:1 1264:4
1 222:1 1224:3 1235:1 1264:3
1 222:1 1224:3 1235:1 1264:3
1 222:1 1224:3 1235:1 1264:3
1 222:1 1224:3 1235:1 1264:3
1 222:1 1224:3 1235:1 1264:3
1 222:1 1224:4 1235:1 1264:4
1 222:1 1224:3 1235:1 1264:3
1 222:1 1224:3 1235:1 1264:3
1 157:1 226:1 418:1 524:1 598:1 748:1 1182:1 1206:1 1216:1 1224:2 1226:1 1236:1 1237:1 1238:1 1243:1 1249:1 1260:1 1264:2
1 222:1 1224:5 1235:1 1264:5
1 222:1 1224:3 1235:1 1264:3
1 222:1 1224:3 1235:1 1264:3
1 222:1 1224:3 1235:1 1264:3
1 222:1 1224:3 1235:1 1264:3
1 222:1 1224:4 1235:1 1264:4
1 222:1 1224:4 1235:1 1264:4
1 222:1 1224:4 1235:1 1264:4
1 222:1 1224:3 1235:1 1264:3
1 222:1 1224:4 1235:1 1264:4
1 222:1 1224:4 1235:1 1264:4
1 222:1 1224:4 1235:1 1264:4
1 222:1 1224:3 1235:1 1264:3
1 157:1 226:1 236:1 418:1 524:1 591:1 598:1 625:1 748:1 810:1 858:1 868:1 881:1 958:1 1182:1 1206:1 1216:1 1221:1 1222:1 1223:1 1224:3 1226:1 1229:1 1234:1 1236:1 1237:1 1238:1 1239:1 1241:1 1243:1 1245:1 1249:1 1260:1 1264:3
1 157:1 226:1 418:1 524:1 598:1 748:1 1182:1 1216:1 1224:3 1226:1 1236:1 1237:1 1238:1 1243:1 1249:1 1264:3
1 222:1 1224:4 1235:1 1264:4
1 222:1 1224:5 1235:1 1264:5
1 222:1 1224:3 1235:1 1264:3
1 222:1 1224:3 1235:1 1264:3
1 222:1 1224:3 1235:1 1264:3
1 222:1 1224:3 1235:1 1264:3
1 222:1 1224:3 1235:1 1264:3
1 222:1 1224:3 1235:1 1264:3
1 222:1 1224:3 1235:1 1264:3
1 222:1 1224:3 1235:1 1264:3
1 222:1 1224:3 1235:1 1264:3
1 222:1 1224:3 1235:1 1264:3
1 157:1 226:1 236:1 418:1 520:1 524:1 543:1 591:1 598:1 625:1 748:1 810:1 858:1 868:1 881:1 958:1 1182:1 1206:1 1214:1 1216:1 1221:1 1222:1 1223:1 1224:5 1226:1 1227:1 1229:1 1234:1 1236:1 1237:1 1238:1 1239:1 1241:1 1243:1 1245:1 1249:1 1260:1 1264:5
1 222:1 1224:3 1235:1 1264:3
1 222:1 1224:3 1235:1 1264:3
1 222:1 1224:4 1235:1 1264:4
1 222:1 1224:4 1235:1 1264:4
1 222:1 1224:3 1235:1 1264:3
1 222:1 1224:3 1235:1 1264:3
1 222:1 1224:3 1235:1 1264:3
1 157:1 226:1 418:1 524:1 598:1 748:1 1182:1 1206:1 1216:1 1224:4 1226:1 1236:1 1237:1 1238:1 1243:1 1249:1 1260:1 1264:4
1 222:1 1224:2 1235:1 1264:2
1 222:1 1224:3 1235:1 1264:3
1 222:1 1224:3 1235:1 1264:3
1 222:1 1224:4 1235:1 1264:4
1 222:1 1224:3 1235:1 1264:3
1 222:1 1224:3 1235:1 1264:3
1 222:1 1224:3 1235:1 1264:3
1 222:1 1224:3 1235:1 1264:3
1 454:1 1219:1 1224:2 1264:2
1 222:1 1224:3 1235:1 1264:3
1 222:1 1224:3 1235:1 1264:3
1 222:1 1224:3 1235:1 1264:3
1 222:1 1224:3 1235:1 1264:3
1 222:1 1224:3 1235:1 1264:3
1 222:1 1224:3 1235:1 1264:3
1 222:1 1224:3 1235:1 1264:3
1 157:1 226:1 236:1 418:1 520:1 524:1 543:1 591:1 598:1 625:1 748:1 810:1 858:1 868:1 881:1 958:1 1182:1 1206:1 1214:1 1216:1 1221:1 1222:1 1223:1 1224:2 1226:1 1227:1 1229:1 1234:1 1236:1 1237:1 1238:1 1239:1 1241:1 1243:1 1245:1 1249:1 1260:1 1264:2
1 222:1 1224:5 1235:1 1264:5
1 222:1 226:1 418:1 524:1 598:1 625:1 1182:1 1206:1 1216:1 1224:6 1226:1 1235:1 1236:1 1238:1 1245:1 1249:1 1260:1 1264:6
1 222:1 1224:3 1235:1 1264:3
1 222:1 1224:5 1235:1 1264:5
1 222:1 1224:3 1235:1 1264:3
1 222:1 1224:3 1235:1 1264:3
1 222:1 1224:4 1235:1 1264:4
1 222:1 1224:5 1235:1 1264:5
1 222:1 1224:3 1235:1 1264:3
1 222:1 1224:4 1235:1 1264:4
1 222:1 1224:3 1235:1 1264:3
1 222:1 1224:4 1235:1 1264:4
1 222:1 1224:3 1235:1 1264:3
1 222:1 1224:4 1235:1 1264:4
1 222:1 1224:3 1235:1 1264:3
1 222:1 1224:4 1235:1 1264:4
1 222:1 1224:3 1235:1 1264:3
1 222:1 1224:3 1235:1 1264:3
1 222:1 1224:3 1235:1 1264:3
1 222:1 1224:3 1235:1 1264:3
1 222:1 1224:4 1235:1 1264:4
1 222:1 1224:3 1235:1 1264:3
1 222:1 1224:3 1235:1 1264:3
1 222:1 1224:3 1235:1 1264:3
1 222:1 1224:4 1235:1 1264:4
1 222:1 226:1 418:1 524:1 598:1 625:1 1182:1 1206:1 1216:1 1224:7 1226:1 1235:1 1236:1 1238:1 1245:1 1249:1 1260:1 1264:7
1 222:1 1224:3 1235:1 1264:3
1 222:1 1224:3 1235:1 1264:3
1 222:1 1224:3 1235:1 1264:3
1 222:1 1224:4 1235:1 1264:4
1 598:1 605:1 1224:2 1226:1 1228:1 1264:2
1 157:1 226:1 236:1 418:1 524:1 591:1 598:1 625:1 748:1 810:1 858:1 868:1 881:1 958:1 1182:1 1206:1 1216:1 1221:1 1222:1 1223:1 1224:3 1226:1 1229:1 1234:1 1236:1 1237:1 1238:1 1239:1 1241:1 1243:1 1245:1 1249:1 1260:1 1264:3
1 157:1 226:1 418:1 524:1 598:1 748:1 1182:1 1206:1 1216:1 1224:2 1226:1 1236:1 1237:1 1238:1 1243:1 1249:1 1260:1 1264:2
1 222:1 1224:3 1235:1 1264:3
1 222:1 1224:3 1235:1 1264:3
1 222:1 1224:3 1235:1 1264:3
1 222:1 1224:3 1235:1 1264:3
1 222:1 226:1 418:1 524:1 598:1 625:1 1182:1 1206:1 1216:1 1224:6 1226:1 1235:1 1236:1 1238:1 1245:1 1249:1 1260:1 1264:6
1 222:1 1224:3 1235:1 1264:3
1 222:1 1224:3 1235:1 1264:3
1 222:1 1224:3 1235:1 1264:3
1 222:1 1224:3 1235:1 1264:3
1 222:1 1224:5 1235:1 1264:5
1 1224:1 1264:1
1 222:1 1224:3 1235:1 1264:3
1 222:1 1224:3 1235:1 1264:3
1 222:1 1224:3 1235:1 1264:3
1 222:1 1224:3 1235:1 1264:3
1 222:1 1224:3 1235:1 1264:3
1 598:1 605:1 1224:2 1226:1 1228:1 1264:2
1 1224:2 1264:2
1 222:1 1224:3 1235:1 1264:3
1 222:1 1224:6 1235:1 1264:6
1 222:1 226:1 418:1 524:1 598:1 625:1 1182:1 1206:1 1216:1 1224:7 1226:1 1235:1 1236:1 1238:1 1245:1 1249:1 1260:1 1264:7
1 222:1 1224:4 1235:1 1264:4
1 222:1 1224:3 1235:1 1264:3
1 598:1 605:1 1224:2 1226:1 1228:1 1264:2
1 222:1 1224:3 1235:1 1264:3
1 222:1 1224:4 1235:1 1264:4
1 157:1 226:1 236:1 418:1 520:1 524:1 543:1 591:1 598:1 625:1 748:1 810:1 858:1 868:1 881:1 958:1 1182:1 1206:1 1214:1 1216:1 1221:1 1222:1 1223:1 1224:1 1226:1 1227:1 1229:1 1234:1 1236:1 1237:1 1238:1 1239:1 1241:1 1243:1 1245:1 1249:1 1260:1 1264:1
1 222:1 1224:3 1235:1 1264:3
1 222:1 1224:3 1235:1 1264:3
1 222:1 1224:3 1235:1 1264:3
1 222:1 1224:3 1235:1 1264:3
1 222:1 1224:3 1235:1 1264:3
1 222:1 1224:4 1235:1 1264:4
1 222:1 1224:3 1235:1 1264:3
1 222:1 1224:4 1235:1 1264:4
1 222:1 1224:3 1235:1 1264:3
1 222:1 1224:3 1235:1 1264:3
1 222:1 1224:4 1235:1 1264:4
1 222:1 1224:3 1235:1 1264:3
1 222:1 1224:3 1235:1 1264:3
1 157:1 226:1 418:1 524:1 598:1 748:1 1182:1 1216:1 1224:2 1226:1 1236:1 1237:1 1238:1 1243:1 1249:1 1264:2
1 222:1 1224:3 1235:1 1264:3
1 598:1 605:1 1224:2 1226:1 1228:1 1264:2
1 222:1 1224:3 1235:1 1264:3
1 222:1 1224:3 1235:1 1264:3
1 222:1 1224:4 1235:1 1264:4
1 222:1 1224:3 1235:1 1264:3
1 222:1 1224:3 1235:1 1264:3
1 222:1 1224:3 1235:1 1264:3
1 222:1 1224:3 1235:1 1264:3
1 222:1 1224:5 1235:1 1264:5
1 222:1 1224:3 1235:1 1264:3
1 222:1 1224:4 1235:1 1264:4
1 222:1 1224:4 1235:1 1264:4
1 222:1 1224:3 1235:1 1264:3
1 222:1 1224:3 1235:1 1264:3
1 222:1 1224:3 1235:1 1264:3
1 222:1 1224:3 1235:1 1264:3
1 222:1 1224:3 1235:1 1264:3
1 222:1 1224:3 1235:1 1264:3
1 222:1 1224:4 1235:1 1264:4
1 222:1 1224:3 1235:1 1264:3
1 222:1 1224:4 1235:1 1264:4
1 157:1 226:1 418:1 524:1 598:1 748:1 1182:1 1206:1 1216:1 1224:2 1226:1 1236:1 1237:1 1238:1 1243:1 1249:1 1260:1 1264:2
1 222:1 1224:3 1235:1 1264:3
1 222:1 1224:3 1235:1 1264:3
1 222:1 1224:3 1235:1 1264:3
1 222:1 1224:3 1235:1 1264:3
1 222:1 1224:3 1235:1 1264:3
1 222:1 1224:3 1235:1 1264:3
1 222:1 1224:3 1235:1 1264:3
1 222:1 1224:3 1235:1 1264:3
1 222:1 1224:5 1235:1 1264:5
1 222:1 1224:3 1235:1 1264:3
1 222:1 1224:3 1235:1 1264:3
1 222:1 1224:4 1235:1 1264:4
1 598:1 605:1 1224:2 1226:1 1228:1 1264:2
1 222:1 1224:4 1235:1 1264:4
1 222:1 1224:4 1235:1 1264:4
1 222:1 1224:3 1235:1 1264:3
1 222:1 1224:3 1235:1 1264:3
1 222:1 226:1 418:1 524:1 598:1 625:1 1182:1 1206:1 1216:1 1224:7 1226:1 1235:1 1236:1 1238:1 1245:1 1249:1 1260:1 1264:7
1 222:1 1224:3 1235:1 1264:3
1 222:1 1224:3 1235:1 1264:3
1 222:1 1224:3 1235:1 1264:3
1 226:1 418:2 524:1 598:3 625:1 1182:2 1216:1 1224:6 1226:3 1236:1 1238:2 1245:1 1249:2 1264:6
1 222:1 1224:3 1235:1 1264:3
1 222:1 1224:4 1235:1 1264:4
1 222:1 1224:3 1235:1 1264:3
1 222:1 1224:4 1235:1 1264:4
1 222:1 1224:4 1235:1 1264:4
1 222:1 1224:2 1235:1 1264:2
1 222:1 1224:3 1235:1 1264:3
1 222:1 1224:3 1235:1 1264:3
1 222:1 1224:2 1235:1 1264:2
1 222:1 1224:3 1235:1 1264:3
1 222:1 1224:3 1235:1 1264:3
1 174:1 574:1 598:1 1224:1 1226:1 1248:1 1251:1 1264:1
1 222:1 1224:4 1235:1 1264:4
1 598:1 605:1 1224:2 1226:1 1228:1 1264:2
1 157:1 226:1 418:1 524:1 598:1 748:1 1182:1 1216:1 1224:2 1226:1 1236:1 1237:1 1238:1 1243:1 1249:1 1264:2
1 222:1 1224:4 1235:1 1264:4
1 598:1 605:1 625:1 1224:2 1226:1 1228:1 1245:1 1264:2
1 222:1 1224:3 1235:1 1264:3
1 222:1 1224:3 1235:1 1264:3
1 157:1 226:1 418:1 524:1 598:1 748:1 1182:1 1206:1 1216:1 1224:2 1226:1 1236:1 1237:1 1238:1 1243:1 1249:1 1260:1 1264:2
1 222:1 1224:3 1235:1 1264:3
1 222:1 1224:3 1235:1 1264:3
1 222:1 1224:3 1235:1 1264:3
1 222:1 1224:3 1235:1 1264:3
1 222:1 1224:3 1235:1 1264:3
1 222:1 1224:4 1235:1 1264:4
1 222:1 1224:3 1235:1 1264:3
1 598:1 605:1 625:1 1224:2 1226:1 1228:1 1245:1 1264:2
1 222:1 1224:3 1235:1 1264:3
1 222:1 1224:4 1235:1 1264:4
1 222:1 1224:3 1235:1 1264:3
1 222:1 1224:3 1235:1 1264:3
1 157:1 226:1 236:1 418:1 520:1 524:1 543:1 591:1 598:1 625:1 748:1 810:1 858:1 868:1 881:1 958:1 1182:1 1206:1 1214:1 1216:1 1221:1 1222:1 1223:1 1224:2 1226:1 1227:1 1229:1 1234:1 1236:1 1237:1 1238:1 1239:1 1241:1 1243:1 1245:1 1249:1 1260:1 1264:2
1 222:1 1224:3 1235:1 1264:3
1 222:1 1224:3 1235:1 1264:3
1 222:1 1224:3 1235:1 1264:3
1 222:1 1224:3 1235:1 1264:3
1 222:1 1224:3 1235:1 1264:3
1 222:1 1224:3 1235:1 1264:3
1 222:1 1224:3 1235:1 1264:3
1 157:1 226:1 236:1 418:1 520:1 524:1 543:1 591:1 598:1 625:1 748:1 810:1 858:1 868:1 881:1 958:1 1182:1 1206:1 1214:1 1216:1 1221:1 1222:1 1223:1 1224:2 1226:1 1227:1 1229:1 1234:1 1236:1 1237:1 1238:1 1239:1 1241:1 1243:1 1245:1 1249:1 1260:1 1264:2
1 222:1 1224:3 1235:1 1264:3
1 222:1 1224:3 1235:1 1264:3
1 222:1 1224:3 1235:1 1264:3
1 598:1 605:1 1224:2 1226:1 1228:1 1264:2
1 222:1 226:1 418:1 524:1 598:1 625:1 1182:1 1206:1 1216:1 1224:7 1226:1 1235:1 1236:1 1238:1 1245:1 1249:1 1260:1 1264:7
1 222:1 1224:3 1235:1 1264:3
1 222:1 1224:3 1235:1 1264:3
1 222:1 1224:3 1235:1 1264:3
1 222:1 1224:4 1235:1 1264:4
1 222:1 1224:5 1235:1 1264:5
1 222:1 1224:5 1235:1 1264:5
1 222:1 1224:3 1235:1 1264:3
1 222:1 1224:4 1235:1 1264:4
1 222:1 1224:3 1235:1 1264:3
1 222:1 1224:4 1235:1 1264:4
1 222:1 1224:3 1235:1 1264:3
1 222:1 1224:4 1235:1 1264:4
1 222:1 1224:3 1235:1 1264:3
1 222:1 1224:4 1235:1 1264:4
1 222:1 1224:3 1235:1 1264:3
1 222:1 1224:3 1235:1 1264:3
1 222:1 1224:3 1235:1 1264:3
1 222:1 1224:3 1235:1 1264:3
1 157:1 226:3 365:1 418:3 524:2 591:1 598:4 625:2 748:2 1182:3 1216:2 1222:1 1224:6 1226:4 1236:3 1237:2 1238:3 1243:1 1244:1 1245:2 1249:3 1264:6
1 222:1 1224:4 1235:1 1264:4
1 222:1 1224:3 1235:1 1264:3
1 217:1 249:1 374:1 391:1 418:1 520:1 563:1 598:1 617:1 625:1 705:1 748:1 791:1 990:1 1128:1 1129:1 1182:1 1214:1 1215:1 1218:1 1224:3 1226:1 1231:1 1237:1 1238:1 1240:1 1242:1 1245:1 1249:1 1250:1 1254:1 1255:1 1256:1 1259:1 1262:1 1264:3 1266:1
1 222:1 1224:3 1235:1 1264:3
1 222:1 1224:3 1235:1 1264:3
1 157:1 226:1 236:1 418:1 524:1 591:1 598:1 625:1 748:1 810:1 858:1 868:1 881:1 958:1 1182:1 1206:1 1216:1 1221:1 1222:1 1223:1 1224:4 1226:1 1229:1 1234:1 1236:1 1237:1 1238:1 1239:1 1241:1 1243:1 1245:1 1249:1 1260:1 1264:4
1 222:1 1224:4 1235:1 1264:4
1 222:1 1224:4 1235:1 1264:4
1 222:1 1224:3 1235:1 1264:3
1 222:1 1224:3 1235:1 1264:3
1 598:1 605:1 1224:2 1226:1 1228:1 1264:2
1 157:1 418:1 524:1 598:1 1182:1 1206:1 1216:1 1224:2 1226:1 1238:1 1243:1 1249:1 1260:1 1264:2
1 222:1 1224:3 1235:1 1264:3
1 222:1 1224:4 1235:1 1264:4
1 157:1 226:1 418:1 524:1 598:1 748:1 1182:1 1216:1 1224:2 1226:1 1236:1 1237:1 1238:1 1243:1 1249:1 1264:2
1 222:1 1224:3 1235:1 1264:3
1 222:1 1224:3 1235:1 1264:3
1 222:1 1224:4 1235:1 1264:4
1 222:1 1224:3 1235:1 1264:3
1 598:1 605:1 1224:2 1226:1 1228:1 1264:2
1 222:1 1224:3 1235:1 1264:3
1 222:1 1224:4 1235:1 1264:4
1 222:1 1224:3 1235:1 1264:3
1 222:1 1224:3 1235:1 1264:3
1 222:1 226:1 418:1 524:1 598:1 625:1 1182:1 1206:1 1216:1 1224:7 1226:1 1235:1 1236:1 1238:1 1245:1 1249:1 1260:1 1264:7
1 222:1 1224:3 1235:1 1264:3
1 222:1 1224:3 1235:1 1264:3
1 598:1 605:1 1224:2 1226:1 1228:1 1264:2
1 222:1 1224:3 1235:1 1264:3
1 222:1 1224:3 1235:1 1264:3
1 222:1 1224:3 1235:1 1264:3
1 222:1 1224:3 1235:1 1264:3
1
1 598:1 1224:3 1226:1 1264:3
1 222:1 1224:3 1235:1 1264:3
1 222:1 1224:3 1235:1 1264:3
1 222:1 226:1 418:1 524:1 598:1 625:1 1182:1 1206:1 1216:1 1224:7 1226:1 1235:1 1236:1 1238:1 1245:1 1249:1 1260:1 1264:7
1 222:1 1224:3 1235:1 1264:3
1 222:1 1224:3 1235:1 1264:3
1 222:1 1224:3 1235:1 1264:3
1 222:1 1224:3 1235:1 1264:3
1 222:1 1224:3 1235:1 1264:3
1 222:1 1224:4 1235:1 1264:4
1 222:1 1224:3 1235:1 1264:3
1 222:1 1224:3 1235:1 1264:3
1 222:1 1224:3 1235:1 1264:3
1 222:1 1224:3 1235:1 1264:3
1 222:1 1224:3 1235:1 1264:3
1 222:1 1224:3 1235:1 1264:3
1 222:1 1224:5 1235:1 1264:5
1 222:1 1224:4 1235:1 1264:4
1 222:1 1224:3 1235:1 1264:3
1 222:1 1224:3 1235:1 1264:3
1 222:1 1224:4 1235:1 1264:4
1 222:1 1224:3 1235:1 1264:3
1 222:1 1224:2 1235:1 1264:2
1 222:1 1224:3 1235:1 1264:3
1 418:1 574:1 598:1 1224:3 1226:1 1238:1 1248:1 1264:3
1 222:1 1224:4 1235:1 1264:4
1 222:1 1224:3 1235:1 1264:3
1 222:1 1224:3 1235:1 1264:3
1 222:1 1224:4 1235:1 1264:4
1 1224:4 1264:4
1 222:1 1224:3 1235:1 1264:3
1 222:1 1224:4 1235:1 1264:4
1 222:1 1224:3 1235:1 1264:3
1 222:1 1224:4 1235:1 1264:4
1 222:1 1224:4 1235:1 1264:4
1 157:1 226:1 418:1 524:1 598:1 748:1 1182:1 1206:1 1216:1 1224:2 1226:1 1236:1 1237:1 1238:1 1243:1 1249:1 1260:1 1264:2
1 222:1 1224:3 1235:1 1264:3
1 222:1 1224:3 1235:1 1264:3
1 222:1 1224:4 1235:1 1264:4
1 222:1 1224:4 1235:1 1264:4
1 222:1 1224:4 1235:1 1264:4
1 1224:1 1264:1
1 222:1 1224:4 1235:1 1264:4
1 222:1 1224:3 1235:1 1264:3
1 222:1 1224:3 1235:1 1264:3
1 222:1 1224:3 1235:1 1264:3
1 222:1 1224:3 1235:1 1264:3
1 226:1 418:2 491:1 598:4 1152:1 1224:11 1225:1 1226:4 1236:1 1238:2 1247:1 1264:11
1 222:1 1224:3 1235:1 1264:3
1 222:1 1224:3 1235:1 1264:3
1 598:1 605:1 625:1 1224:2 1226:1 1228:1 1245:1 1264:2
1 222:1 1224:4 1235:1 1264:4
1 222:1 1224:3 1235:1 1264:3
1 222:1 1224:3 1235:1 1264:3
1 222:1 1224:3 1235:1 1264:3
1 222:1 1224:3 1235:1 1264:3
1 222:1 1224:3 1235:1 1264:3
1 222:1 226:1 418:1 524:1 598:1 625:1 1182:1 1206:1 1216:1 1224:7 1226:1 1235:1 1236:1 1238:1 1245:1 1249:1 1260:1 1264:7
1 157:1 226:1 236:1 418:1 520:1 524:1 543:1 591:1 598:1 625:1 748:1 810:1 858:1 868:1 881:1 958:1 1182:1 1206:1 1214:1 1216:1 1221:1 1222:1 1223:1 1224:2 1226:1 1227:1 1229:1 1234:1 1236:1 1237:1 1238:1 1239:1 1241:1 1243:1 1245:1 1249:1 1260:1 1264:2
1 222:1 1224:3 1235:1 1264:3
1 222:1 1224:3 1235:1 1264:3
1 222:1 1224:3 1235:1 1264:3
1 222:1 1224:3 1235:1 1264:3
1 222:1 1224:4 1235:1 1264:4
1 222:1 1224:4 1235:1 1264:4
1 222:1 1224:4 1235:1 1264:4
1 222:1 1224:5 1235:1 1264:5
1 222:1 1224:3 1235:1 1264:3
1 222:1 1224:3 1235:1 1264:3
1 222:1 1224:2 1235:1 1264:2
1 222:1 1224:3 1235:1 1264:3
1 222:1 1224:3 1235:1 1264:3
1 222:1 1224:5 1235:1 1264:5
1 222:1 1224:3 1235:1 1264:3
1 222:1 1224:3 1235:1 1264:3
1 222:1 1224:3 1235:1 1264:3
1 222:1 1224:4 1235:1 1264:4
1 222:1 1224:3 1235:1 1264:3
1 222:1 1224:3 1235:1 1264:3
1 222:1 1224:3 1235:1 1264:3
1 222:1 1224:4 1235:1 1264:4
1 222:1 1224:3 1235:1 1264:3
1 222:1 1224:3 1235:1 1264:3
1 222:1 1224:3 1235:1 1264:3
1 174:1 574:1 598:1 1224:1 1226:1 1248:1 1251:1 1264:1
1 222:1 1224:5 1235:1 1264:5
1 418:1 574:1 598:1 1224:3 1226:1 1238:1 1248:1 1264:3
1 222:1 1224:3 1235:1 1264:3
1 222:1 1224:3 1235:1 1264:3
1 222:1 1224:3 1235:1 1264:3
1 222:1 1224:3 1235:1 1264:3
1 222:1 1224:3 1235:1 1264:3
1 222:1 1224:3 1235:1 1264:3
1 222:1 1224:3 1235:1 1264:3
1 222:1 1224:3 1235:1 1264:3
1 222:1 1224:2 1235:1 1264:2
1 157:1 174:1 365:1 418:1 524:1 598:1 1182:1 1206:1 1216:1 1224:5 1226:1 1238:1 1243:1 1244:1 1249:1 1251:1 1260:1 1264:5
1 222:1 1224:3 1235:1 1264:3
1 222:1 1224:3 1235:1 1264:3
1 418:1 574:1 598:1 1224:1 1226:1 1238:1 1248:1 1264:1
1 222:1 1224:3 1235:1 1264:3
1 222:1 1224:3 1235:1 1264:3
1 222:1 226:1 418:1 524:1 598:1 625:1 1182:1 1206:1 1216:1 1224:7 1226:1 1235:1 1236:1 1238:1 1245:1 1249:1 1260:1 1264:7
1 222:1 1224:3 1235:1 1264:3
1 598:1 605:1 1224:2 1226:1 1228:1 1264:2
1 222:1 1224:4 1235:1 1264:4
1 222:1 1224:3 1235:1 1264:3
1 1224:3 1264:3
1 222:1 1224:3 1235:1 1264:3
1 222:1 1224:3 1235:1 1264:3
1 222:1 226:1 418:1 524:1 598:1 625:1 1182:1 1206:1 1216:1 1224:7 1226:1 1235:1 1236:1 1238:1 1245:1 1249:1 1260:1 1264:7
1 222:1 1224:3 1235:1 1264:3
1 222:1 1224:3 1235:1 1264:3
1 222:1 1224:3 1235:1 1264:3
1 222:1 1224:4 1235:1 1264:4
1 598:1 1224:8 1226:1 1264:8
1 222:1 1224:3 1235:1 1264:3
1 222:1 1224:3 1235:1 1264:3
1 222:1 1224:3 1235:1 1264:3
1 222:1 1224:5 1235:1 1264:5
1 222:1 226:1 418:1 524:1 598:1 625:1 1182:1 1206:1 1216:1 1224:8 1226:1 1235:1 1236:1 1238:1 1245:1 1249:1 1260:1 1264:8
1 222:1 1224:6 1235:1 1264:6
1 222:1 1224:4 1235:1 1264:4
1 157:1 174:1 365:1 418:1 524:1 598:1 1182:1 1206:1 1216:1 1224:3 1226:1 1238:1 1243:1 1244:1 1249:1 1251:1 1260:1 1264:3
1 222:1 1224:3 1235:1 1264:3
1 222:1 1224:3 1235:1 1264:3
1 222:1 1224:3 1235:1 1264:3
1 1224:3 1264:3
1 222:1 1224:4 1235:1 1264:4
1 222:1 1224:3 1235:1 1264:3
1 222:1 1224:4 1235:1 1264:4
1 222:1 1224:3 1235:1 1264:3
1 222:1 1224:3 1235:1 1264:3
1 222:1 1224:4 1235:1 1264:4
1 222:1 1224:3 1235:1 1264:3
1 222:1 1224:2 1235:1 1264:2
1 222:1 1224:4 1235:1 1264:4
1 222:1 1224:3 1235:1 1264:3
1 222:1 226:1 418:1 524:1 598:1 625:1 1182:1 1206:1 1216:1 1224:7 1226:1 1235:1 1236:1 1238:1 1245:1 1249:1 1260:1 1264:7
1 222:1 1224:3 1235:1 1264:3
1 222:1 1224:5 1235:1 1264:5
1 222:1 1224:3 1235:1 1264:3
1 226:1 491:1 598:2 1224:5 1226:2 1236:1 1247:1 1264:5
1 222:1 1224:3 1235:1 1264:3
1 222:1 1224:2 1235:1 1264:2
1 222:1 1224:3 1235:1 1264:3
1 222:1 1224:5 1235:1 1264:5
1 222:1 1224:4 1235:1 1264:4
1 222:1 1224:4 1235:1 1264:4
1 222:1 1224:3 1235:1 1264:3
1 222:1 1224:4 1235:1 1264:4
1 222:1 1224:4 1235:1 1264:4
1 222:1 1224:3 1235:1 1264:3
1 157:1 226:1 418:1 524:1 598:1 748:1 1182:1 1216:1 1224:3 1226:1 1236:1 1237:1 1238:1 1243:1 1249:1 1264:3
1 222:1 1224:3 1235:1 1264:3
1 222:1 1224:3 1235:1 1264:3
1 222:1 1224:3 1235:1 1264:3
1 222:1 1224:3 1235:1 1264:3
1 222:1 1224:3 1235:1 1264:3
1 222:1 1224:4 1235:1 1264:4
1 222:1 1224:4 1235:1 1264:4
1 222:1 1224:3 1235:1 1264:3
1 222:1 1224:3 1235:1 1264:3
1 157:1 222:1 226:1 418:1 598:1 1182:1 1224:4 1226:1 1235:1 1236:1 1238:1 1243:1 1249:1 1264:4
1 157:1 226:3 365:1 418:3 524:2 591:1 598:4 625:2 748:2 1182:3 1216:2 1222:1 1224:6 1226:4 1236:3 1237:2 1238:3 1243:1 1244:1 1245:2 1249:3 1264:6
1 222:1 1224:3 1235:1 1264:3
1 222:1 1224:4 1235:1 1264:4
1 222:1 1224:3 1235:1 1264:3
1 1224:3 1264:3
1 222:1 1224:3 1235:1 1264:3
1 222:1 1224:3 1235:1 1264:3
1 222:1 1224:3 1235:1 1264:3
1 222:1 1224:3 1235:1 1264:3
1 222:1 1224:3 1235:1 1264:3
1 222:1 1224:4 1235:1 1264:4
1 222:1 1224:4 1235:1 1264:4
1 222:1 1224:4 1235:1 1264:4
1 222:1 1224:4 1235:1 1264:4
1 222:1 1224:3 1235:1 1264:3
1 222:1 1224:2 1235:1 1264:2
1 222:1 1224:4 1235:1 1264:4
1 222:1 1224:3 1235:1 1264:3
1 222:1 1224:3 1235:1 1264:3
1 222:1 1224:3 1235:1 1264:3
1 222:1 1224:3 1235:1 1264:3
1 1224:3 1264:3
1 222:1 1224:4 1235:1 1264:4
1 222:1 1224:3 1235:1 1264:3
1 222:1 1224:4 1235:1 1264:4
1 222:1 1224:3 1235:1 1264:3
1 157:1 226:1 236:1 418:1 520:1 524:1 543:1 591:1 598:1 625:1 748:1 810:1 858:1 868:1 881:1 958:1 1182:1 1206:1 1214:1 1216:1 1221:1 1222:1 1223:1 1224:1 1226:1 1227:1 1229:1 1234:1 1236:1 1237:1 1238:1 1239:1 1241:1 1243:1 1245:1 1249:1 1260:1 1264:1
1 222:1 1224:3 1235:1 1264:3
1 222:1 1224:3 1235:1 1264:3
1 222:1 1224:3 1235:1 1264:3
1 222:1 226:1 418:1 524:1 598:1 625:1 1182:1 1206:1 1216:1 1224:6 1226:1 1235:1 1236:1 1238:1 1245:1 1249:1 1260:1 1264:6
1 222:1 1224:3 1235:1 1264:3
1 222:1 1224:3 1235:1 1264:3
1 222:1 1224:3 1235:1 1264:3
1 222:1 1224:3 1235:1 1264:3
1 222:1 1224:3 1235:1 1264:3
1 222:1 1224:3 1235:1 1264:3
1 222:1 1224:3 1235:1 1264:3
1 222:1 1224:5 1235:1 1264:5
1 222:1 1224:3 1235:1 1264:3
1 222:1 1224:3 1235:1 1264:3
1 222:1 1224:3 1235:1 1264:3
1 222:1 1224:4 1235:1 1264:4
1 222:1 1224:3 1235:1 1264:3
1 222:1 1224:3 1235:1 1264:3
1 222:1 1224:3 1235:1 1264:3
1 222:1 1224:4 1235:1 1264:4
1 222:1 226:1 418:1 524:1 598:1 625:1 1182:1 1206:1 1216:1 1224:7 1226:1 1235:1 1236:1 1238:1 1245:1 1249:1 1260:1 1264:7
1 222:1 1224:4 1235:1 1264:4
1 222:1 1224:3 1235:1 1264:3
1 222:1 1224:3 1235:1 1264:3
1 222:1 1224:3 1235:1 1264:3
1 222:1 1224:3 1235:1 1264:3
1 222:1 1224:3 1235:1 1264:3
1 222:1 1224:3 1235:1 1264:3
1 454:1 1219:1 1224:2 1264:2
1 222:1 1224:4 1235:1 1264:4
1 222:1 1224:3 1235:1 1264:3
1 222:1 1224:4 1235:1 1264:4
1 222:1 1224:3 1235:1 1264:3
1 222:1 1224:3 1235:1 1264:3
1 222:1 1224:3 1235:1 1264:3
1 222:1 1224:3 1235:1 1264:3
1 222:1 1224:3 1235:1 1264:3
1 222:1 1224:4 1235:1 1264:4
1 222:1 1224:3 1235:1 1264:3
1 222:1 1224:4 1235:1 1264:4
1 418:1 574:1 598:1 1224:3 1226:1 1238:1 1248:1 1264:3
1 222:1 1224:4 1235:1 1264:4
1 222:1 1224:3 1235:1 1264:3
1 222:1 1224:3 1235:1 1264:3
1 222:1 1224:5 1235:1 1264:5
1 222:1 1224:3 1235:1 1264:3
1 222:1 1224:3 1235:1 1264:3
1 222:1 1224:3 1235:1 1264:3
1 222:1 1224:3 1235:1 1264:3
1 222:1 1224:3 1235:1 1264:3
1 157:1 226:1 236:1 418:1 524:1 591:1 598:1 625:1 748:1 810:1 858:1 868:1 881:1 958:1 1182:1 1206:1 1216:1 1221:1 1222:1 1223:1 1224:2 1226:1 1229:1 1234:1 1236:1 1237:1 1238:1 1239:1 1241:1 1243:1 1245:1 1249:1 1260:1 1264:2
1 222:1 1224:3 1235:1 1264:3
1 222:1 1224:3 1235:1 1264:3
1 222:1 1224:4 1235:1 1264:4
1 222:1 1224:3 1235:1 1264:3
1 222:1 1224:3 1235:1 1264:3
1 222:1 1224:3 1235:1 1264:3
1 222:1 1224:4 1235:1 1264:4
1 222:1 226:1 418:1 524:1 598:1 625:1 1182:1 1206:1 1216:1 1224:6 1226:1 1235:1 1236:1 1238:1 1245:1 1249:1 1260:1 1264:6
1 222:1 1224:3 1235:1 1264:3
1 222:1 1224:3 1235:1 1264:3
1 222:1 1224:3 1235:1 1264:3
1 598:1 605:1 625:1 1224:2 1226:1 1228:1 1245:1 1264:2
1 226:1 418:1 572:1 598:1 625:1 705:1 748:1 1182:1 1224:5 1226:1 1236:1 1237:1 1238:1 1245:1 1246:1 1249:1 1259:1 1263:1 1264:5
1 222:1 1224:4 1235:1 1264:4
1 222:1 1224:3 1235:1 1264:3
1 222:1 1224:3 1235:1 1264:3
1 222:1 1224:3 1235:1 1264:3
1 1224:4 1264:4
1 222:1 1224:3 1235:1 1264:3
1 598:1 605:1 1224:2 1226:1 1228:1 1264:2
1 598:1 605:1 1224:2 1226:1 1228:1 1264:2
1 222:1 1224:3 1235:1 1264:3
1 222:1 1224:4 1235:1 1264:4
1 222:1 1224:3 1235:1 1264:3
1 222:1 1224:2 1235:1 1264:2
1 222:1 1224:3 1235:1 1264:3
1 222:1 1224:3 1235:1 1264:3
1 222:1 1224:3 1235:1 1264:3
1 222:1 1224:5 1235:1 1264:5
1 222:1 1224:3 1235:1 1264:3
1 222:1 1224:3 1235:1 1264:3
1 222:1 1224:3 1235:1 1264:3
1 222:1 1224:3 1235:1 1264:3
1 222:1 1224:3 1235:1 1264:3
1 222:1 1224:3 1235:1 1264:3
1 222:1 1224:3 1235:1 1264:3
1 222:1 1224:3 1235:1 1264:3
1 222:1 1224:3 1235:1 1264:3
1 222:1 1224:3 1235:1 1264:3
1 222:1 1224:3 1235:1 1264:3
1 222:1 1224:3 1235:1 1264:3
1 222:1 1224:4 1235:1 1264:4
1 222:1 1224:3 1235:1 1264:3
1 222:1 1224:3 1235:1 1264:3
1 222:1 1224:4 1235:1 1264:4
1 598:1 605:1 1224:2 1226:1 1228:1 1264:2
1 222:1 1224:4 1235:1 1264:4
1 222:1 1224:3 1235:1 1264:3
1 222:1 1224:3 1235:1 1264:3
1 222:1 1224:3 1235:1 1264:3
1 222:1 1224:3 1235:1 1264:3
1 222:1 1224:3 1235:1 1264:3
1 222:1 1224:3 1235:1 1264:3
1 222:1 1224:3 1235:1 1264:3
1 222:1 1224:3 1235:1 1264:3
1 222:1 1224:3 1235:1 1264:3
1 226:1 491:1 598:2 1224:6 1226:2 1236:1 1247:1 1264:6
1 222:1 1224:3 1235:1 1264:3
1 222:1 1224:3 1235:1 1264:3
1 222:1 1224:3 1235:1 1264:3
1 222:1 1224:3 1235:1 1264:3
1 222:1 1224:4 1235:1 1264:4
1 222:1 1224:3 1235:1 1264:3
1 222:1 1224:3 1235:1 1264:3
1 598:1 1224:3 1226:1 1264:3
1 222:1 1224:3 1235:1 1264:3
1 222:1 1224:3 1235:1 1264:3
1 222:1 1224:3 1235:1 1264:3
1 454:1 1219:1 1224:3 1264:3
1 222:1 1224:3 1235:1 1264:3
1 222:1 1224:5 1235:1 1264:5
1 222:1 1224:3 1235:1 1264:3
1 222:1 1224:2 1235:1 1264:2
1 222:1 1224:3 1235:1 1264:3
1 222:1 1224:3 1235:1 1264:3
1 222:1 226:1 418:1 524:1 598:1 625:1 1182:1 1206:1 1216:1 1224:7 1226:1 1235:1 1236:1 1238:1 1245:1 1249:1 1260:1 1264:7
1 222:1 1224:3 1235:1 1264:3
1 222:1 1224:3 1235:1 1264:3
1 222:1 1224:3 1235:1 1264:3
1 222:1 1224:3 1235:1 1264:3
1 222:1 1224:3 1235:1 1264:3
1 222:1 1224:4 1235:1 1264:4
1 222:1 1224:3 1235:1 1264:3
1 222:1 1224:3 1235:1 1264:3
1 222:1 1224:3 1235:1 1264:3
1 222:1 1224:3 1235:1 1264:3
1 222:1 1224:3 1235:1 1264:3
1 222:1 1224:3 1235:1 1264:3
1 222:1 1224:4 1235:1 1264:4
1 222:1 1224:4 1235:1 1264:4
1 222:1 1224:3 1235:1 1264:3
1 222:1 1224:4 1235:1 1264:4
1 222:1 1224:4 1235:1 1264:4
1 222:1 1224:4 1235:1 1264:4
1 222:1 1224:4 1235:1 1264:4
1 157:1 226:1 418:1 524:1 598:1 748:1 1182:1 1216:1 1224:3 1226:1 1236:1 1237:1 1238:1 1243:1 1249:1 1264:3
1 222:1 1224:3 1235:1 1264:3
1 222:1 1224:3 1235:1 1264:3
1 222:1 1224:3 1235:1 1264:3
1 222:1 1224:3 1235:1 1264:3
1 157:1 598:1 1224:5 1226:1 1243:1 1264:5
1 222:1 1224:3 1235:1 1264:3
1 222:1 1224:4 1235:1 1264:4
1 222:1 1224:4 1235:1 1264:4
1 222:1 1224:3 1235:1 1264:3
1 598:1 605:1 1224:3 1226:1 1228:1 1264:3
1 222:1 1224:3 1235:1 1264:3
1 222:1 1224:4 1235:1 1264:4
1 222:1 1224:3 1235:1 1264:3
1 222:1 1224:3 1235:1 1264:3
1 222:1 1224:4 1235:1 1264:4
1 222:1 1224:3 1235:1 1264:3
1 222:1 1224:4 1235:1 1264:4
1 222:1 1224:3 1235:1 1264:3
1 174:1 574:1 598:1 1224:1 1226:1 1248:1 1251:1 1264:1
1 226:1 491:1 598:2 1224:6 1226:2 1236:1 1247:1 1264:6
1 222:1 1224:3 1235:1 1264:3
1 222:1 1224:4 1235:1 1264:4
1 222:1 1224:3 1235:1 1264:3
1 222:1 1224:3 1235:1 1264:3
1 222:1 1224:3 1235:1 1264:3
1 222:1 1224:3 1235:1 1264:3
1 222:1 1224:3 1235:1 1264:3
1 222:1 1224:4 1235:1 1264:4
1 222:1 1224:5 1235:1 1264:5
1 222:1 1224:4 1235:1 1264:4
1 222:1 1224:3 1235:1 1264:3
1 157:1 226:1 418:1 524:1 574:1 598:1 625:1 748:1 868:1 1182:1 1216:1 1223:1 1224:2 1226:1 1236:1 1237:1 1238:1 1243:1 1245:1 1248:1 1249:1 1264:2
1 222:1 1224:3 1235:1 1264:3
1 222:1 1224:3 1235:1 1264:3
1 222:1 1224:3 1235:1 1264:3
1 222:1 1224:3 1235:1 1264:3
1 222:1 1224:3 1235:1 1264:3
1 598:1 605:1 1224:2 1226:1 1228:1 1264:2
1 222:1 1224:3 1235:1 1264:3
1 222:1 1224:3 1235:1 1264:3
1 157:1 226:1 236:1 418:1 520:1 524:1 543:1 591:1 598:1 625:1 748:1 810:1 858:1 868:1 881:1 958:1 1182:1 1206:1 1214:1 1216:1 1221:1 1222:1 1223:1 1224:2 1226:1 1227:1 1229:1 1234:1 1236:1 1237:1 1238:1 1239:1 1241:1 1243:1 1245:1 1249:1 1260:1 1264:2
1 222:1 1224:3 1235:1 1264:3
1 222:1 1224:3 1235:1 1264:3
1 222:1 1224:2 1235:1 1264:2
1 222:1 1224:4 1235:1 1264:4
1 222:1 1224:3 1235:1 1264:3
1 222:1 1224:3 1235:1 1264:3
1 222:1 1224:4 1235:1 1264:4
1 157:1 226:1 236:1 418:1 520:1 524:1 543:1 591:1 598:1 625:1 748:1 810:1 858:1 868:1 881:1 958:1 1182:1 1206:1 1214:1 1216:1 1221:1 1222:1 1223:1 1224:3 1226:1 1227:1 1229:1 1234:1 1236:1 1237:1 1238:1 1239:1 1241:1 1243:1 1245:1 1249:1 1260:1 1264:3
1 222:1 1224:3 1235:1 1264:3
1 222:1 1224:3 1235:1 1264:3
1 222:1 1224:3 1235:1 1264:3
1 222:1 1224:3 1235:1 1264:3
1 598:1 605:1 625:1 1224:2 1226:1 1228:1 1245:1 1264:2
1 222:1 1224:4 1235:1 1264:4
1 222:1 1224:3 1235:1 1264:3
1 157:1 226:1 418:1 524:1 598:1 748:1 1182:1 1206:1 1216:1 1224:2 1226:1 1236:1 1237:1 1238:1 1243:1 1249:1 1260:1 1264:2
1 222:1 1224:4 1235:1 1264:4
1 222:1 1224:3 1235:1 1264:3
1 222:1 1224:3 1235:1 1264:3
1 222:1 1224:3 1235:1 1264:3
1 222:1 1224:3 1235:1 1264:3
1 222:1 1224:2 1235:1 1264:2
1 222:1 1224:3 1235:1 1264:3
1 222:1 1224:4 1235:1 1264:4
1 222:1 1224:3 1235:1 1264:3
1 222:1 1224:3 1235:1 1264:3
1 157:1 226:1 236:1 418:1 520:1 524:1 543:1 591:1 598:1 625:1 748:1 810:1 858:1 868:1 881:1 958:1 1182:1 1206:1 1214:1 1216:1 1221:1 1222:1 1223:1 1224:2 1226:1 1227:1 1229:1 1234:1 1236:1 1237:1 1238:1 1239:1 1241:1 1243:1 1245:1 1249:1 1260:1 1264:2
1 222:1 1224:4 1235:1 1264:4
1 222:1 1224:3 1235:1 1264:3
1 222:1 1224:3 1235:1 1264:3
1 222:1 1224:3 1235:1 1264:3
1 157:1 226:1 236:1 418:1 520:1 524:1 543:1 591:1 598:1 625:1 748:1 810:1 858:1 868:1 881:1 958:1 1182:1 1206:1 1214:1 1216:1 1221:1 1222:1 1223:1 1224:2 1226:1 1227:1 1229:1 1234:1 1236:1 1237:1 1238:1 1239:1 1241:1 1243:1 1245:1 1249:1 1260:1 1264:2
1 222:1 1224:3 1235:1 1264:3
1 222:1 1224:4 1235:1 1264:4
1 222:1 1224:3 1235:1 1264:3
1 222:1 1224:3 1235:1 1264:3
1 222:1 1224:4 1235:1 1264:4
1 222:1 1224:3 1235:1 1264:3
1 222:1 1224:4 1235:1 1264:4
1 222:1 1224:3 1235:1 1264:3
1 222:1 1224:3 1235:1 1264:3
1 598:1 605:1 1224:2 1226:1 1228:1 1264:2
1 222:1 1224:3 1235:1 1264:3
1 222:1 1224:3 1235:1 1264:3
1 222:1 1224:3 1235:1 1264:3
1 222:1 1224:3 1235:1 1264:3
1 222:1 1224:3 1235:1 1264:3
1 222:1 1224:3 1235:1 1264:3
1 222:1 1224:3 1235:1 1264:3
1 222:1 1224:4 1235:1 1264:4
1 222:1 1224:3 1235:1 1264:3
1 174:1 418:1 524:1 598:1 856:1 1216:1 1220:1 1224:2 1226:1 1238:1 1251:1 1264:2
1 222:1 1224:3 1235:1 1264:3
1 222:1 1224:3 1235:1 1264:3
1 222:1 1224:4 1235:1 1264:4
1 222:1 1224:3 1235:1 1264:3
1 222:1 1224:3 1235:1 1264:3
1 222:1 1224:3 1235:1 1264:3
1 222:1 1224:3 1235:1 1264:3
1 222:1 1224:2 1235:1 1264:2
1 222:1 1224:3 1235:1 1264:3
1 222:1 1224:3 1235:1 1264:3
1 222:1 1224:3 1235:1 1264:3
1 222:1 1224:3 1235:1 1264:3
1 222:1 1224:4 1235:1 1264:4
1 598:1 605:1 625:1 1224:2 1226:1 1228:1 1245:1 1264:2
1 222:1 1224:5 1235:1 1264:5
1 222:1 1224:3 1235:1 1264:3
1 222:1 1224:3 1235:1 1264:3
1 222:1 1224:3 1235:1 1264:3
1 222:1 1224:4 1235:1 1264:4
1 222:1 1224:3 1235:1 1264:3
1 222:1 1224:3 1235:1 1264:3
1 222:1 1224:3 1235:1 1264:3
1 222:1 1224:3 1235:1 1264:3
1 222:1 1224:4 1235:1 1264:4
1 598:1 605:1 625:1 1224:2 1226:1 1228:1 1245:1 1264:2
1 222:1 1224:3 1235:1 1264:3
1 222:1 1224:3 1235:1 1264:3
1 222:1 1224:3 1235:1 1264:3
1 157:1 226:1 418:1 524:1 598:1 748:1 1182:1 1216:1 1224:3 1226:1 1236:1 1237:1 1238:1 1243:1 1249:1 1264:3
1 222:1 1224:4 1235:1 1264:4
1 222:1 1224:3 1235:1 1264:3
1 222:1 1224:4 1235:1 1264:4
1 222:1 1224:3 1235:1 1264:3
1 222:1 1224:5 1235:1 1264:5
1 222:1 1224:3 1235:1 1264:3
1 222:1 1224:3 1235:1 1264:3
1 222:1 1224:3 1235:1 1264:3
1 222:1 1224:4 1235:1 1264:4
1 222:1 1224:3 1235:1 1264:3
1 222:1 1224:3 1235:1 1264:3
1 222:1 1224:3 1235:1 1264:3
1 222:1 1224:3 1235:1 1264:3
1 226:1 491:1 598:2 1224:6 1226:2 1236:1 1247:1 1264:6
1 222:1 1224:3 1235:1 1264:3
1 157:1 226:1 236:1 418:1 520:1 524:1 543:1 591:1 598:1 625:1 748:1 810:1 858:1 868:1 881:1 958:1 1182:1 1206:1 1214:1 1216:1 1221:1 1222:1 1223:1 1224:3 1226:1 1227:1 1229:1 1234:1 1236:1 1237:1 1238:1 1239:1 1241:1 1243:1 1245:1 1249:1 1260:1 1264:3
1 598:1 605:1 625:1 1224:2 1226:1 1228:1 1245:1 1264:2
1 222:1 1224:4 1235:1 1264:4
1 222:1 1224:4 1235:1 1264:4
1 222:1 1224:4 1235:1 1264:4
1 222:1 1224:3 1235:1 1264:3
1 222:1 1224:3 1235:1 1264:3
1 157:1 226:1 418:1 524:1 598:1 748:1 1182:1 1206:1 1216:1 1224:2 1226:1 1236:1 1237:1 1238:1 1243:1 1249:1 1260:1 1264:2
1 139:1 176:1 418:1 524:1 598:1 625:1 748:1 881:1 1182:1 1216:1 1224:4 1226:1 1229:1 1230:1 1237:1 1238:1 1245:1 1249:1 1252:1 1264:4
1 222:1 598:1 1224:4 1226:1 1235:1 1264:4
1 222:1 1224:3 1235:1 1264:3
1 222:1 1224:3 1235:1 1264:3
1 222:1 1224:3 1235:1 1264:3
1 222:1 1224:3 1235:1 1264:3
1 222:1 1224:3 1235:1 1264:3
1 222:1 1224:4 1235:1 1264:4
1 222:1 1224:3 1235:1 1264:3
1 222:1 1224:3 1235:1 1264:3
1 222:1 1224:3 1235:1 1264:3
1 222:1 1224:4 1235:1 1264:4
1 222:1 1224:3 1235:1 1264:3
1 598:1 605:1 1224:3 1226:1 1228:1 1264:3
1 222:1 1224:4 1235:1 1264:4
1 222:1 1224:3 1235:1 1264:3
1 222:1 1224:3 1235:1 1264:3
1 222:1 1224:3 1235:1 1264:3
1 222:1 1224:3 1235:1 1264:3
1 222:1 1224:3 1235:1 1264:3
1 157:1 226:1 236:1 418:1 520:1 524:1 543:1 591:1 598:1 625:1 748:1 810:1 858:1 868:1 881:1 958:1 1182:1 1206:1 1214:1 1216:1 1221:1 1222:1 1223:1 1224:1 1226:1 1227:1 1229:1 1234:1 1236:1 1237:1 1238:1 1239:1 1241:1 1243:1 1245:1 1249:1 1260:1 1264:1
1 222:1 1224:4 1235:1 1264:4
1 139:1 226:2 418:3 499:1 574:2 598:3 625:1 881:1 1182:2 1224:7 1226:3 1229:1 1230:1 1236:2 1238:3 1245:1 1248:2 1249:2 1253:1 1264:7
1 222:1 1224:3 1235:1 1264:3
1 222:1 1224:2 1235:1 1264:2
1 222:1 1224:3 1235:1 1264:3
1 222:1 1224:6 1235:1 1264:6
1 222:1 1224:4 1235:1 1264:4
1 222:1 1224:3 1235:1 1264:3
1 222:1 1224:3 1235:1 1264:3
1 222:1 1224:3 1235:1 1264:3
1 222:1 226:1 418:1 524:1 598:1 625:1 1182:1 1206:1 1216:1 1224:7 1226:1 1235:1 1236:1 1238:1 1245:1 1249:1 1260:1 1264:7
1 222:1 1224:2 1235:1 1264:2
1 454:1 1219:1 1224:2 1264:2
1 222:1 1224:2 1235:1 1264:2
1 598:1 605:1 1224:2 1226:1 1228:1 1264:2
1 157:1 226:1 418:1 524:1 598:1 748:1 1182:1 1216:1 1224:2 1226:1 1236:1 1237:1 1238:1 1243:1 1249:1 1264:2
1 222:1 1224:3 1235:1 1264:3
1 222:1 1224:3 1235:1 1264:3
1 222:1 1224:3 1235:1 1264:3
1 222:1 1224:3 1235:1 1264:3
1 222:1 1224:4 1235:1 1264:4
1 222:1 1224:5 1235:1 1264:5
1 222:1 1224:4 1235:1 1264:4
1 222:1 226:1 418:1 524:1 598:1 625:1 1182:1 1206:1 1216:1 1224:7 1226:1 1235:1 1236:1 1238:1 1245:1 1249:1 1260:1 1264:7
1 598:1 605:1 625:1 1224:2 1226:1 1228:1 1245:1 1264:2
1 222:1 1224:4 1235:1 1264:4
1 222:1 1224:3 1235:1 1264:3
1 598:1 605:1 625:1 1224:2 1226:1 1228:1 1245:1 1264:2
1 222:1 1224:3 1235:1 1264:3
1 222:1 1224:3 1235:1 1264:3
1 222:1 1224:3 1235:1 1264:3
1 222:1 1224:3 1235:1 1264:3
1 157:1 226:1 236:1 418:1 520:1 524:1 543:1 591:1 598:1 625:1 748:1 810:1 858:1 868:1 881:1 958:1 1182:1 1206:1 1214:1 1216:1 1221:1 1222:1 1223:1 1224:2 1226:1 1227:1 1229:1 1234:1 1236:1 1237:1 1238:1 1239:1 1241:1 1243:1 1245:1 1249:1 1260:1 1264:2
1 222:1 1224:3 1235:1 1264:3
1 226:1 491:1 598:2 1224:7 1226:2 1236:1 1247:1 1264:7
1 157:1 226:1 418:1 524:1 598:1 748:1 1182:1 1216:1 1224:3 1226:1 1236:1 1237:1 1238:1 1243:1 1249:1 1264:3
1 222:1 1224:3 1235:1 1264:3
1 222:1 1224:3 1235:1 1264:3
1 598:1 1224:6 1226:1 1264:6
1 222:1 1224:4 1235:1 1264:4
1 222:1 1224:3 1235:1 1264:3
1 222:1 1224:4 1235:1 1264:4
1 222:1 1224:3 1235:1 1264:3
1 222:1 1224:4 1235:1 1264:4
1 222:1 1224:4 1235:1 1264:4
1 222:1 1224:3 1235:1 1264:3
1 222:1 1224:3 1235:1 1264:3
1 226:1 418:1 524:1 574:1 598:1 625:1 1182:1 1206:1 1216:1 1224:7 1226:1 1236:1 1238:1 1245:1 1248:1 1249:1 1260:1 1264:7
1 222:1 1224:3 1235:1 1264:3
1 222:1 1224:3 1235:1 1264:3
1 157:1 226:1 418:1 524:1 598:1 748:1 1182:1 1216:1 1224:4 1226:1 1236:1 1237:1 1238:1 1243:1 1249:1 1264:4
1 222:1 1224:4 1235:1 1264:4
1 222:1 1224:3 1235:1 1264:3
1 222:1 1224:3 1235:1 1264:3
1 222:1 1224:4 1235:1 1264:4
1 222:1 226:1 418:1 524:1 598:1 625:1 1182:1 1206:1 1216:1 1224:7 1226:1 1235:1 1236:1 1238:1 1245:1 1249:1 1260:1 1264:7
1 1224:2 1264:2
1 598:1 605:1 1224:2 1226:1 1228:1 1264:2
1 222:1 1224:3 1235:1 1264:3
1 222:1 1224:3 1235:1 1264:3
1 222:1 1224:4 1235:1 1264:4
1 222:1 1224:3 1235:1 1264:3
1 222:1 1224:4 1235:1 1264:4
1 222:1 1224:3 1235:1 1264:3
1 222:1 1224:3 1235:1 1264:3
1 222:1 1224:3 1235:1 1264:3
1 222:1 1224:3 1235:1 1264:3
1 222:1 1224:4 1235:1 1264:4
1 222:1 1224:3 1235:1 1264:3
1 222:1 1224:3 1235:1 1264:3
1 174:1 418:1 524:1 598:1 856:1 1216:1 1220:1 1224:4 1226:1 1238:1 1251:1 1264:4
1 222:1 1224:6 1235:1 1264:6
1 222:1 1224:3 1235:1 1264:3
1 222:1 1224:6 1235:1 1264:6
1 418:1 574:1 598:1 1224:3 1226:1 1238:1 1248:1 1264:3
1 222:1 1224:3 1235:1 1264:3
1 222:1 1224:3 1235:1 1264:3
1 222:1 1224:3 1235:1 1264:3
1 222:1 1224:5 1235:1 1264:5
1 157:1 226:1 418:1 524:1 598:1 748:1 1182:1 1216:1 1224:2 1226:1 1236:1 1237:1 1238:1 1243:1 1249:1 1264:2
1 222:1 1224:4 1235:1 1264:4
1 222:1 1224:3 1235:1 1264:3
1 222:1 1224:4 1235:1 1264:4
1 174:1 226:1 598:1 1224:4 1226:1 1236:1 1251:1 1264:4
1 222:1 1224:3 1235:1 1264:3
1 598:1 605:1 1224:2 1226:1 1228:1 1264:2
1 222:1 1224:3 1235:1 1264:3
1 222:1 1224:3 1235:1 1264:3
1 418:1 574:1 598:1 1224:3 1226:1 1238:1 1248:1 1264:3
1 222:1 1224:3 1235:1 1264:3
1 222:1 1224:3 1235:1 1264:3
1 222:1 1224:3 1235:1 1264:3
1 222:1 1224:3 1235:1 1264:3
1 222:1 1224:2 1235:1 1264:2
1 598:1 605:1 625:1 1224:2 1226:1 1228:1 1245:1 1264:2
1 222:1 1224:3 1235:1 1264:3
1 222:1 1224:3 1235:1 1264:3
1 157:1 174:1 226:1 418:1 524:1 574:1 591:1 598:1 748:1 1216:1 1222:1 1224:4 1226:1 1236:1 1237:1 1238:1 1243:1 1248:1 1251:1 1264:4
1 222:1 1224:3 1235:1 1264:3
1 222:1 1224:3 1235:1 1264:3
1 222:1 1224:3 1235:1 1264:3
1 222:1 1224:4 1235:1 1264:4
1 222:1 1224:4 1235:1 1264:4
1 222:1 1224:3 1235:1 1264:3
1 222:1 1224:3 1235:1 1264:3
1 222:1 1224:3 1235:1 1264:3
1 222:1 1224:4 1235:1 1264:4
1 222:1 1224:3 1235:1 1264:3
1 222:1 1224:4 1235:1 1264:4
1 222:1 1224:3 1235:1 1264:3
1 222:1 1224:4 1235:1 1264:4
1 222:1 1224:3 1235:1 1264:3
1 598:1 605:1 625:1 1224:2 1226:1 1228:1 1245:1 1264:2
1 222:1 1224:4 1235:1 1264:4
1 222:1 1224:4 1235:1 1264:4
1 222:1 1224:3 1235:1 1264:3
1 222:1 1224:3 1235:1 1264:3
1 222:1 1224:4 1235:1 1264:4
1 222:1 1224:4 1235:1 1264:4
1 222:1 1224:4 1235:1 1264:4
1 222:1 1224:3 1235:1 1264:3
1 222:1 1224:3 1235:1 1264:3
1 222:1 1224:3 1235:1 1264:3
1 222:1 1224:3 1235:1 1264:3
1 222:1 1224:4 1235:1 1264:4
1 222:1 1224:3 1235:1 1264:3
1 222:1 1224:3 1235:1 1264:3
1 222:1 1224:4 1235:1 1264:4
1 222:1 1224:3 1235:1 1264:3
1 222:1 1224:3 1235:1 1264:3
1 222:1 1224:3 1235:1 1264:3
1
1 222:1 1224:4 1235:1 1264:4
1 222:1 1224:4 1235:1 1264:4
1 222:1 1224:4 1235:1 1264:4
1 222:1 1224:6 1235:1 1264:6
1 222:1 1224:5 1235:1 1264:5
1 222:1 1224:3 1235:1 1264:3
1 222:1 1224:4 1235:1 1264:4
1 598:1 605:1 1224:2 1226:1 1228:1 1264:2
1 222:1 1224:4 1235:1 1264:4
1 598:1 605:1 1224:2 1226:1 1228:1 1264:2
1 222:1 1224:3 1235:1 1264:3
1 222:1 1224:4 1235:1 1264:4
1 222:1 1224:4 1235:1 1264:4
1 222:1 1224:3 1235:1 1264:3
1 222:1 1224:3 1235:1 1264:3
1 157:1 226:1 418:1 524:1 598:1 748:1 1182:1 1206:1 1216:1 1224:2 1226:1 1236:1 1237:1 1238:1 1243:1 1249:1 1260:1 1264:2
1 222:1 1224:4 1235:1 1264:4
1 222:1 1224:3 1235:1 1264:3
1 222:1 1224:3 1235:1 1264:3
1 222:1 1224:3 1235:1 1264:3
1 222:1 1224:3 1235:1 1264:3
1 222:1 1224:3 1235:1 1264:3
1 222:1 1224:3 1235:1 1264:3
1 598:1 605:1 625:1 1224:2 1226:1 1228:1 1245:1 1264:2
1 222:1 1224:3 1235:1 1264:3
1 222:1 1224:4 1235:1 1264:4
1 222:1 1224:3 1235:1 1264:3
1 222:1 1224:3 1235:1 1264:3
1 222:1 1224:3 1235:1 1264:3
1 222:1 1224:5 1235:1 1264:5
1 222:1 1224:3 1235:1 1264:3
1 222:1 1224:3 1235:1 1264:3
1 222:1 1224:4 1235:1 1264:4
1 222:1 1224:4 1235:1 1264:4
1 1224:3 1264:3
1 222:1 1224:3 1235:1 1264:3
1 222:1 1224:3 1235:1 1264:3
1 222:1 1224:3 1235:1 1264:3
1 222:1 1224:4 1235:1 1264:4
1 222:1 1224:4 1235:1 1264:4
1 598:1 605:1 625:1 1224:2 1226:1 1228:1 1245:1 1264:2
1 222:1 1224:3 1235:1 1264:3
1 222:1 1224:3 1235:1 1264:3
1 222:1 1224:3 1235:1 1264:3
1 598:1 605:1 625:1 1224:2 1226:1 1228:1 1245:1 1264:2
1 222:1 1224:3 1235:1 1264:3
1 222:1 1224:4 1235:1 1264:4
1 217:1 249:1 374:1 391:1 418:1 520:1 563:1 598:1 617:1 625:1 705:1 748:1 791:1 990:1 1128:1 1129:1 1182:1 1214:1 1215:1 1218:1 1224:3 1226:1 1231:1 1237:1 1238:1 1240:1 1242:1 1245:1 1249:1 1250:1 1254:1 1255:1 1256:1 1259:1 1262:1 1264:3 1266:1
1 222:1 1224:3 1235:1 1264:3
1 222:1 1224:3 1235:1 1264:3
1 222:1 1224:3 1235:1 1264:3
1 222:1 1224:3 1235:1 1264:3
1 157:1 174:1 226:1 418:1 524:1 574:1 591:1 598:1 748:1 1216:1 1222:1 1224:4 1226:1 1236:1 1237:1 1238:1 1243:1 1248:1 1251:1 1264:4
1 222:1 1224:3 1235:1 1264:3
1 157:1 226:1 418:1 524:1 598:1 748:1 1182:1 1216:1 1224:2 1226:1 1236:1 1237:1 1238:1 1243:1 1249:1 1264:2
1 222:1 1224:3 1235:1 1264:3
1 598:1 605:1 1224:2 1226:1 1228:1 1264:2
1 222:1 1224:4 1235:1 1264:4
1 222:1 1224:4 1235:1 1264:4
1 222:1 1224:3 1235:1 1264:3
1 222:1 1224:4 1235:1 1264:4
1 222:1 1224:3 1235:1 1264:3
1 222:1 1224:4 1235:1 1264:4
1 222:1 1224:3 1235:1 1264:3
1 222:1 1224:2 1235:1 1264:2
1 222:1 1224:4 1235:1 1264:4
1 222:1 1224:3 1235:1 1264:3
1 222:1 1224:4 1235:1 1264:4
1 222:1 1224:3 1235:1 1264:3
1 222:1 1224:3 1235:1 1264:3
1 1224:3 1264:3
1 222:1 1224:3 1235:1 1264:3
1 222:1 1224:3 1235:1 1264:3
1 222:1 1224:4 1235:1 1264:4
1 222:1 1224:3 1235:1 1264:3
1 222:1 1224:3 1235:1 1264:3
1 157:1 226:1 236:1 418:1 520:1 524:1 543:1 591:1 598:1 625:1 748:1 810:1 858:1 868:1 881:1 958:1 1182:1 1206:1 1214:1 1216:1 1221:1 1222:1 1223:1 1224:2 1226:1 1227:1 1229:1 1234:1 1236:1 1237:1 1238:1 1239:1 1241:1 1243:1 1245:1 1249:1 1260:1 1264:2
1 222:1 1224:4 1235:1 1264:4
1 222:1 1224:3 1235:1 1264:3
1 222:1 1224:5 1235:1 1264:5
1 222:1 1224:3 1235:1 1264:3
1 222:1 1224:3 1235:1 1264:3
1 222:1 1224:3 1235:1 1264:3
1 174:1 418:1 524:1 598:1 856:1 1216:1 1220:1 1224:5 1226:1 1238:1 1251:1 1264:5
1 222:1 1224:4 1235:1 1264:4
1 1224:2 1264:2
1 222:1 1224:4 1235:1 1264:4
1 222:1 1224:3 1235:1 1264:3
1 222:1 1224:4 1235:1 1264:4
1 222:1 1224:3 1235:1 1264:3
1 222:1 1224:3 1235:1 1264:3
1 222:1 1224:3 1235:1 1264:3
1 222:1 1224:3 1235:1 1264:3
1 222:1 1224:3 1235:1 1264:3
1 222:1 1224:3 1235:1 1264:3
1 222:1 1224:3 1235:1 1264:3
1 222:1 226:1 418:1 524:1 598:1 625:1 1182:1 1206:1 1216:1 1224:7 1226:1 1235:1 1236:1 1238:1 1245:1 1249:1 1260:1 1264:7
1 222:1 1224:3 1235:1 1264:3
1 222:1 1224:3 1235:1 1264:3
1 222:1 1224:3 1235:1 1264:3
1 222:1 1224:3 1235:1 1264:3
1 222:1 1224:3 1235:1 1264:3
1 222:1 1224:3 1235:1 1264:3
1 222:1 1224:3 1235:1 1264:3
1 222:1 1224:4 1235:1 1264:4
1 222:1 1224:3 1235:1 1264:3
1 222:1 1224:3 1235:1 1264:3
1 222:1 1224:3 1235:1 1264:3
1 222:1 1224:3 1235:1 1264:3
1 222:1 1224:3 1235:1 1264:3
1 222:1 1224:3 1235:1 1264:3
1 222:1 1224:3 1235:1 1264:3
1 222:1 1224:3 1235:1 1264:3
1 222:1 1224:2 1235:1 1264:2
1 157:1 226:1 418:1 524:1 598:1 748:1 1182:1 1206:1 1216:1 1224:2 1226:1 1236:1 1237:1 1238:1 1243:1 1249:1 1260:1 1264:2
1 222:1 1224:3 1235:1 1264:3
1 222:1 1224:2 1235:1 1264:2
1 222:1 1224:3 1235:1 1264:3
1 222:1 1224:3 1235:1 1264:3
1 222:1 1224:3 1235:1 1264:3
1 222:1 1224:3 1235:1 1264:3
1 222:1 1224:3 1235:1 1264:3
1 222:1 1224:3 1235:1 1264:3
1 222:1 1224:4 1235:1 1264:4
1 157:1 226:2 236:1 418:2 524:1 598:4 625:3 748:2 881:1 920:1 1182:3 1206:1 1216:1 1224:7 1226:4 1229:1 1236:2 1237:2 1238:2 1241:1 1243:1 1245:3 1249:3 1258:1 1260:1 1264:7
1 222:1 1224:3 1235:1 1264:3
1 222:1 1224:5 1235:1 1264:5
1 222:1 1224:3 1235:1 1264:3
1 222:1 1224:3 1235:1 1264:3
1 222:1 1224:3 1235:1 1264:3
1 222:1 1224:3 1235:1 1264:3
1 222:1 1224:3 1235:1 1264:3
1 222:1 1224:4 1235:1 1264:4
1 222:1 1224:3 1235:1 1264:3
1 222:1 1224:3 1235:1 1264:3
1 222:1 1224:4 1235:1 1264:4
1 222:1 1224:3 1235:1 1264:3
1 222:1 1224:3 1235:1 1264:3
1 222:1 1224:4 1235:1 1264:4
1 222:1 1224:4 1235:1 1264:4
1 222:1 1224:4 1235:1 1264:4
1 222:1 1224:3 1235:1 1264:3
1 222:1 1224:4 1235:1 1264:4
1 222:1 1224:3 1235:1 1264:3
1 222:1 1224:3 1235:1 1264:3
1 222:1 1224:4 1235:1 1264:4
1 222:1 1224:3 1235:1 1264:3
1 222:1 1224:3 1235:1 1264:3
1 222:1 1224:4 1235:1 1264:4
1 222:1 1224:3 1235:1 1264:3
1 222:1 1224:3 1235:1 1264:3
1 222:1 1224:4 1235:1 1264:4
1 222:1 1224:4 1235:1 1264:4
1 222:1 1224:3 1235:1 1264:3
1 222:1 1224:3 1235:1 1264:3
1 418:1 598:1 748:1 1182:1 1224:2 1226:1 1237:1 1238:1 1249:1 1264:2 1266:6
1 222:1 1224:3 1235:1 1264:3
1 222:1 1224:3 1235:1 1264:3
1 222:1 1224:4 1235:1 1264:4
1 222:1 1224:3 1235:1 1264:3
1 222:1 1224:3 1235:1 1264:3
1 157:1 418:2 524:1 598:4 625:3 748:1 868:1 1182:2 1206:1 1216:1 1223:1 1224:6 1226:4 1237:1 1238:2 1243:1 1245:3 1249:2 1260:1 1264:6
1 222:1 1224:3 1235:1 1264:3
1 222:1 1224:3 1235:1 1264:3
1 222:1 1224:3 1235:1 1264:3
1 222:1 1224:4 1235:1 1264:4
1 222:1 1224:3 1235:1 1264:3
1 222:1 1224:2 1235:1 1264:2
1 222:1 1224:3 1235:1 1264:3
1 222:1 1224:5 1235:1 1264:5
1 222:1 1224:3 1235:1 1264:3
1 222:1 1224:3 1235:1 1264:3
1 598:1 605:1 625:1 1224:2 1226:1 1228:1 1245:1 1264:2
1 222:1 1224:3 1235:1 1264:3
1 222:1 1224:3 1235:1 1264:3
1 222:1 1224:3 1235:1 1264:3
1 222:1 1224:3 1235:1 1264:3
1 222:1 1224:3 1235:1 1264:3
1 157:1 226:1 236:1 418:1 520:1 524:1 543:1 591:1 598:1 625:1 748:1 810:1 858:1 868:1 881:1 958:1 1182:1 1206:1 1214:1 1216:1 1221:1 1222:1 1223:1 1224:5 1226:1 1227:1 1229:1 1234:1 1236:1 1237:1 1238:1 1239:1 1241:1 1243:1 1245:1 1249:1 1260:1 1264:5
1 222:1 1224:5 1235:1 1264:5
1 598:1 605:1 1224:2 1226:1 1228:1 1264:2
1 222:1 1224:3 1235:1 1264:3
1 222:1 1224:4 1235:1 1264:4
1 222:1 1224:2 1235:1 1264:2
1 222:1 1224:4 1235:1 1264:4
1 157:1 226:1 418:1 524:1 598:1 748:1 1182:1 1216:1 1224:2 1226:1 1236:1 1237:1 1238:1 1243:1 1249:1 1264:2
1 222:1 1224:3 1235:1 1264:3
1 222:1 1224:5 1235:1 1264:5
1 174:1 574:1 598:1 1224:1 1226:1 1248:1 1251:1 1264:1
1 222:1 1224:3 1235:1 1264:3
1 222:1 1224:4 1235:1 1264:4
1 222:1 1224:3 1235:1 1264:3
1 222:1 1224:3 1235:1 1264:3
1 222:1 1224:3 1235:1 1264:3
1 222:1 1224:3 1235:1 1264:3
1 222:1 1224:3 1235:1 1264:3
1 222:1 1224:3 1235:1 1264:3
1 222:1 1224:3 1235:1 1264:3
1 157:1 226:1 418:1 524:1 598:1 748:1 1182:1 1206:1 1216:1 1224:2 1226:1 1236:1 1237:1 1238:1 1243:1 1249:1 1260:1 1264:2
1 157:1 226:1 236:1 418:1 524:1 591:1 598:1 625:1 748:1 810:1 858:1 868:1 881:1 958:1 1182:1 1206:1 1216:1 1221:1 1222:1 1223:1 1224:4 1226:1 1229:1 1234:1 1236:1 1237:1 1238:1 1239:1 1241:1 1243:1 1245:1 1249:1 1260:1 1264:4
1 222:1 1224:4 1235:1 1264:4
1 222:1 1224:3 1235:1 1264:3
1 222:1 1224:3 1235:1 1264:3
1 222:1 1224:3 1235:1 1264:3
1 222:1 1224:4 1235:1 1264:4
1 222:1 1224:3 1235:1 1264:3
1 222:1 1224:4 1235:1 1264:4
1 222:1 1224:3 1235:1 1264:3
1 222:1 1224:3 1235:1 1264:3
1 222:1 1224:3 1235:1 1264:3
1 222:1 1224:3 1235:1 1264:3
1 222:1 1224:4 1235:1 1264:4
1 222:1 1224:3 1235:1 1264:3
1 222:1 1224:4 1235:1 1264:4
1 222:1 1224:3 1235:1 1264:3
1 222:1 1224:3 1235:1 1264:3
1 222:1 1224:3 1235:1 1264:3
1 222:1 1224:3 1235:1 1264:3
1 222:1 226:1 418:1 524:1 598:1 625:1 1182:1 1206:1 1216:1 1224:7 1226:1 1235:1 1236:1 1238:1 1245:1 1249:1 1260:1 1264:7
1 222:1 1224:3 1235:1 1264:3
1 222:1 1224:4 1235:1 1264:4
1 222:1 1224:2 1235:1 1264:2
1 222:1 1224:3 1235:1 1264:3
1 222:1 1224:3 1235:1 1264:3
1 222:1 1224:3 1235:1 1264:3
1 598:1 625:1 748:1 1224:3 1226:1 1237:1 1245:1 1264:3
1 222:1 1224:3 1235:1 1264:3
1 157:1 226:1 236:1 418:1 520:1 524:1 543:1 591:1 598:1 625:1 748:1 810:1 858:1 868:1 881:1 958:1 1182:1 1206:1 1214:1 1216:1 1221:1 1222:1 1223:1 1224:5 1226:1 1227:1 1229:1 1234:1 1236:1 1237:1 1238:1 1239:1 1241:1 1243:1 1245:1 1249:1 1260:1 1264:5
1 222:1 1224:3 1235:1 1264:3
1 222:1 1224:3 1235:1 1264:3
1 222:1 1224:3 1235:1 1264:3
1 222:1 1224:4 1235:1 1264:4
1 222:1 1224:3 1235:1 1264:3
1 222:1 1224:3 1235:1 1264:3
1 222:1 1224:4 1235:1 1264:4
1 222:1 1224:3 1235:1 1264:3
1 222:1 1224:4 1235:1 1264:4
1 222:1 1224:3 1235:1 1264:3
1 222:1 1224:4 1235:1 1264:4
1 222:1 1224:4 1235:1 1264:4
1 222:1 1224:3 1235:1 1264:3
1 222:1 226:1 418:1 524:1 598:1 625:1 1182:1 1206:1 1216:1 1224:8 1226:1 1235:1 1236:1 1238:1 1245:1 1249:1 1260:1 1264:8
1 222:1 1224:4 1235:1 1264:4
1 222:1 1224:3 1235:1 1264:3
1 222:1 1224:3 1235:1 1264:3
1 222:1 1224:3 1235:1 1264:3
1 222:1 1224:3 1235:1 1264:3
1 1224:2 1264:2
1 222:1 1224:3 1235:1 1264:3
1 222:1 1224:4 1235:1 1264:4
1 222:1 1224:3 1235:1 1264:3
1 222:1 1224:3 1235:1 1264:3
1 598:1 605:1 1224:2 1226:1 1228:1 1264:2
1 222:1 1224:3 1235:1 1264:3
1 222:1 1224:3 1235:1 1264:3
1 222:1 1224:3 1235:1 1264:3
1 222:1 1224:3 1235:1 1264:3
1 222:1 1224:4 1235:1 1264:4
1 222:1 1224:3 1235:1 1264:3
1 222:1 1224:3 1235:1 1264:3
1 222:1 1224:3 1235:1 1264:3
1 222:1 1224:5 1235:1 1264:5
1 222:1 1224:3 1235:1 1264:3
1 222:1 1224:3 1235:1 1264:3
1 222:1 1224:3 1235:1 1264:3
1 222:1 1224:4 1235:1 1264:4
1 222:1 1224:3 1235:1 1264:3
1 222:1 1224:3 1235:1 1264:3
1 222:1 1224:3 1235:1 1264:3
1 222:1 1224:3 1235:1 1264:3
1 222:1 1224:4 1235:1 1264:4
1 222:1 1224:3 1235:1 1264:3
1 222:1 1224:3 1235:1 1264:3
1 222:1 1224:3 1235:1 1264:3
1 222:1 1224:4 1235:1 1264:4
1 222:1 1224:3 1235:1 1264:3
1 222:1 1224:3 1235:1 1264:3
1 418:1 574:1 598:1 1224:3 1226:1 1238:1 1248:1 1264:3
1 222:1 1224:4 1235:1 1264:4
1 222:1 1224:3 1235:1 1264:3
1 222:1 1224:3 1235:1 1264:3
1 222:1 1224:3 1235:1 1264:3
1 222:1 1224:3 1235:1 1264:3
1 222:1 1224:3 1235:1 1264:3
1 222:1 1224:3 1235:1 1264:3
1 222:1 1224:3 1235:1 1264:3
1 222:1 1224:3 1235:1 1264:3
1 217:1 249:1 374:1 391:1 418:1 520:1 563:1 598:1 617:1 625:1 705:1 748:1 791:1 990:1 1128:1 1129:1 1182:1 1214:1 1215:1 1218:1 1224:3 1226:1 1231:1 1237:1 1238:1 1240:1 1242:1 1245:1 1249:1 1250:1 1254:1 1255:1 1256:1 1259:1 1262:1 1264:3 1266:1
1 222:1 1224:3 1235:1 1264:3
1 222:1 1224:4 1235:1 1264:4
1 222:1 1224:3 1235:1 1264:3
1 222:1 1224:3 1235:1 1264:3
1 222:1 1224:3 1235:1 1264:3
1 222:1 1224:3 1235:1 1264:3
1 222:1 1224:3 1235:1 1264:3
1 222:1 1224:3 1235:1 1264:3
1 222:1 1224:3 1235:1 1264:3
1 222:1 1224:4 1235:1 1264:4
1 222:1 1224:3 1235:1 1264:3
1 222:1 1224:4 1235:1 1264:4
1 222:1 1224:3 1235:1 1264:3
1 222:1 1224:3 1235:1 1264:3
1 222:1 1224:3 1235:1 1264:3
1 222:1 1224:3 1235:1 1264:3
1 222:1 1224:3 1235:1 1264:3
1 222:1 1224:6 1235:1 1264:6
1 222:1 1224:3 1235:1 1264:3
1 222:1 1224:4 1235:1 1264:4
1 222:1 1224:3 1235:1 1264:3
1 222:1 1224:3 1235:1 1264:3
1 222:1 1224:3 1235:1 1264:3
1 222:1 1224:4 1235:1 1264:4
1 222:1 1224:3 1235:1 1264:3
1 222:1 1224:3 1235:1 1264:3
1 222:1 1224:3 1235:1 1264:3
1 222:1 1224:4 1235:1 1264:4
1 222:1 1224:4 1235:1 1264:4
1 222:1 1224:3 1235:1 1264:3
1 222:1 1224:3 1235:1 1264:3
1 222:1 1224:4 1235:1 1264:4
1 222:1 1224:3 1235:1 1264:3
1 222:1 1224:3 1235:1 1264:3
1 222:1 1224:3 1235:1 1264:3
1 222:1 1224:3 1235:1 1264:3
1 222:1 1224:4 1235:1 1264:4
1 222:1 1224:3 1235:1 1264:3
1 222:1 1224:4 1235:1 1264:4
1 222:1 1224:3 1235:1 1264:3
1 222:1 1224:3 1235:1 1264:3
1 222:1 1224:3 1235:1 1264:3
1 222:1 1224:3 1235:1 1264:3
1 222:1 1224:3 1235:1 1264:3
1 222:1 1224:3 1235:1 1264:3
1 222:1 1224:4 1235:1 1264:4
1 222:1 1224:3 1235:1 1264:3
1 222:1 1224:3 1235:1 1264:3
1 222:1 1224:4 1235:1 1264:4
1 222:1 1224:3 1235:1 1264:3
1 222:1 1224:3 1235:1 1264:3
1 222:1 1224:3 1235:1 1264:3
1 222:1 1224:3 1235:1 1264:3
1 222:1 1224:3 1235:1 1264:3
1 222:1 1224:3 1235:1 1264:3
1 222:1 1224:3 1235:1 1264:3
1 222:1 1224:2 1235:1 1264:2
1 598:1 605:1 1224:2 1226:1 1228:1 1264:2
1 222:1 1224:4 1235:1 1264:4
1 222:1 1224:3 1235:1 1264:3
1 1224:2 1264:2
1 157:1 226:1 418:1 524:1 598:1 748:1 1182:1 1216:1 1224:3 1226:1 1236:1 1237:1 1238:1 1243:1 1249:1 1264:3
1 222:1 1224:5 1235:1 1264:5
1 222:1 1224:4 1235:1 1264:4
1 139:1 176:1 418:1 524:1 598:1 625:1 748:1 881:1 1182:1 1216:1 1224:4 1226:1 1229:1 1230:1 1237:1 1238:1 1245:1 1249:1 1252:1 1264:4
1 222:1 1224:4 1235:1 1264:4
1 222:1 1224:3 1235:1 1264:3
1 1224:2 1264:2
1 222:1 1224:4 1235:1 1264:4
1 222:1 1224:3 1235:1 1264:3
1 222:1 1224:3 1235:1 1264:3
1 222:1 1224:4 1235:1 1264:4
1 222:1 1224:4 1235:1 1264:4
1 222:1 1224:4 1235:1 1264:4
1 222:1 1224:4 1235:1 1264:4
1 222:1 1224:3 1235:1 1264:3
1 222:1 1224:3 1235:1 1264:3
1 222:1 1224:3 1235:1 1264:3
1 222:1 226:1 418:1 524:1 598:1 625:1 1182:1 1206:1 1216:1 1224:7 1226:1 1235:1 1236:1 1238:1 1245:1 1249:1 1260:1 1264:7
1 222:1 1224:3 1235:1 1264:3
1 222:1 1224:3 1235:1 1264:3
1 222:1 1224:5 1235:1 1264:5
1 222:1 1224:3 1235:1 1264:3
1 222:1 1224:3 1235:1 1264:3
1 222:1 1224:4 1235:1 1264:4
1 222:1 1224:3 1235:1 1264:3
1 222:1 1224:3 1235:1 1264:3
1 222:1 1224:5 1235:1 1264:5
1 222:1 1224:4 1235:1 1264:4
1 222:1 1224:3 1235:1 1264:3
1 222:1 1224:3 1235:1 1264:3
1 222:1 1224:7 1235:1 1264:7
1 157:1 226:3 365:1 418:3 524:2 591:1 598:4 625:2 748:2 1182:3 1216:2 1222:1 1224:6 1226:4 1236:3 1237:2 1238:3 1243:1 1244:1 1245:2 1249:3 1264:6
1 222:1 1224:3 1235:1 1264:3
1 222:1 1224:3 1235:1 1264:3
1 222:1 1224:3 1235:1 1264:3
1 222:1 1224:3 1235:1 1264:3
1 222:1 1224:3 1235:1 1264:3
1 222:1 1224:4 1235:1 1264:4
1 222:1 1224:3 1235:1 1264:3
1 222:1 1224:3 1235:1 1264:3
1 222:1 1224:4 1235:1 1264:4
1 157:1 226:1 236:1 418:1 520:1 524:1 543:1 591:1 598:1 625:1 748:1 810:1 858:1 868:1 881:1 958:1 1182:1 1206:1 1214:1 1216:1 1221:1 1222:1 1223:1 1224:2 1226:1 1227:1 1229:1 1234:1 1236:1 1237:1 1238:1 1239:1 1241:1 1243:1 1245:1 1249:1 1260:1 1264:2
1 222:1 226:1 418:1 524:1 598:1 625:1 1182:1 1206:1 1216:1 1224:6 1226:1 1235:1 1236:1 1238:1 1245:1 1249:1 1260:1 1264:6
1 222:1 1224:3 1235:1 1264:3
1 222:1 1224:4 1235:1 1264:4
1 222:1 1224:3 1235:1 1264:3
1 222:1 1224:3 1235:1 1264:3
1 222:1 1224:3 1235:1 1264:3
1 222:1 1224:3 1235:1 1264:3
1 222:1 1224:3 1235:1 1264:3
1 222:1 1224:3 1235:1 1264:3
1 222:1 1224:4 1235:1 1264:4
1 222:1 1224:3 1235:1 1264:3
1 222:1 1224:4 1235:1 1264:4
1 222:1 1224:3 1235:1 1264:3
1 222:1 1224:4 1235:1 1264:4
1 222:1 1224:3 1235:1 1264:3
1 222:1 1224:2 1235:1 1264:2
1 222:1 1224:3 1235:1 1264:3
1 222:1 1224:3 1235:1 1264:3
1 222:1 1224:4 1235:1 1264:4
1 157:1 226:1 418:1 524:1 598:1 748:1 1182:1 1206:1 1216:1 1224:2 1226:1 1236:1 1237:1 1238:1 1243:1 1249:1 1260:1 1264:2
1 222:1 1224:4 1235:1 1264:4
1 222:1 1224:4 1235:1 1264:4
1 418:1 574:1 598:1 1224:3 1226:1 1238:1 1248:1 1264:3
1 222:1 1224:3 1235:1 1264:3
1 222:1 226:1 418:1 524:1 598:1 625:1 1182:1 1206:1 1216:1 1224:7 1226:1 1235:1 1236:1 1238:1 1245:1 1249:1 1260:1 1264:7
1 222:1 1224:3 1235:1 1264:3
1 222:1 1224:4 1235:1 1264:4
1 222:1 1224:3 1235:1 1264:3
1 222:1 1224:3 1235:1 1264:3
1 139:1 157:1 226:1 236:1 418:1 491:1 499:1 524:1 591:1 598:1 605:1 625:1 748:1 791:1 881:1 920:1 1166:1 1182:1 1199:1 1206:1 1216:1 1218:1 1222:1 1224:4 1226:1 1228:1 1229:1 1230:1 1233:1 1236:1 1237:1 1238:1 1241:1 1243:1 1245:1 1247:1 1249:1 1253:1 1257:1 1258:1 1260:1 1264:4
1 222:1 1224:3 1235:1 1264:3
1 222:1 1224:4 1235:1 1264:4
1 222:1 226:1 418:1 598:1 1182:1 1224:4 1226:1 1235:1 1236:1 1238:1 1249:1 1264:4
1 222:1 1224:4 1235:1 1264:4
1 222:1 1224:3 1235:1 1264:3
1 222:1 1224:3 1235:1 1264:3
1 222:1 1224:4 1235:1 1264:4
1 222:1 1224:3 1235:1 1264:3
1 222:1 1224:3 1235:1 1264:3
1 222:1 1224:4 1235:1 1264:4
1 222:1 1224:3 1235:1 1264:3
1 222:1 1224:3 1235:1 1264:3
1 222:1 1224:3 1235:1 1264:3
1 222:1 1224:3 1235:1 1264:3
1 222:1 1224:4 1235:1 1264:4
1 222:1 1224:4 1235:1 1264:4
1 222:1 1224:3 1235:1 1264:3
1 222:1 1224:3 1235:1 1264:3
1 222:1 1224:3 1235:1 1264:3
1 598:1 605:1 1224:2 1226:1 1228:1 1264:2
1 222:1 226:1 418:1 524:1 598:1 625:1 1182:1 1206:1 1216:1 1224:7 1226:1 1235:1 1236:1 1238:1 1245:1 1249:1 1260:1 1264:7
1 222:1 1224:3 1235:1 1264:3
1 222:1 1224:3 1235:1 1264:3
1 222:1 1224:3 1235:1 1264:3
1 222:1 1224:3 1235:1 1264:3
1 222:1 1224:4 1235:1 1264:4
1 222:1 1224:3 1235:1 1264:3
1 222:1 1224:3 1235:1 1264:3
1 222:1 1224:4 1235:1 1264:4
1 222:1 1224:4 1235:1 1264:4
1 222:1 1224:3 1235:1 1264:3
1 222:1 1224:3 1235:1 1264:3
1 598:1 1224:9 1226:1 1264:9
1 222:1 1224:3 1235:1 1264:3
1 222:1 1224:3 1235:1 1264:3
1 157:1 226:1 236:1 418:1 520:1 524:1 543:1 591:1 598:1 625:1 748:1 810:1 858:1 868:1 881:1 958:1 1182:1 1206:1 1214:1 1216:1 1221:1 1222:1 1223:1 1224:2 1226:1 1227:1 1229:1 1234:1 1236:1 1237:1 1238:1 1239:1 1241:1 1243:1 1245:1 1249:1 1260:1 1264:2
1 222:1 1224:3 1235:1 1264:3
1 222:1 226:1 418:1 524:1 598:1 625:1 1182:1 1206:1 1216:1 1224:7 1226:1 1235:1 1236:1 1238:1 1245:1 1249:1 1260:1 1264:7
1 222:1 1224:3 1235:1 1264:3
1 222:1 1224:3 1235:1 1264:3
1 222:1 1224:3 1235:1 1264:3
1 222:1 1224:3 1235:1 1264:3
1 222:1 1224:3 1235:1 1264:3
1 222:1 1224:3 1235:1 1264:3
1 222:1 1224:3 1235:1 1264:3
1 157:1 174:1 365:1 418:1 524:1 598:1 1182:1 1206:1 1216:1 1224:2 1226:1 1238:1 1243:1 1244:1 1249:1 1251:1 1260:1 1264:2
1 222:1 1224:3 1235:1 1264:3
1 222:1 1224:3 1235:1 1264:3
1 157:1 174:1 365:1 418:1 524:1 598:1 1182:1 1206:1 1216:1 1224:3 1226:1 1238:1 1243:1 1244:1 1249:1 1251:1 1260:1 1264:3
1 598:1 605:1 625:1 1224:3 1226:1 1228:1 1245:1 1264:3
1 222:1 1224:3 1235:1 1264:3
1 222:1 1224:3 1235:1 1264:3
1 222:1 1224:3 1235:1 1264:3
1 222:1 1224:3 1235:1 1264:3
1 222:1 1224:2 1235:1 1264:2
1 222:1 1224:3 1235:1 1264:3
1 222:1 1224:3 1235:1 1264:3
1 222:1 1224:3 1235:1 1264:3
1 222:1 1224:3 1235:1 1264:3
1 222:1 1224:3 1235:1 1264:3
1 222:1 1224:3 1235:1 1264:3
1 222:1 1224:3 1235:1 1264:3
1 222:1 1224:3 1235:1 1264:3
1 222:1 1224:3 1235:1 1264:3
1 222:1 1224:4 1235:1 1264:4
1 598:1 605:1 1224:2 1226:1 1228:1 1264:2
1 222:1 1224:3 1235:1 1264:3
1 222:1 1224:3 1235:1 1264:3
1 222:1 1224:4 1235:1 1264:4
1 222:1 1224:4 1235:1 1264:4
1 222:1 1224:3 1235:1 1264:3
1 222:1 1224:4 1235:1 1264:4
1 222:1 1224:3 1235:1 1264:3
1 222:1 1224:3 1235:1 1264:3
1 222:1 1224:4 1235:1 1264:4
1 222:1 1224:4 1235:1 1264:4
1 222:1 1224:3 1235:1 1264:3
1 222:1 1224:3 1235:1 1264:3
1 222:1 1224:3 1235:1 1264:3
1 222:1 1224:4 1235:1 1264:4
1 222:1 1224:3 1235:1 1264:3
1 222:1 1224:3 1235:1 1264:3
1 222:1 1224:4 1235:1 1264:4
1 222:1 1224:3 1235:1 1264:3
1 222:1 1224:3 1235:1 1264:3
1 222:1 1224:2 1235:1 1264:2
1 222:1 1224:3 1235:1 1264:3
1 226:1 598:1 1224:2 1226:1 1236:1 1264:2
1 222:1 1224:3 1235:1 1264:3
1 222:1 1224:3 1235:1 1264:3
1 157:1 226:1 418:1 524:1 598:1 748:1 1182:1 1216:1 1224:2 1226:1 1236:1 1237:1 1238:1 1243:1 1249:1 1264:2
1 222:1 1224:3 1235:1 1264:3
1 222:1 1224:3 1235:1 1264:3
1 222:1 1224:4 1235:1 1264:4
1 222:1 1224:4 1235:1 1264:4
1 222:1 1224:3 1235:1 1264:3
1 222:1 1224:3 1235:1 1264:3
1 222:1 1224:2 1235:1 1264:2
1 454:1 1219:1 1224:2 1264:2
1 222:1 1224:6 1235:1 1264:6
1 222:1 1224:4 1235:1 1264:4
1 222:1 1224:3 1235:1 1264:3
1 157:1 174:1 226:1 418:1 524:1 574:1 598:1 625:1 748:1 1182:1 1206:1 1216:1 1224:8 1226:1 1236:1 1237:1 1238:1 1243:1 1245:1 1248:1 1249:1 1251:1 1260:1 1264:8
1 222:1 1224:3 1235:1 1264:3
1 222:1 1224:3 1235:1 1264:3
1 222:1 226:1 418:1 524:1 598:1 625:1 1182:1 1206:1 1216:1 1224:7 1226:1 1235:1 1236:1 1238:1 1245:1 1249:1 1260:1 1264:7
1 222:1 1224:3 1235:1 1264:3
1 222:1 1224:3 1235:1 1264:3
1 222:1 1224:4 1235:1 1264:4
1 222:1 1224:3 1235:1 1264:3
1 222:1 1224:4 1235:1 1264:4
1 222:1 1224:3 1235:1 1264:3
1 222:1 1224:3 1235:1 1264:3
1 222:1 1224:3 1235:1 1264:3
1 157:1 226:1 236:1 418:1 520:1 524:1 543:1 591:1 598:1 625:1 748:1 810:1 858:1 868:1 881:1 958:1 1182:1 1206:1 1214:1 1216:1 1221:1 1222:1 1223:1 1224:1 1226:1 1227:1 1229:1 1234:1 1236:1 1237:1 1238:1 1239:1 1241:1 1243:1 1245:1 1249:1 1260:1 1264:1
1 598:1 605:1 1224:2 1226:1 1228:1 1264:2
1 222:1 1224:3 1235:1 1264:3
1 222:1 1224:3 1235:1 1264:3
1 222:1 1224:3 1235:1 1264:3
1 222:1 1224:6 1235:1 1264:6
1 222:1 1224:3 1235:1 1264:3
1 222:1 1224:3 1235:1 1264:3
1 222:1 1224:4 1235:1 1264:4
1 222:1 1224:3 1235:1 1264:3
1 222:1 1224:2 1235:1 1264:2
1 222:1 1224:3 1235:1 1264:3
1 222:1 1224:3 1235:1 1264:3
1 222:1 1224:3 1235:1 1264:3
1 222:1 1224:3 1235:1 1264:3
1 222:1 1224:3 1235:1 1264:3
1 222:1 1224:4 1235:1 1264:4
1 222:1 1224:3 1235:1 1264:3
1 222:1 1224:3 1235:1 1264:3
1 222:1 1224:3 1235:1 1264:3
1 222:1 1224:4 1235:1 1264:4
1 222:1 1224:3 1235:1 1264:3
1 222:1 1224:3 1235:1 1264:3
1 222:1 1224:3 1235:1 1264:3
1 222:1 1224:3 1235:1 1264:3
1 222:1 1224:4 1235:1 1264:4
1 222:1 1224:4 1235:1 1264:4
1 222:1 1224:3 1235:1 1264:3
1 222:1 1224:5 1235:1 1264:5
1 222:1 1224:4 1235:1 1264:4
1 222:1 1224:3 1235:1 1264:3
1 222:1 1224:3 1235:1 1264:3
1 222:1 1224:5 1235:1 1264:5
1 222:1 1224:4 1235:1 1264:4
1 222:1 1224:4 1235:1 1264:4
1 222:1 226:1 418:1 524:1 598:1 625:1 1182:1 1206:1 1216:1 1224:7 1226:1 1235:1 1236:1 1238:1 1245:1 1249:1 1260:1 1264:7
1 222:1 1224:3 1235:1 1264:3
1 222:1 1224:3 1235:1 1264:3
1 222:1 1224:3 1235:1 1264:3
1 222:1 1224:2 1235:1 1264:2
1 222:1 1224:4 1235:1 1264:4
1 222:1 1224:3 1235:1 1264:3
1 222:1 1224:4 1235:1 1264:4
1 222:1 1224:3 1235:1 1264:3
1 222:1 1224:4 1235:1 1264:4
1 222:1 1224:4 1235:1 1264:4
1 222:1 1224:4 1235:1 1264:4
1 222:1 1224:3 1235:1 1264:3
1 157:1 174:1 365:1 418:1 524:1 598:1 1182:1 1206:1 1216:1 1224:2 1226:1 1238:1 1243:1 1244:1 1249:1 1251:1 1260:1 1264:2
1 222:1 1224:3 1235:1 1264:3
1 222:1 1224:3 1235:1 1264:3
1 222:1 1224:3 1235:1 1264:3
1 222:1 1224:3 1235:1 1264:3
1 222:1 1224:3 1235:1 1264:3
1 222:1 1224:3 1235:1 1264:3
1 598:1 605:1 1224:2 1226:1 1228:1 1264:2
1 222:1 1224:4 1235:1 1264:4
1 222:1 1224:4 1235:1 1264:4
1 598:1 605:1 1224:2 1226:1 1228:1 1264:2
1 157:1 418:1 524:1 598:1 1182:1 1206:1 1216:1 1224:2 1226:1 1238:1 1243:1 1249:1 1260:1 1264:2
1 222:1 1224:3 1235:1 1264:3
1 222:1 1224:3 1235:1 1264:3
1 222:1 1224:4 1235:1 1264:4
1 222:1 1224:3 1235:1 1264:3
1 222:1 1224:4 1235:1 1264:4
1 454:1 1219:1 1224:2 1264:2
1 222:1 1224:3 1235:1 1264:3
1 222:1 1224:3 1235:1 1264:3
1 222:1 1224:3 1235:1 1264:3
1 222:1 1224:4 1235:1 1264:4
1 222:1 1224:3 1235:1 1264:3
1 222:1 1224:3 1235:1 1264:3
1 222:1 1224:3 1235:1 1264:3
1 222:1 1224:4 1235:1 1264:4
1 222:1 1224:3 1235:1 1264:3
1 222:1 1224:4 1235:1 1264:4
1 222:1 1224:3 1235:1 1264:3
1 222:1 1224:6 1235:1 1264:6
1 222:1 1224:3 1235:1 1264:3
1 222:1 1224:3 1235:1 1264:3
1 222:1 1224:3 1235:1 1264:3
1 222:1 1224:4 1235:1 1264:4
1 222:1 1224:3 1235:1 1264:3
1 222:1 1224:3 1235:1 1264:3
1 598:1 605:1 625:1 1224:2 1226:1 1228:1 1245:1 1264:2
1 222:1 1224:4 1235:1 1264:4
1 222:1 1224:3 1235:1 1264:3
1 222:1 1224:3 1235:1 1264:3
1 222:1 1224:3 1235:1 1264:3
1 222:1 1224:5 1235:1 1264:5
1 157:1 226:1 418:1 524:1 598:1 748:1 1182:1 1216:1 1224:3 1226:1 1236:1 1237:1 1238:1 1243:1 1249:1 1264:3
1 222:1 1224:3 1235:1 1264:3
1 222:1 1224:3 1235:1 1264:3
1 222:1 1224:3 1235:1 1264:3
1 222:1 1224:3 1235:1 1264:3
1 222:1 1224:4 1235:1 1264:4
1 222:1 1224:3 1235:1 1264:3
1 222:1 1224:3 1235:1 1264:3
1 222:1 1224:3 1235:1 1264:3
1 222:1 1224:3 1235:1 1264:3
1 222:1 1224:3 1235:1 1264:3
1 222:1 1224:3 1235:1 1264:3
1 222:1 1224:4 1235:1 1264:4
1 222:1 1224:3 1235:1 1264:3
1 222:1 1224:3 1235:1 1264:3
1 222:1 1224:3 1235:1 1264:3
1 222:1 1224:3 1235:1 1264:3
1 222:1 1224:3 1235:1 1264:3
1 222:1 1224:3 1235:1 1264:3
1 222:1 1224:3 1235:1 1264:3
1 157:1 226:1 236:1 418:1 520:1 524:1 543:1 591:1 598:1 625:1 748:1 810:1 858:1 868:1 881:1 958:1 1182:1 1206:1 1214:1 1216:1 1221:1 1222:1 1223:1 1224:2 1226:1 1227:1 1229:1 1234:1 1236:1 1237:1 1238:1 1239:1 1241:1 1243:1 1245:1 1249:1 1260:1 1264:2
1 222:1 1224:3 1235:1 1264:3
1 222:1 1224:3 1235:1 1264:3
1 222:1 1224:4 1235:1 1264:4
1 222:1 1224:3 1235:1 1264:3
1 222:1 1224:3 1235:1 1264:3
1 222:1 1224:3 1235:1 1264:3
1 226:1 598:1 1224:1 1226:1 1236:1 1264:1
1 222:1 1224:3 1235:1 1264:3
1 222:1 1224:3 1235:1 1264:3
1 222:1 1224:4 1235:1 1264:4
1 222:1 1224:4 1235:1 1264:4
1 222:1 1224:3 1235:1 1264:3
1 222:1 1224:4 1235:1 1264:4
1 222:1 1224:3 1235:1 1264:3
1 222:1 1224:5 1235:1 1264:5
1 222:1 1224:3 1235:1 1264:3
1 222:1 1224:4 1235:1 1264:4
1 222:1 1224:2 1235:1 1264:2
1 157:1 226:1 236:1 418:1 520:1 524:1 543:1 591:1 598:1 625:1 748:1 810:1 858:1 868:1 881:1 958:1 1182:1 1206:1 1214:1 1216:1 1221:1 1222:1 1223:1 1224:2 1226:1 1227:1 1229:1 1234:1 1236:1 1237:1 1238:1 1239:1 1241:1 1243:1 1245:1 1249:1 1260:1 1264:2
1 222:1 1224:3 1235:1 1264:3
1 222:1 1224:3 1235:1 1264:3
1 222:1 1224:3 1235:1 1264:3
1 222:1 1224:3 1235:1 1264:3
1 222:1 1224:3 1235:1 1264:3
1 222:1 1224:3 1235:1 1264:3
1 222:1 1224:3 1235:1 1264:3
1 222:1 1224:3 1235:1 1264:3
1 157:1 226:1 418:1 524:1 598:1 748:1 1182:1 1206:1 1216:1 1224:2 1226:1 1236:1 1237:1 1238:1 1243:1 1249:1 1260:1 1264:2
1 222:1 1224:3 1235:1 1264:3
1 222:1 1224:3 1235:1 1264:3
1 222:1 1224:3 1235:1 1264:3
1 222:1 1224:3 1235:1 1264:3
1 222:1 1224:3 1235:1 1264:3
1 157:1 226:1 418:1 524:1 598:1 748:1 868:1 1182:1 1216:1 1223:1 1224:2 1226:1 1236:1 1237:1 1238:1 1243:1 1249:1 1264:2
1 222:1 1224:3 1235:1 1264:3
1 222:1 1224:4 1235:1 1264:4
1 157:1 226:1 236:1 418:1 520:1 524:1 543:1 591:1 598:1 625:1 748:1 810:1 858:1 868:1 881:1 958:1 1182:1 1206:1 1214:1 1216:1 1221:1 1222:1 1223:1 1224:5 1226:1 1227:1 1229:1 1234:1 1236:1 1237:1 1238:1 1239:1 1241:1 1243:1 1245:1 1249:1 1260:1 1264:5
1 222:1 1224:3 1235:1 1264:3
1 157:1 226:1 236:1 418:1 520:1 524:1 543:1 591:1 598:1 625:1 748:1 810:1 858:1 868:1 881:1 958:1 1182:1 1206:1 1214:1 1216:1 1221:1 1222:1 1223:1 1224:4 1226:1 1227:1 1229:1 1234:1 1236:1 1237:1 1238:1 1239:1 1241:1 1243:1 1245:1 1249:1 1260:1 1264:4
1 222:1 1224:3 1235:1 1264:3
1 222:1 1224:3 1235:1 1264:3
1 222:1 1224:4 1235:1 1264:4
1 222:1 1224:4 1235:1 1264:4
1 157:1 174:1 226:1 418:1 524:1 574:1 598:1 625:1 748:1 1182:1 1206:1 1216:1 1224:8 1226:1 1236:1 1237:1 1238:1 1243:1 1245:1 1248:1 1249:1 1251:1 1260:1 1264:8
1 222:1 1224:4 1235:1 1264:4
1 1224:4 1264:4
1 222:1 1224:3 1235:1 1264:3
1 222:1 1224:3 1235:1 1264:3
1 222:1 1224:3 1235:1 1264:3
1 222:1 1224:3 1235:1 1264:3
1 222:1 1224:4 1235:1 1264:4
1 598:1 605:1 625:1 1224:2 1226:1 1228:1 1245:1 1264:2
1 222:1 1224:3 1235:1 1264:3
1 222:1 1224:3 1235:1 1264:3
1 1224:3 1264:3
1 222:1 1224:3 1235:1 1264:3
1 222:1 1224:3 1235:1 1264:3
1 222:1 1224:3 1235:1 1264:3
1 222:1 1224:3 1235:1 1264:3
1 222:1 1224:3 1235:1 1264:3
1 222:1 1224:3 1235:1 1264:3
1 222:1 1224:4 1235:1 1264:4
1 222:1 1224:3 1235:1 1264:3
1 222:1 1224:3 1235:1 1264:3
1 222:1 1224:3 1235:1 1264:3
1 222:1 1224:3 1235:1 1264:3
1 222:1 1224:3 1235:1 1264:3
1 598:1 1224:3 1226:1 1264:3
1 222:1 1224:3 1235:1 1264:3
1 222:1 1224:4 1235:1 1264:4
1 222:1 1224:3 1235:1 1264:3
1 222:1 1224:3 1235:1 1264:3
1 222:1 1224:3 1235:1 1264:3
1 222:1 1224:3 1235:1 1264:3
1 222:1 1224:3 1235:1 1264:3
1 222:1 1224:3 1235:1 1264:3
1 222:1 1224:3 1235:1 1264:3
1 222:1 1224:6 1235:1 1264:6
1 222:1 1224:3 1235:1 1264:3
1 222:1 1224:4 1235:1 1264:4
1 222:1 1224:3 1235:1 1264:3
1 222:1 1224:3 1235:1 1264:3
1 222:1 1224:3 1235:1 1264:3
1 222:1 1224:3 1235:1 1264:3
1 222:1 1224:3 1235:1 1264:3
1 222:1 1224:2 1235:1 1264:2
1 222:1 1224:3 1235:1 1264:3
1 222:1 1224:3 1235:1 1264:3
1 222:1 1224:3 1235:1 1264:3
1 222:1 1224:5 1235:1 1264:5
1 222:1 1224:3 1235:1 1264:3
1 222:1 1224:3 1235:1 1264:3
1 222:1 1224:3 1235:1 1264:3
1 222:1 1224:3 1235:1 1264:3
1 222:1 1224:3 1235:1 1264:3
1 222:1 1224:3 1235:1 1264:3
1 222:1 1224:3 1235:1 1264:3
1 222:1 1224:3 1235:1 1264:3
1 157:1 226:1 418:1 524:1 598:1 748:1 1182:1 1216:1 1224:2 1226:1 1236:1 1237:1 1238:1 1243:1 1249:1 1264:2
1 222:1 1224:3 1235:1 1264:3
1 222:1 1224:4 1235:1 1264:4
1 222:1 1224:3 1235:1 1264:3
1 418:1 574:1 598:1 1224:3 1226:1 1238:1 1248:1 1264:3
1 598:1 605:1 1224:2 1226:1 1228:1 1264:2
1 222:1 1224:3 1235:1 1264:3
1 222:1 1224:3 1235:1 1264:3
1 222:1 226:1 418:1 524:1 598:1 625:1 1182:1 1206:1 1216:1 1224:7 1226:1 1235:1 1236:1 1238:1 1245:1 1249:1 1260:1 1264:7
1 222:1 1224:3 1235:1 1264:3
1 222:1 1224:3 1235:1 1264:3
1 222:1 1224:3 1235:1 1264:3
1 598:1 605:1 1224:2 1226:1 1228:1 1264:2
1 222:1 1224:4 1235:1 1264:4
1 222:1 1224:4 1235:1 1264:4
1 222:1 1224:4 1235:1 1264:4
1 222:1 1224:4 1235:1 1264:4
1 222:1 1224:3 1235:1 1264:3
1 222:1 1224:4 1235:1 1264:4
1 222:1 1224:3 1235:1 1264:3
1 222:1 1224:4 1235:1 1264:4
1 222:1 1224:5 1235:1 1264:5
1 598:1 605:1 625:1 1224:3 1226:1 1228:1 1245:1 1264:3
1 222:1 1224:4 1235:1 1264:4
1 222:1 1224:3 1235:1 1264:3
1 222:1 1224:4 1235:1 1264:4
1 222:1 1224:3 1235:1 1264:3
1 222:1 1224:3 1235:1 1264:3
1 222:1 1224:3 1235:1 1264:3
1 598:1 605:1 1224:2 1226:1 1228:1 1264:2
1 222:1 1224:3 1235:1 1264:3
1 222:1 1224:4 1235:1 1264:4
1 222:1 1224:3 1235:1 1264:3
1 226:1 418:2 524:1 598:3 625:1 1182:2 1216:1 1224:7 1226:3 1236:1 1238:2 1245:1 1249:2 1264:7
1 222:1 1224:3 1235:1 1264:3
1 222:1 1224:4 1235:1 1264:4
1 222:1 1224:3 1235:1 1264:3
1 222:1 1224:4 1235:1 1264:4
1 222:1 1224:3 1235:1 1264:3
1 222:1 1224:3 1235:1 1264:3
1 222:1 1224:3 1235:1 1264:3
1 598:1 605:1 625:1 1224:2 1226:1 1228:1 1245:1 1264:2
1 222:1 1224:3 1235:1 1264:3
1 598:1 605:1 1224:2 1226:1 1228:1 1264:2
1 222:1 1224:3 1235:1 1264:3
1 222:1 1224:3 1235:1 1264:3
1 222:1 1224:4 1235:1 1264:4
1 222:1 1224:3 1235:1 1264:3
1 222:1 1224:4 1235:1 1264:4
1 222:1 1224:3 1235:1 1264:3
1 222:1 1224:4 1235:1 1264:4
1 222:1 1224:3 1235:1 1264:3
1 222:1 1224:3 1235:1 1264:3
1 598:1 605:1 1224:2 1226:1 1228:1 1264:2
1 222:1 1224:3 1235:1 1264:3
1 222:1 1224:4 1235:1 1264:4
1 222:1 1224:3 1235:1 1264:3
1 222:1 1224:3 1235:1 1264:3
1 222:1 1224:5 1235:1 1264:5
1 222:1 1224:3 1235:1 1264:3
1 222:1 1224:3 1235:1 1264:3
1 222:1 1224:3 1235:1 1264:3
1 222:1 1224:3 1235:1 1264:3
1 222:1 1224:3 1235:1 1264:3
1 222:1 1224:3 1235:1 1264:3
1 222:1 1224:3 1235:1 1264:3
1 222:1 1224:4 1235:1 1264:4
1 222:1 1224:4 1235:1 1264:4
1 222:1 1224:3 1235:1 1264:3
1 222:1 1224:3 1235:1 1264:3
1 222:1 1224:3 1235:1 1264:3
1 222:1 1224:4 1235:1 1264:4
1 222:1 1224:3 1235:1 1264:3
1 157:1 226:2 236:1 418:2 524:1 598:4 625:3 748:2 881:1 920:1 1182:3 1206:1 1216:1 1224:6 1226:4 1229:1 1236:2 1237:2 1238:2 1241:1 1243:1 1245:3 1249:3 1258:1 1260:1 1264:6
1 222:1 1224:3 1235:1 1264:3
1 222:1 1224:4 1235:1 1264:4
1 222:1 1224:4 1235:1 1264:4
1 139:1 157:1 226:3 236:1 418:3 491:1 499:1 524:1 591:1 598:4 605:1 625:3 748:2 791:1 881:1 920:2 1166:1 1182:3 1199:1 1206:1 1216:1 1218:1 1222:1 1224:5 1226:4 1228:1 1229:1 1230:1 1233:1 1236:3 1237:2 1238:3 1241:1 1243:1 1245:3 1247:1 1249:3 1253:1 1257:1 1258:2 1260:1 1264:5
1 222:1 1224:3 1235:1 1264:3
1 222:1 1224:3 1235:1 1264:3
1 222:1 1224:3 1235:1 1264:3
1 222:1 1224:3 1235:1 1264:3
1 222:1 1224:4 1235:1 1264:4
1 222:1 1224:3 1235:1 1264:3
1 222:1 1224:4 1235:1 1264:4
1 222:1 1224:3 1235:1 1264:3
1 598:1 605:1 625:1 1224:2 1226:1 1228:1 1245:1 1264:2
1 222:1 1224:3 1235:1 1264:3
1 222:1 1224:3 1235:1 1264:3
1 222:1 1224:4 1235:1 1264:4
1 222:1 1224:3 1235:1 1264:3
1 222:1 1224:3 1235:1 1264:3
1 222:1 1224:4 1235:1 1264:4
1 222:1 1224:4 1235:1 1264:4
1 222:1 1224:3 1235:1 1264:3
1 222:1 1224:3 1235:1 1264:3
1 222:1 226:1 418:1 524:1 598:1 625:1 1182:1 1206:1 1216:1 1224:6 1226:1 1235:1 1236:1 1238:1 1245:1 1249:1 1260:1 1264:6
1 157:1 174:1 226:1 418:1 524:1 574:1 591:1 598:1 748:1 1216:1 1222:1 1224:4 1226:1 1236:1 1237:1 1238:1 1243:1 1248:1 1251:1 1264:4
1 222:1 1224:3 1235:1 1264:3
1 222:1 1224:4 1235:1 1264:4
1 222:1 1224:4 1235:1 1264:4
1 222:1 1224:3 1235:1 1264:3
1 222:1 1224:5 1235:1 1264:5
1 598:1 605:1 625:1 1224:2 1226:1 1228:1 1245:1 1264:2
1 157:1 226:1 236:1 418:1 524:1 591:1 598:1 625:1 748:1 810:1 858:1 868:1 881:1 958:1 1182:1 1206:1 1216:1 1221:1 1222:1 1223:1 1224:3 1226:1 1229:1 1234:1 1236:1 1237:1 1238:1 1239:1 1241:1 1243:1 1245:1 1249:1 1260:1 1264:3
1 598:1 605:1 625:1 1224:2 1226:1 1228:1 1245:1 1264:2
1 222:1 1224:3 1235:1 1264:3
1 222:1 1224:3 1235:1 1264:3
1 222:1 1224:3 1235:1 1264:3
1 222:1 1224:3 1235:1 1264:3
1 222:1 1224:4 1235:1 1264:4
1 222:1 1224:4 1235:1 1264:4
1 222:1 1224:4 1235:1 1264:4
1 598:1 605:1 1224:2 1226:1 1228:1 1264:2
1 222:1 1224:6 1235:1 1264:6
1 418:1 574:1 598:1 1224:3 1226:1 1238:1 1248:1 1264:3
1 222:1 1224:3 1235:1 1264:3
1 222:1 1224:3 1235:1 1264:3
1 222:1 1224:3 1235:1 1264:3
1 222:1 1224:5 1235:1 1264:5
1 222:1 1224:4 1235:1 1264:4
1 222:1 1224:4 1235:1 1264:4
1 598:1 605:1 1224:3 1226:1 1228:1 1264:3
1 222:1 1224:3 1235:1 1264:3
1 222:1 1224:3 1235:1 1264:3
1 598:1 605:1 625:1 1224:2 1226:1 1228:1 1245:1 1264:2
1 222:1 1224:3 1235:1 1264:3
1 222:1 1224:3 1235:1 1264:3
1 222:1 1224:3 1235:1 1264:3
1 222:1 1224:3 1235:1 1264:3
1 222:1 1224:3 1235:1 1264:3
1 222:1 1224:3 1235:1 1264:3
1 222:1 1224:2 1235:1 1264:2
1 222:1 1224:3 1235:1 1264:3
1 222:1 1224:3 1235:1 1264:3
1 222:1 1224:3 1235:1 1264:3
1 222:1 1224:3 1235:1 1264:3
1 157:1 226:1 236:1 418:1 520:1 524:1 543:1 591:1 598:1 625:1 748:1 810:1 858:1 868:1 881:1 958:1 1182:1 1206:1 1214:1 1216:1 1221:1 1222:1 1223:1 1224:1 1226:1 1227:1 1229:1 1234:1 1236:1 1237:1 1238:1 1239:1 1241:1 1243:1 1245:1 1249:1 1260:1 1264:1
1 598:1 605:1 1224:2 1226:1 1228:1 1264:2
1 222:1 1224:3 1235:1 1264:3
1 222:1 1224:3 1235:1 1264:3
1 418:1 574:1 598:1 1224:3 1226:1 1238:1 1248:1 1264:3
1 222:1 1224:4 1235:1 1264:4
1 222:1 1224:4 1235:1 1264:4
1 222:1 1224:4 1235:1 1264:4
1 222:1 1224:3 1235:1 1264:3
1 222:1 1224:3 1235:1 1264:3
1 222:1 1224:4 1235:1 1264:4
1 222:1 1224:4 1235:1 1264:4
1 222:1 1224:3 1235:1 1264:3
1 222:1 1224:3 1235:1 1264:3
1 222:1 1224:4 1235:1 1264:4
1 222:1 1224:4 1235:1 1264:4
1 222:1 1224:3 1235:1 1264:3
1 222:1 1224:4 1235:1 1264:4
1 222:1 1224:3 1235:1 1264:3
1 222:1 1224:3 1235:1 1264:3
1 222:1 1224:4 1235:1 1264:4
1 222:1 226:1 418:1 524:1 598:1 625:1 1182:1 1206:1 1216:1 1224:6 1226:1 1235:1 1236:1 1238:1 1245:1 1249:1 1260:1 1264:6
1 222:1 1224:3 1235:1 1264:3
1 222:1 1224:3 1235:1 1264:3
1 222:1 1224:4 1235:1 1264:4
1 222:1 1224:3 1235:1 1264:3
1 222:1 1224:3 1235:1 1264:3
1 222:1 1224:3 1235:1 1264:3
1 222:1 1224:4 1235:1 1264:4
1 598:1 605:1 625:1 1224:3 1226:1 1228:1 1245:1 1264:3
1 598:1 1224:2 1226:1 1264:2
1 222:1 1224:3 1235:1 1264:3
1 157:1 226:1 418:1 524:1 574:1 598:1 625:1 748:1 1182:1 1216:1 1224:3 1226:1 1236:1 1237:1 1238:1 1243:1 1245:1 1248:1 1249:1 1264:3
1 598:1 625:1 748:1 1224:2 1226:1 1237:1 1245:1 1264:2
1 222:1 1224:4 1235:1 1264:4
1 222:1 1224:2 1235:1 1264:2
1 222:1 1224:3 1235:1 1264:3
1 222:1 1224:3 1235:1 1264:3
1 222:1 1224:4 1235:1 1264:4
1 222:1 1224:3 1235:1 1264:3
1 222:1 1224:3 1235:1 1264:3
1 222:1 1224:3 1235:1 1264:3
1 222:1 1224:3 1235:1 1264:3
1 222:1 1224:3 1235:1 1264:3
1 222:1 1224:4 1235:1 1264:4
1 222:1 1224:3 1235:1 1264:3
1 222:1 1224:3 1235:1 1264:3
1 418:1 574:1 598:1 1224:3 1226:1 1238:1 1248:1 1264:3
1 222:1 1224:3 1235:1 1264:3
1 222:1 1224:3 1235:1 1264:3
1 222:1 1224:3 1235:1 1264:3
1 222:1 1224:3 1235:1 1264:3
1 222:1 1224:3 1235:1 1264:3
1 222:1 1224:3 1235:1 1264:3
1 222:1 1224:5 1235:1 1264:5
1 222:1 1224:3 1235:1 1264:3
1 222:1 1224:3 1235:1 1264:3
1 222:1 1224:3 1235:1 1264:3
1 222:1 1224:3 1235:1 1264:3
1 222:1 1224:4 1235:1 1264:4
1 222:1 1224:5 1235:1 1264:5
1 222:1 1224:4 1235:1 1264:4
1 222:1 1224:3 1235:1 1264:3
1 222:1 1224:3 1235:1 1264:3
1 222:1 1224:3 1235:1 1264:3
1 222:1 1224:4 1235:1 1264:4
1 222:1 1224:3 1235:1 1264:3
1 222:1 1224:4 1235:1 1264:4
1 222:1 1224:3 1235:1 1264:3
1 222:1 1224:3 1235:1 1264:3
1 222:1 1224:3 1235:1 1264:3
1 222:1 1224:3 1235:1 1264:3
1 222:1 1224:3 1235:1 1264:3
1 1224:2 1264:2
1 222:1 1224:5 1235:1 1264:5
1 222:1 1224:3 1235:1 1264:3
1 222:1 1224:3 1235:1 1264:3
1 222:1 1224:3 1235:1 1264:3
1 222:1 1224:3 1235:1 1264:3
1 222:1 1224:3 1235:1 1264:3
1 222:1 226:1 418:1 524:1 598:1 625:1 1182:1 1206:1 1216:1 1224:7 1226:1 1235:1 1236:1 1238:1 1245:1 1249:1 1260:1 1264:7
1 222:1 1224:4 1235:1 1264:4
1 222:1 1224:3 1235:1 1264:3
1 222:1 1224:4 1235:1 1264:4
1 222:1 1224:3 1235:1 1264:3
1 222:1 1224:3 1235:1 1264:3
1 222:1 1224:5 1235:1 1264:5
1 222:1 1224:3 1235:1 1264:3
1 598:1 605:1 1224:2 1226:1 1228:1 1264:2
1 222:1 1224:4 1235:1 1264:4
1 222:1 1224:3 1235:1 1264:3
1 222:1 1224:3 1235:1 1264:3
1 222:1 1224:3 1235:1 1264:3
1 222:1 1224:3 1235:1 1264:3
1 222:1 1224:4 1235:1 1264:4
1 222:1 1224:3 1235:1 1264:3
1 222:1 1224:3 1235:1 1264:3
1 222:1 1224:3 1235:1 1264:3
1 222:1 1224:3 1235:1 1264:3
1 222:1 1224:3 1235:1 1264:3
1 222:1 1224:3 1235:1 1264:3
1 222:1 1224:4 1235:1 1264:4
1 222:1 1224:4 1235:1 1264:4
1 222:1 1224:5 1235:1 1264:5
1 157:1 226:1 418:1 524:1 598:1 748:1 1182:1 1206:1 1216:1 1224:3 1226:1 1236:1 1237:1 1238:1 1243:1 1249:1 1260:1 1264:3
1 222:1 1224:3 1235:1 1264:3
1 222:1 1224:3 1235:1 1264:3
1 222:1 1224:3 1235:1 1264:3
1 222:1 1224:4 1235:1 1264:4
1 222:1 1224:5 1235:1 1264:5
1 222:1 1224:3 1235:1 1264:3
1 598:1 605:1 1224:2 1226:1 1228:1 1264:2
1 222:1 1224:4 1235:1 1264:4
1 222:1 1224:3 1235:1 1264:3
1 222:1 1224:3 1235:1 1264:3
1 222:1 1224:3 1235:1 1264:3
1 174:1 226:1 598:1 1224:4 1226:1 1236:1 1251:1 1264:4
1 222:1 1224:3 1235:1 1264:3
1 222:1 1224:3 1235:1 1264:3
1 222:1 1224:3 1235:1 1264:3
1 222:1 1224:4 1235:1 1264:4
1 226:1 418:2 524:1 598:3 625:1 1182:2 1216:1 1224:6 1226:3 1236:1 1238:2 1245:1 1249:2 1264:6
1 222:1 1224:4 1235:1 1264:4
1 222:1 1224:3 1235:1 1264:3
1 222:1 1224:3 1235:1 1264:3
1 222:1 1224:4 1235:1 1264:4
1 222:1 1224:4 1235:1 1264:4
1 157:1 226:1 418:1 524:1 598:1 748:1 1182:1 1216:1 1224:2 1226:1 1236:1 1237:1 1238:1 1243:1 1249:1 1264:2
1 222:1 1224:3 1235:1 1264:3
1 222:1 1224:4 1235:1 1264:4
1 222:1 1224:3 1235:1 1264:3
1 222:1 1224:3 1235:1 1264:3
1 222:1 1224:4 1235:1 1264:4
1 222:1 1224:3 1235:1 1264:3
1 222:1 1224:3 1235:1 1264:3
1 222:1 1224:3 1235:1 1264:3
1 222:1 1224:3 1235:1 1264:3
1 222:1 1224:3 1235:1 1264:3
1 222:1 1224:3 1235:1 1264:3
1 222:1 1224:3 1235:1 1264:3
1 222:1 1224:4 1235:1 1264:4
1 139:1 157:1 226:3 236:1 418:3 491:1 499:1 524:1 591:1 598:4 605:1 625:3 748:2 791:1 881:1 920:2 1166:1 1182:3 1199:1 1206:1 1216:1 1218:1 1222:1 1224:5 1226:4 1228:1 1229:1 1230:1 1233:1 1236:3 1237:2 1238:3 1241:1 1243:1 1245:3 1247:1 1249:3 1253:1 1257:1 1258:2 1260:1 1264:5
1 222:1 1224:3 1235:1 1264:3
1 222:1 1224:4 1235:1 1264:4
1 222:1 1224:4 1235:1 1264:4
1 222:1 1224:3 1235:1 1264:3
1 222:1 1224:3 1235:1 1264:3
1 222:1 1224:3 1235:1 1264:3
1 222:1 1224:4 1235:1 1264:4
1 222:1 1224:3 1235:1 1264:3
1 222:1 1224:3 1235:1 1264:3
1 598:1 605:1 625:1 1224:2 1226:1 1228:1 1245:1 1264:2
1 222:1 1224:4 1235:1 1264:4
1 222:1 1224:3 1235:1 1264:3
1 222:1 1224:4 1235:1 1264:4
1 222:1 1224:2 1235:1 1264:2
1 222:1 1224:3 1235:1 1264:3
1 222:1 1224:3 1235:1 1264:3
1 222:1 1224:5 1235:1 1264:5
1 222:1 1224:3 1235:1 1264:3
1 418:1 574:1 598:1 1224:4 1226:1 1238:1 1248:1 1264:4
1 222:1 1224:3 1235:1 1264:3
1 418:1 574:1 598:1 1224:3 1226:1 1238:1 1248:1 1264:3
1 222:1 1224:4 1235:1 1264:4
1 222:1 1224:3 1235:1 1264:3
1 598:1 605:1 625:1 1224:2 1226:1 1228:1 1245:1 1264:2
1 222:1 1224:4 1235:1 1264:4
1 222:1 226:1 418:1 524:1 598:1 625:1 1182:1 1206:1 1216:1 1224:7 1226:1 1235:1 1236:1 1238:1 1245:1 1249:1 1260:1 1264:7
1 222:1 1224:4 1235:1 1264:4
1 222:1 1224:3 1235:1 1264:3
1 222:1 1224:5 1235:1 1264:5
1 598:1 605:1 1224:2 1226:1 1228:1 1264:2
1 598:1 605:1 1224:2 1226:1 1228:1 1264:2
1 222:1 1224:3 1235:1 1264:3
1 222:1 1224:3 1235:1 1264:3
1 222:1 1224:3 1235:1 1264:3
1 1224:2 1264:2
1 222:1 1224:2 1235:1 1264:2
1 222:1 1224:2 1235:1 1264:2
1 222:1 1224:4 1235:1 1264:4
1 222:1 1224:3 1235:1 1264:3
1 222:1 1224:3 1235:1 1264:3
1 222:1 1224:3 1235:1 1264:3
1 222:1 1224:3 1235:1 1264:3
1 222:1 1224:3 1235:1 1264:3
1 222:1 1224:3 1235:1 1264:3
1 222:1 1224:4 1235:1 1264:4
1 222:1 1224:3 1235:1 1264:3
1 222:1 1224:3 1235:1 1264:3
1 222:1 1224:3 1235:1 1264:3
1 222:1 1224:4 1235:1 1264:4
1 226:1 598:1 1224:2 1226:1 1236:1 1264:2
1 222:1 1224:4 1235:1 1264:4
1 222:1 1224:3 1235:1 1264:3
1 222:1 1224:3 1235:1 1264:3
1 222:1 1224:4 1235:1 1264:4
1 598:1 605:1 1224:2 1226:1 1228:1 1264:2
1 222:1 1224:4 1235:1 1264:4
1 222:1 1224:3 1235:1 1264:3
1 222:1 1224:3 1235:1 1264:3
1 222:1 1224:3 1235:1 1264:3
1 222:1 1224:3 1235:1 1264:3
1 222:1 1224:4 1235:1 1264:4
1 222:1 1224:3 1235:1 1264:3
1 222:1 1224:3 1235:1 1264:3
1 174:1 574:1 598:1 1224:1 1226:1 1248:1 1251:1 1264:1
1 174:1 574:1 598:1 1224:1 1226:1 1248:1 1251:1 1264:1
1 222:1 1224:4 1235:1 1264:4
1 418:1 598:1 1224:6 1226:1 1238:1 1264:6
1 222:1 1224:3 1235:1 1264:3
1 222:1 1224:4 1235:1 1264:4
1 222:1 1224:3 1235:1 1264:3
1 222:1 1224:3 1235:1 1264:3
1 222:1 1224:3 1235:1 1264:3
1 222:1 1224:3 1235:1 1264:3
1 157:1 226:1 418:1 524:1 598:1 748:1 1182:1 1216:1 1224:3 1226:1 1236:1 1237:1 1238:1 1243:1 1249:1 1264:3
1 1224:2 1264:2
1 222:1 1224:3 1235:1 1264:3
1 222:1 1224:3 1235:1 1264:3
1 222:1 1224:3 1235:1 1264:3
1 222:1 1224:3 1235:1 1264:3
1 222:1 1224:3 1235:1 1264:3
1 222:1 1224:5 1235:1 1264:5
1 222:1 1224:3 1235:1 1264:3
1 222:1 1224:4 1235:1 1264:4
1 222:1 1224:3 1235:1 1264:3
1 222:1 1224:3 1235:1 1264:3
1 222:1 1224:5 1235:1 1264:5
1 222:1 1224:3 1235:1 1264:3
1 222:1 1224:3 1235:1 1264:3
1 222:1 1224:3 1235:1 1264:3
1 222:1 1224:3 1235:1 1264:3
1 222:1 1224:3 1235:1 1264:3
1 222:1 1224:5 1235:1 1264:5
1 222:1 1224:3 1235:1 1264:3
1 222:1 1224:3 1235:1 1264:3
1 222:1 226:1 418:1 524:1 598:1 625:1 1182:1 1206:1 1216:1 1224:6 1226:1 1235:1 1236:1 1238:1 1245:1 1249:1 1260:1 1264:6
1 222:1 226:1 418:1 524:1 598:1 625:1 1182:1 1206:1 1216:1 1224:7 1226:1 1235:1 1236:1 1238:1 1245:1 1249:1 1260:1 1264:7
1 222:1 1224:3 1235:1 1264:3
1 222:1 1224:3 1235:1 1264:3
1 222:1 1224:3 1235:1 1264:3
1 222:1 1224:3 1235:1 1264:3
1 222:1 1224:4 1235:1 1264:4
1 222:1 1224:3 1235:1 1264:3
1 222:1 1224:4 1235:1 1264:4
1 222:1 1224:3 1235:1 1264:3
1 222:1 1224:3 1235:1 1264:3
1 222:1 1224:3 1235:1 1264:3
1 222:1 1224:3 1235:1 1264:3
1 222:1 1224:3 1235:1 1264:3
1 222:1 1224:4 1235:1 1264:4
1 1224:2 1264:2
1 222:1 1224:3 1235:1 1264:3
1 157:1 226:1 418:1 524:1 598:1 748:1 1182:1 1206:1 1216:1 1224:3 1226:1 1236:1 1237:1 1238:1 1243:1 1249:1 1260:1 1264:3
1 222:1 1224:3 1235:1 1264:3
1 222:1 1224:3 1235:1 1264:3
1 222:1 1224:3 1235:1 1264:3
1 222:1 1224:4 1235:1 1264:4
1 222:1 1224:3 1235:1 1264:3
1 222:1 1224:4 1235:1 1264:4
1 222:1 1224:3 1235:1 1264:3
1 598:1 1224:9 1226:1 1264:9
1 222:1 598:1 1224:8 1226:1 1235:1 1264:8
1 222:1 1224:4 1235:1 1264:4
1 222:1 1224:3 1235:1 1264:3
1 222:1 1224:3 1235:1 1264:3
1 222:1 1224:4 1235:1 1264:4
1 157:1 226:1 236:1 418:1 520:1 524:1 543:1 591:1 598:1 625:1 748:1 810:1 858:1 868:1 881:1 958:1 1182:1 1206:1 1214:1 1216:1 1221:1 1222:1 1223:1 1224:2 1226:1 1227:1 1229:1 1234:1 1236:1 1237:1 1238:1 1239:1 1241:1 1243:1 1245:1 1249:1 1260:1 1264:2
1 222:1 1224:3 1235:1 1264:3
1 157:1 226:1 418:1 524:1 598:1 748:1 1182:1 1216:1 1224:3 1226:1 1236:1 1237:1 1238:1 1243:1 1249:1 1264:3
1 222:1 1224:2 1235:1 1264:2
1 222:1 1224:4 1235:1 1264:4
1 222:1 1224:5 1235:1 1264:5
1 222:1 1224:3 1235:1 1264:3
1 222:1 1224:3 1235:1 1264:3
1 222:1 1224:3 1235:1 1264:3
1 222:1 1224:4 1235:1 1264:4
1 222:1 1224:3 1235:1 1264:3
1 222:1 1224:3 1235:1 1264:3
1 222:1 1224:4 1235:1 1264:4
1 222:1 1224:3 1235:1 1264:3
1 222:1 1224:4 1235:1 1264:4
1 1224:3 1264:3
1 222:1 1224:4 1235:1 1264:4
1 222:1 1224:3 1235:1 1264:3
1 222:1 1224:3 1235:1 1264:3
1 222:1 1224:3 1235:1 1264:3
1 222:1 1224:3 1235:1 1264:3
1 222:1 1224:4 1235:1 1264:4
1 222:1 1224:4 1235:1 1264:4
1 222:1 1224:3 1235:1 1264:3
1 222:1 1224:3 1235:1 1264:3
1 222:1 1224:3 1235:1 1264:3
1 222:1 1224:2 1235:1 1264:2
1 222:1 1224:3 1235:1 1264:3
1 157:1 226:1 418:1 524:1 598:1 748:1 1182:1 1216:1 1224:2 1226:1 1236:1 1237:1 1238:1 1243:1 1249:1 1264:2
1 222:1 1224:4 1235:1 1264:4
1 222:1 1224:3 1235:1 1264:3
1 222:1 1224:3 1235:1 1264:3
1 222:1 1224:4 1235:1 1264:4
1 222:1 1224:2 1235:1 1264:2
1 222:1 1224:4 1235:1 1264:4
1 222:1 1224:3 1235:1 1264:3
1 222:1 1224:3 1235:1 1264:3
1 222:1 1224:3 1235:1 1264:3
1 222:1 1224:3 1235:1 1264:3
1 174:1 418:1 524:1 598:1 856:1 1216:1 1220:1 1224:5 1226:1 1238:1 1251:1 1264:5
1 222:1 1224:3 1235:1 1264:3
1 157:1 226:1 418:1 524:1 598:1 748:1 1182:1 1206:1 1216:1 1224:2 1226:1 1236:1 1237:1 1238:1 1243:1 1249:1 1260:1 1264:2
1 222:1 1224:3 1235:1 1264:3
1 222:1 1224:3 1235:1 1264:3
1 222:1 1224:3 1235:1 1264:3
1 222:1 1224:5 1235:1 1264:5
1 222:1 1224:3 1235:1 1264:3
1 222:1 1224:4 1235:1 1264:4
1 222:1 1224:4 1235:1 1264:4
1 222:1 1224:3 1235:1 1264:3
1 222:1 1224:3 1235:1 1264:3
1 226:1 491:1 598:2 1224:7 1226:2 1236:1 1247:1 1264:7
1 222:1 1224:3 1235:1 1264:3
1 222:1 1224:3 1235:1 1264:3
1 222:1 1224:4 1235:1 1264:4
1 1224:3 1264:3
1 222:1 1224:3 1235:1 1264:3
1 222:1 1224:3 1235:1 1264:3
1 222:1 1224:3 1235:1 1264:3
1 222:1 1224:3 1235:1 1264:3
1 222:1 1224:4 1235:1 1264:4
1 222:1 1224:4 1235:1 1264:4
1 222:1 1224:3 1235:1 1264:3
1 222:1 1224:3 1235:1 1264:3
1 222:1 1224:4 1235:1 1264:4
1 222:1 1224:4 1235:1 1264:4
1 157:1 226:1 236:1 418:1 520:1 524:1 543:1 591:1 598:1 625:1 748:1 810:1 858:1 868:1 881:1 958:1 1182:1 1206:1 1214:1 1216:1 1221:1 1222:1 1223:1 1224:5 1226:1 1227:1 1229:1 1234:1 1236:1 1237:1 1238:1 1239:1 1241:1 1243:1 1245:1 1249:1 1260:1 1264:5
1 222:1 1224:3 1235:1 1264:3
1 222:1 1224:3 1235:1 1264:3
1 222:1 1224:3 1235:1 1264:3
1 222:1 1224:3 1235:1 1264:3
1 222:1 1224:4 1235:1 1264:4
1 222:1 1224:3 1235:1 1264:3
1 222:1 1224:3 1235:1 1264:3
1 222:1 1224:3 1235:1 1264:3
1 222:1 1224:4 1235:1 1264:4
1 222:1 1224:3 1235:1 1264:3
1 1224:2 1264:2
1 222:1 1224:3 1235:1 1264:3
1 222:1 1224:3 1235:1 1264:3
1 222:1 1224:4 1235:1 1264:4
1 222:1 1224:3 1235:1 1264:3
1 222:1 1224:4 1235:1 1264:4
1 222:1 1224:3 1235:1 1264:3
1 222:1 1224:3 1235:1 1264:3
1 222:1 1224:3 1235:1 1264:3
1 222:1 1224:3 1235:1 1264:3
1 222:1 1224:4 1235:1 1264:4
1 222:1 1224:4 1235:1 1264:4
1 222:1 1224:3 1235:1 1264:3
1 222:1 1224:3 1235:1 1264:3
1 222:1 1224:3 1235:1 1264:3
1 222:1 1224:3 1235:1 1264:3
1 222:1 1224:3 1235:1 1264:3
1 222:1 1224:3 1235:1 1264:3
1 222:1 1224:3 1235:1 1264:3
1 157:1 226:1 418:1 524:1 598:1 748:1 1182:1 1216:1 1224:3 1226:1 1236:1 1237:1 1238:1 1243:1 1249:1 1264:3
1 222:1 1224:4 1235:1 1264:4
1 222:1 1224:3 1235:1 1264:3
1 222:1 1224:3 1235:1 1264:3
1 222:1 1224:3 1235:1 1264:3
1 222:1 1224:5 1235:1 1264:5
1 222:1 1224:3 1235:1 1264:3
1 222:1 1224:3 1235:1 1264:3
1 598:1 605:1 1224:2 1226:1 1228:1 1264:2
1 222:1 1224:3 1235:1 1264:3
1 222:1 1224:3 1235:1 1264:3
1 222:1 1224:3 1235:1 1264:3
1 222:1 1224:3 1235:1 1264:3
1 222:1 1224:4 1235:1 1264:4
1 222:1 1224:4 1235:1 1264:4
1 222:1 1224:3 1235:1 1264:3
1 222:1 1224:3 1235:1 1264:3
1 222:1 1224:3 1235:1 1264:3
1 222:1 1224:4 1235:1 1264:4
1 222:1 1224:3 1235:1 1264:3
1 222:1 1224:3 1235:1 1264:3
1 391:1 418:1 563:1 598:1 789:1 883:1 990:1 1128:1 1129:1 1215:1 1217:1 1224:1 1226:1 1232:1 1238:1 1242:1 1255:1 1256:1 1262:1 1264:1
1 222:1 1224:3 1235:1 1264:3
1 222:1 1224:4 1235:1 1264:4
1 222:1 1224:3 1235:1 1264:3
1 222:1 1224:3 1235:1 1264:3
1 222:1 1224:3 1235:1 1264:3
1 222:1 1224:3 1235:1 1264:3
1 222:1 1224:3 1235:1 1264:3
1 222:1 1224:4 1235:1 1264:4
1 222:1 1224:3 1235:1 1264:3
1 222:1 1224:3 1235:1 1264:3
1 222:1 1224:4 1235:1 1264:4
1 222:1 1224:3 1235:1 1264:3
1 222:1 1224:2 1235:1 1264:2
1 157:1 418:1 598:1 625:1 1182:1 1224:4 1226:1 1238:1 1243:1 1245:1 1249:1 1264:4 1266:2
1 222:1 1224:3 1235:1 1264:3
1 157:1 226:1 418:1 524:1 598:1 748:1 1182:1 1206:1 1216:1 1224:2 1226:1 1236:1 1237:1 1238:1 1243:1 1249:1 1260:1 1264:2
1 222:1 1224:3 1235:1 1264:3
1 222:1 1224:4 1235:1 1264:4
1 222:1 1224:3 1235:1 1264:3
1 222:1 1224:5 1235:1 1264:5
1 222:1 1224:3 1235:1 1264:3
1 222:1 1224:3 1235:1 1264:3
1 222:1 1224:3 1235:1 1264:3
1 222:1 1224:6 1235:1 1264:6
1 222:1 1224:3 1235:1 1264:3
1 222:1 226:1 418:1 524:1 598:1 625:1 1182:1 1206:1 1216:1 1224:7 1226:1 1235:1 1236:1 1238:1 1245:1 1249:1 1260:1 1264:7
1 222:1 1224:3 1235:1 1264:3
1 222:1 1224:3 1235:1 1264:3
1 222:1 1224:3 1235:1 1264:3
1 222:1 1224:3 1235:1 1264:3
1 598:1 1224:3 1226:1 1264:3
1 174:1 226:1 418:1 524:1 574:1 598:1 625:1 1182:1 1206:1 1216:1 1224:7 1226:1 1236:1 1238:1 1245:1 1248:1 1249:1 1251:1 1260:1 1264:7
1 222:1 1224:3 1235:1 1264:3
1 222:1 1224:3 1235:1 1264:3
1 598:1 605:1 1224:2 1226:1 1228:1 1264:2
1 157:1 226:3 365:1 418:3 524:2 591:1 598:4 625:2 748:2 1182:3 1216:2 1222:1 1224:6 1226:4 1236:3 1237:2 1238:3 1243:1 1244:1 1245:2 1249:3 1264:6
1 222:1 1224:4 1235:1 1264:4
1 222:1 1224:3 1235:1 1264:3
1 222:1 1224:3 1235:1 1264:3
1 222:1 1224:3 1235:1 1264:3
1 598:1 605:1 1224:3 1226:1 1228:1 1264:3
1 222:1 1224:5 1235:1 1264:5
1 222:1 1224:3 1235:1 1264:3
1 222:1 1224:5 1235:1 1264:5
1 222:1 1224:3 1235:1 1264:3
1 222:1 1224:4 1235:1 1264:4
1 222:1 1224:4 1235:1 1264:4
1 222:1 1224:5 1235:1 1264:5
1 222:1 1224:3 1235:1 1264:3
1 157:1 226:1 236:1 418:1 520:1 524:1 543:1 591:1 598:1 625:1 748:1 810:1 858:1 868:1 881:1 958:1 1182:1 1206:1 1214:1 1216:1 1221:1 1222:1 1223:1 1224:5 1226:1 1227:1 1229:1 1234:1 1236:1 1237:1 1238:1 1239:1 1241:1 1243:1 1245:1 1249:1 1260:1 1264:5
1 222:1 1224:3 1235:1 1264:3
1 222:1 1224:3 1235:1 1264:3
1 222:1 1224:3 1235:1 1264:3
1 598:1 605:1 1224:2 1226:1 1228:1 1264:2
1 222:1 1224:5 1235:1 1264:5
1 222:1 1224:3 1235:1 1264:3
1 222:1 1224:4 1235:1 1264:4
1 222:1 1224:3 1235:1 1264:3
1 222:1 1224:3 1235:1 1264:3
1 157:1 226:1 418:1 524:1 598:1 748:1 1182:1 1216:1 1224:2 1226:1 1236:1 1237:1 1238:1 1243:1 1249:1 1264:2
1 222:1 1224:4 1235:1 1264:4
1 157:1 226:1 418:1 524:1 598:1 748:1 1182:1 1216:1 1224:2 1226:1 1236:1 1237:1 1238:1 1243:1 1249:1 1264:2
1 222:1 1224:4 1235:1 1264:4
1 222:1 1224:3 1235:1 1264:3
1 222:1 1224:4 1235:1 1264:4
1 222:1 1224:4 1235:1 1264:4
1 222:1 1224:3 1235:1 1264:3
1 222:1 1224:3 1235:1 1264:3
1 222:1 1224:3 1235:1 1264:3
1 222:1 1224:3 1235:1 1264:3
1 222:1 1224:4 1235:1 1264:4
1 222:1 1224:2 1235:1 1264:2
1 222:1 1224:4 1235:1 1264:4
1 222:1 1224:3 1235:1 1264:3
1 222:1 1224:4 1235:1 1264:4
1 222:1 1224:3 1235:1 1264:3
1 222:1 1224:4 1235:1 1264:4
1 222:1 1224:3 1235:1 1264:3
1 222:1 1224:3 1235:1 1264:3
1 222:1 1224:3 1235:1 1264:3
1 222:1 1224:3 1235:1 1264:3
1 222:1 1224:3 1235:1 1264:3
1 222:1 1224:4 1235:1 1264:4
1 222:1 1224:3 1235:1 1264:3
1 222:1 1224:3 1235:1 1264:3
1 222:1 1224:3 1235:1 1264:3
1 222:1 1224:3 1235:1 1264:3
1 222:1 1224:3 1235:1 1264:3
1 222:1 1224:3 1235:1 1264:3
1 222:1 1224:4 1235:1 1264:4
1 222:1 1224:3 1235:1 1264:3
1 222:1 1224:3 1235:1 1264:3
1 222:1 1224:3 1235:1 1264:3
1 222:1 1224:4 1235:1 1264:4
1 222:1 1224:3 1235:1 1264:3
1 222:1 1224:3 1235:1 1264:3
1 222:1 1224:5 1235:1 1264:5
1 598:1 605:1 625:1 1224:2 1226:1 1228:1 1245:1 1264:2
1 222:1 1224:3 1235:1 1264:3
1 157:1 226:1 418:1 524:1 598:1 748:1 1182:1 1216:1 1224:3 1226:1 1236:1 1237:1 1238:1 1243:1 1249:1 1264:3
1 222:1 1224:4 1235:1 1264:4
1 222:1 226:1 418:1 524:1 598:1 625:1 1182:1 1206:1 1216:1 1224:7 1226:1 1235:1 1236:1 1238:1 1245:1 1249:1 1260:1 1264:7
1 222:1 1224:3 1235:1 1264:3
1 222:1 1224:4 1235:1 1264:4
1 222:1 1224:3 1235:1 1264:3
1 222:1 1224:3 1235:1 1264:3
1 598:1 605:1 1224:2 1226:1 1228:1 1264:2
1 222:1 1224:3 1235:1 1264:3
1 222:1 1224:3 1235:1 1264:3
1 222:1 1224:4 1235:1 1264:4
1 222:1 1224:7 1235:1 1264:7
1 222:1 1224:3 1235:1 1264:3
1 157:1 226:1 418:1 524:1 598:1 748:1 1182:1 1216:1 1224:2 1226:1 1236:1 1237:1 1238:1 1243:1 1249:1 1264:2
1 222:1 1224:4 1235:1 1264:4
1 222:1 1224:3 1235:1 1264:3
1 222:1 1224:4 1235:1 1264:4
1 222:1 1224:3 1235:1 1264:3
1 222:1 1224:3 1235:1 1264:3
1 139:1 176:1 418:1 524:1 598:1 625:1 748:1 881:1 1182:1 1216:1 1224:4 1226:1 1229:1 1230:1 1237:1 1238:1 1245:1 1249:1 1252:1 1264:4
1 222:1 1224:3 1235:1 1264:3
1 222:1 1224:3 1235:1 1264:3
1 222:1 226:1 418:1 524:1 598:1 625:1 1182:1 1206:1 1216:1 1224:8 1226:1 1235:1 1236:1 1238:1 1245:1 1249:1 1260:1 1264:8
1 222:1 1224:4 1235:1 1264:4
1 222:1 1224:3 1235:1 1264:3
1 222:1 1224:3 1235:1 1264:3
1 222:1 1224:4 1235:1 1264:4
1 222:1 1224:3 1235:1 1264:3
1 222:1 1224:4 1235:1 1264:4
1 222:1 1224:4 1235:1 1264:4
1 222:1 1224:3 1235:1 1264:3
1 222:1 1224:3 1235:1 1264:3
1 222:1 1224:3 1235:1 1264:3
1 222:1 1224:4 1235:1 1264:4
1 222:1 1224:3 1235:1 1264:3
1 222:1 1224:3 1235:1 1264:3
1 222:1 1224:3 1235:1 1264:3
1 222:1 1224:3 1235:1 1264:3
1 222:1 1224:3 1235:1 1264:3
1 222:1 1224:4 1235:1 1264:4
1 222:1 226:1 418:1 524:1 598:1 625:1 1182:1 1206:1 1216:1 1224:6 1226:1 1235:1 1236:1 1238:1 1245:1 1249:1 1260:1 1264:6
1 222:1 1224:4 1235:1 1264:4
1 222:1 1224:4 1235:1 1264:4
1 222:1 1224:3 1235:1 1264:3
1 222:1 1224:3 1235:1 1264:3
1 222:1 1224:3 1235:1 1264:3
1 139:1 176:1 418:1 524:1 598:1 625:1 748:1 881:1 1182:1 1216:1 1224:4 1226:1 1229:1 1230:1 1237:1 1238:1 1245:1 1249:1 1252:1 1264:4
1 222:1 1224:6 1235:1 1264:6
1 222:1 1224:4 1235:1 1264:4
1 222:1 1224:3 1235:1 1264:3
1 222:1 1224:3 1235:1 1264:3
1 226:1 598:2 1182:1 1224:5 1226:2 1236:1 1249:1 1264:5
1 222:1 1224:3 1235:1 1264:3
1 222:1 1224:4 1235:1 1264:4
1 222:1 1224:3 1235:1 1264:3
1 222:1 1224:3 1235:1 1264:3
1 222:1 1224:3 1235:1 1264:3
1 222:1 1224:3 1235:1 1264:3
1 222:1 1224:3 1235:1 1264:3
1 222:1 1224:2 1235:1 1264:2
1 222:1 1224:3 1235:1 1264:3
1 222:1 1224:3 1235:1 1264:3
1 222:1 1224:3 1235:1 1264:3
1 222:1 1224:3 1235:1 1264:3
1 222:1 1224:4 1235:1 1264:4
1 222:1 1224:3 1235:1 1264:3
1 222:1 1224:4 1235:1 1264:4
1 222:1 1224:4 1235:1 1264:4
1 222:1 1224:4 1235:1 1264:4
1 598:1 605:1 1224:3 1226:1 1228:1 1264:3
1 222:1 1224:5 1235:1 1264:5
1 222:1 1224:2 1235:1 1264:2
1 222:1 1224:4 1235:1 1264:4
1 222:1 1224:3 1235:1 1264:3
1 222:1 1224:3 1235:1 1264:3
1 222:1 1224:3 1235:1 1264:3
1 222:1 1224:3 1235:1 1264:3
1 1224:4 1264:4
1 222:1 1224:4 1235:1 1264:4
1 222:1 1224:3 1235:1 1264:3
1 222:1 1224:3 1235:1 1264:3
1 222:1 1224:3 1235:1 1264:3
1 222:1 1224:3 1235:1 1264:3
1 222:1 1224:4 1235:1 1264:4
1 222:1 1224:4 1235:1 1264:4
1 222:1 1224:3 1235:1 1264:3
1 222:1 1224:4 1235:1 1264:4
1 222:1 1224:4 1235:1 1264:4
1 222:1 1224:4 1235:1 1264:4
1 222:1 1224:3 1235:1 1264:3
1 222:1 1224:4 1235:1 1264:4
1 222:1 1224:4 1235:1 1264:4
1 222:1 1224:3 1235:1 1264:3
1 222:1 1224:4 1235:1 1264:4
1 222:1 1224:4 1235:1 1264:4
1 222:1 1224:4 1235:1 1264:4
1 222:1 1224:3 1235:1 1264:3
1 222:1 1224:4 1235:1 1264:4
1 222:1 1224:4 1235:1 1264:4
1 174:1 598:1 1224:4 1226:1 1251:1 1264:4
1 222:1 1224:3 1235:1 1264:3
1 222:1 1224:4 1235:1 1264:4
1 598:1 605:1 625:1 1224:2 1226:1 1228:1 1245:1 1264:2
1 222:1 1224:5 1235:1 1264:5
1 598:1 605:1 1224:2 1226:1 1228:1 1264:2
1 222:1 1224:4 1235:1 1264:4
1 222:1 1224:3 1235:1 1264:3
1 222:1 1224:3 1235:1 1264:3
1 222:1 1224:3 1235:1 1264:3
1 222:1 226:1 418:1 598:1 1182:1 1224:4 1226:1 1235:1 1236:1 1238:1 1249:1 1264:4
1 222:1 1224:3 1235:1 1264:3
1 222:1 1224:4 1235:1 1264:4
1 222:1 1224:4 1235:1 1264:4
1 222:1 1224:3 1235:1 1264:3
1 222:1 1224:3 1235:1 1264:3
1 222:1 1224:2 1235:1 1264:2
1 222:1 1224:3 1235:1 1264:3
1 222:1 1224:4 1235:1 1264:4
1 222:1 1224:3 1235:1 1264:3
1 1224:4 1264:4
1 222:1 1224:3 1235:1 1264:3
1 222:1 1224:6 1235:1 1264:6
1 174:1 418:1 524:1 598:1 856:1 1216:1 1220:1 1224:2 1226:1 1238:1 1251:1 1264:2
1 222:1 1224:3 1235:1 1264:3
1 222:1 1224:3 1235:1 1264:3
1 222:1 1224:3 1235:1 1264:3
1 222:1 1224:3 1235:1 1264:3
1 222:1 1224:3 1235:1 1264:3
1 157:1 174:1 365:1 418:1 524:1 598:1 1182:1 1206:1 1216:1 1224:4 1226:1 1238:1 1243:1 1244:1 1249:1 1251:1 1260:1 1264:4
1 222:1 1224:4 1235:1 1264:4
1 222:1 1224:2 1235:1 1264:2
1 222:1 1224:3 1235:1 1264:3
1 222:1 1224:3 1235:1 1264:3
1 222:1 1224:4 1235:1 1264:4
1 222:1 1224:4 1235:1 1264:4
1 222:1 1224:2 1235:1 1264:2
1 222:1 1224:3 1235:1 1264:3
1 222:1 1224:3 1235:1 1264:3
1 222:1 1224:3 1235:1 1264:3
1 222:1 1224:3 1235:1 1264:3
1 222:1 1224:2 1235:1 1264:2
1 222:1 1224:3 1235:1 1264:3
1 157:1 226:1 418:1 524:1 598:1 748:1 1182:1 1206:1 1216:1 1224:2 1226:1 1236:1 1237:1 1238:1 1243:1 1249:1 1260:1 1264:2
1 222:1 1224:3 1235:1 1264:3
1 222:1 1224:3 1235:1 1264:3
1 222:1 1224:3 1235:1 1264:3
1 598:1 605:1 1224:2 1226:1 1228:1 1264:2
1 222:1 1224:3 1235:1 1264:3
1 222:1 1224:3 1235:1 1264:3
1 222:1 1224:4 1235:1 1264:4
1 157:1 226:1 418:1 524:1 598:1 748:1 1182:1 1216:1 1224:2 1226:1 1236:1 1237:1 1238:1 1243:1 1249:1 1264:2
1 222:1 1224:3 1235:1 1264:3
1 222:1 1224:4 1235:1 1264:4
1 222:1 1224:3 1235:1 1264:3
1 222:1 1224:3 1235:1 1264:3
1 222:1 1224:3 1235:1 1264:3
1 222:1 1224:3 1235:1 1264:3
1 222:1 1224:3 1235:1 1264:3
1 157:1 226:3 365:1 418:3 524:2 591:1 598:4 625:2 748:2 1182:3 1216:2 1222:1 1224:6 1226:4 1236:3 1237:2 1238:3 1243:1 1244:1 1245:2 1249:3 1264:6
1 222:1 1224:4 1235:1 1264:4
1 222:1 1224:4 1235:1 1264:4
1 222:1 1224:3 1235:1 1264:3
1 222:1 1224:3 1235:1 1264:3
1 222:1 1224:4 1235:1 1264:4
1 222:1 1224:2 1235:1 1264:2
1 222:1 1224:3 1235:1 1264:3
1 222:1 1224:3 1235:1 1264:3
1 222:1 1224:3 1235:1 1264:3
1 222:1 1224:3 1235:1 1264:3
1 222:1 1224:3 1235:1 1264:3
1 157:1 226:1 236:1 418:1 520:1 524:1 543:1 591:1 598:1 625:1 748:1 810:1 858:1 868:1 881:1 958:1 1182:1 1206:1 1214:1 1216:1 1221:1 1222:1 1223:1 1224:2 1226:1 1227:1 1229:1 1234:1 1236:1 1237:1 1238:1 1239:1 1241:1 1243:1 1245:1 1249:1 1260:1 1264:2
1 222:1 1224:3 1235:1 1264:3
1 222:1 1224:3 1235:1 1264:3
1 222:1 1224:4 1235:1 1264:4
1 222:1 1224:3 1235:1 1264:3
1 222:1 1224:4 1235:1 1264:4
1 222:1 1224:4 1235:1 1264:4
1 222:1 1224:3 1235:1 1264:3
1 222:1 1224:3 1235:1 1264:3
1 222:1 1224:3 1235:1 1264:3
1 157:1 418:1 524:1 598:1 1182:1 1216:1 1224:2 1226:1 1238:1 1243:1 1249:1 1264:2
1 222:1 1224:3 1235:1 1264:3
1 598:1 605:1 625:1 1224:2 1226:1 1228:1 1245:1 1264:2
1 157:1 226:1 418:1 524:1 598:1 748:1 1182:1 1216:1 1224:2 1226:1 1236:1 1237:1 1238:1 1243:1 1249:1 1264:2
1 222:1 1224:3 1235:1 1264:3
1 222:1 1224:5 1235:1 1264:5
1 222:1 1224:4 1235:1 1264:4
1 222:1 1224:4 1235:1 1264:4
1 222:1 1224:6 1235:1 1264:6
1 222:1 1224:3 1235:1 1264:3
1 222:1 1224:3 1235:1 1264:3
1 222:1 1224:4 1235:1 1264:4
1 222:1 1224:4 1235:1 1264:4
1 222:1 1224:4 1235:1 1264:4
1 222:1 1224:3 1235:1 1264:3
1 222:1 1224:3 1235:1 1264:3
1 222:1 1224:3 1235:1 1264:3
1 222:1 1224:3 1235:1 1264:3
1 222:1 1224:4 1235:1 1264:4
1 222:1 1224:3 1235:1 1264:3
1 222:1 1224:3 1235:1 1264:3
1 222:1 1224:3 1235:1 1264:3
1 222:1 1224:3 1235:1 1264:3
1 222:1 1224:3 1235:1 1264:3
1 222:1 1224:3 1235:1 1264:3
1 222:1 1224:3 1235:1 1264:3
1 1224:3 1264:3
1 222:1 1224:3 1235:1 1264:3
1 222:1 1224:4 1235:1 1264:4
1 222:1 1224:3 1235:1 1264:3
1 222:1 1224:3 1235:1 1264:3
1 222:1 1224:3 1235:1 1264:3
1 222:1 1224:4 1235:1 1264:4
1 222:1 1224:4 1235:1 1264:4
1 222:1 1224:3 1235:1 1264:3
1 222:1 1224:3 1235:1 1264:3
1 222:1 1224:3 1235:1 1264:3
1 222:1 226:1 418:1 524:1 598:1 625:1 1182:1 1206:1 1216:1 1224:7 1226:1 1235:1 1236:1 1238:1 1245:1 1249:1 1260:1 1264:7
1 222:1 1224:2 1235:1 1264:2
1 222:1 1224:3 1235:1 1264:3
1 222:1 1224:4 1235:1 1264:4
1 222:1 1224:3 1235:1 1264:3
1 222:1 1224:3 1235:1 1264:3
1 222:1 1224:3 1235:1 1264:3
1 222:1 1224:4 1235:1 1264:4
1 222:1 1224:3 1235:1 1264:3
1 222:1 1224:3 1235:1 1264:3
1 222:1 1224:4 1235:1 1264:4
1 222:1 1224:3 1235:1 1264:3
1 226:1 418:2 524:1 598:3 625:1 1182:2 1216:1 1224:6 1226:3 1236:1 1238:2 1245:1 1249:2 1264:6
1 222:1 1224:3 1235:1 1264:3
1 222:1 1224:4 1235:1 1264:4
1 222:1 1224:4 1235:1 1264:4
1 222:1 1224:3 1235:1 1264:3
1 222:1 1224:3 1235:1 1264:3
1 222:1 1224:5 1235:1 1264:5
1 222:1 1224:3 1235:1 1264:3
1 222:1 1224:3 1235:1 1264:3
1 222:1 1224:4 1235:1 1264:4
1 222:1 1224:3 1235:1 1264:3
1 222:1 1224:3 1235:1 1264:3
1 222:1 1224:3 1235:1 1264:3
1 222:1 1224:3 1235:1 1264:3
1 222:1 1224:4 1235:1 1264:4
1 222:1 1224:3 1235:1 1264:3
1 222:1 1224:4 1235:1 1264:4
1 157:1 226:1 418:1 524:1 598:1 748:1 1182:1 1206:1 1216:1 1224:5 1226:1 1236:1 1237:1 1238:1 1243:1 1249:1 1260:1 1264:5
1 222:1 1224:3 1235:1 1264:3
1 1224:3 1264:3
1 222:1 1224:3 1235:1 1264:3
1 222:1 1224:3 1235:1 1264:3
1 222:1 1224:2 1235:1 1264:2
1 222:1 1224:3 1235:1 1264:3
1 222:1 1224:3 1235:1 1264:3
1 157:1 226:1 418:1 524:1 598:1 748:1 1182:1 1206:1 1216:1 1224:2 1226:1 1236:1 1237:1 1238:1 1243:1 1249:1 1260:1 1264:2
1 222:1 1224:3 1235:1 1264:3
1 222:1 1224:3 1235:1 1264:3
1 222:1 1224:4 1235:1 1264:4
1 222:1 1224:3 1235:1 1264:3
1 222:1 1224:3 1235:1 1264:3
1 222:1 1224:3 1235:1 1264:3
1 222:1 1224:4 1235:1 1264:4
1 222:1 1224:3 1235:1 1264:3
1 222:1 1224:3 1235:1 1264:3
1 222:1 1224:4 1235:1 1264:4
1 222:1 1224:3 1235:1 1264:3
1 222:1 1224:3 1235:1 1264:3
1 222:1 1224:4 1235:1 1264:4
1 222:1 1224:3 1235:1 1264:3
1 222:1 1224:3 1235:1 1264:3
1 222:1 1224:3 1235:1 1264:3
1 222:1 1224:3 1235:1 1264:3
1 222:1 1224:5 1235:1 1264:5
1 222:1 1224:4 1235:1 1264:4
1 222:1 1224:5 1235:1 1264:5
1 222:1 1224:4 1235:1 1264:4
1 598:1 605:1 1224:2 1226:1 1228:1 1264:2
1 222:1 1224:4 1235:1 1264:4
1 222:1 1224:4 1235:1 1264:4
1 222:1 1224:4 1235:1 1264:4
1 222:1 1224:3 1235:1 1264:3
1 222:1 1224:3 1235:1 1264:3
1 222:1 1224:3 1235:1 1264:3
1 222:1 1224:3 1235:1 1264:3
1 222:1 1224:3 1235:1 1264:3
1 222:1 1224:4 1235:1 1264:4
1 222:1 1224:4 1235:1 1264:4
1 222:1 1224:3 1235:1 1264:3
1 222:1 1224:3 1235:1 1264:3
1 222:1 1224:3 1235:1 1264:3
1 157:1 226:1 418:2 524:1 598:4 625:3 748:1 1182:2 1206:1 1208:1 1216:1 1224:7 1226:4 1236:1 1237:1 1238:2 1243:1 1245:3 1249:2 1260:1 1261:1 1264:7
1 222:1 1224:3 1235:1 1264:3
1 222:1 1224:3 1235:1 1264:3
1 222:1 1224:3 1235:1 1264:3
1 222:1 1224:4 1235:1 1264:4
1 222:1 1224:3 1235:1 1264:3
1 222:1 1224:4 1235:1 1264:4
1 222:1 1224:3 1235:1 1264:3
1 157:1 226:1 236:1 418:1 520:1 524:1 543:1 591:1 598:1 625:1 748:1 810:1 858:1 868:1 881:1 958:1 1182:1 1206:1 1214:1 1216:1 1221:1 1222:1 1223:1 1224:3 1226:1 1227:1 1229:1 1234:1 1236:1 1237:1 1238:1 1239:1 1241:1 1243:1 1245:1 1249:1 1260:1 1264:3
1 222:1 1224:4 1235:1 1264:4
1 222:1 1224:4 1235:1 1264:4
1 222:1 1224:3 1235:1 1264:3
1 222:1 1224:3 1235:1 1264:3
1 222:1 1224:3 1235:1 1264:3
1 222:1 1224:3 1235:1 1264:3
1 222:1 1224:3 1235:1 1264:3
1 222:1 1224:4 1235:1 1264:4
1 222:1 1224:4 1235:1 1264:4
1 222:1 1224:3 1235:1 1264:3
1 222:1 1224:3 1235:1 1264:3
1 222:1 1224:4 1235:1 1264:4
1 222:1 1224:4 1235:1 1264:4
1 222:1 1224:5 1235:1 1264:5
1 222:1 1224:3 1235:1 1264:3
1 222:1 1224:3 1235:1 1264:3
1 222:1 1224:3 1235:1 1264:3
1 222:1 1224:3 1235:1 1264:3
1 222:1 1224:3 1235:1 1264:3
1 222:1 1224:3 1235:1 1264:3
1 222:1 1224:4 1235:1 1264:4
1 222:1 1224:4 1235:1 1264:4
1 222:1 1224:5 1235:1 1264:5
1 222:1 1224:3 1235:1 1264:3
1 222:1 1224:3 1235:1 1264:3
1 157:1 226:1 418:1 524:1 598:1 748:1 1182:1 1216:1 1224:3 1226:1 1236:1 1237:1 1238:1 1243:1 1249:1 1264:3
1 222:1 1224:3 1235:1 1264:3
1 222:1 1224:4 1235:1 1264:4
1 226:1 491:1 598:2 1224:7 1226:2 1236:1 1247:1 1264:7
1 222:1 1224:3 1235:1 1264:3
1 222:1 1224:3 1235:1 1264:3
1 222:1 1224:4 1235:1 1264:4
1 222:1 1224:3 1235:1 1264:3
1 222:1 1224:3 1235:1 1264:3
1 222:1 1224:3 1235:1 1264:3
1 222:1 1224:3 1235:1 1264:3
1 222:1 1224:3 1235:1 1264:3
1 222:1 1224:3 1235:1 1264:3
1 222:1 1224:4 1235:1 1264:4
1 222:1 1224:3 1235:1 1264:3
1 222:1 1224:3 1235:1 1264:3
1 222:1 1224:4 1235:1 1264:4
1 222:1 1224:3 1235:1 1264:3
1 222:1 1224:3 1235:1 1264:3
1 222:1 1224:3 1235:1 1264:3
1 222:1 1224:3 1235:1 1264:3
1 222:1 1224:4 1235:1 1264:4
1 222:1 1224:3 1235:1 1264:3
1 222:1 1224:4 1235:1 1264:4
1 222:1 1224:3 1235:1 1264:3
1 222:1 1224:3 1235:1 1264:3
1 222:1 1224:3 1235:1 1264:3
1 222:1 1224:3 1235:1 1264:3
1 222:1 1224:3 1235:1 1264:3
1 222:1 1224:3 1235:1 1264:3
1 222:1 1224:3 1235:1 1264:3
1 222:1 1224:3 1235:1 1264:3
1 222:1 1224:3 1235:1 1264:3
1 222:1 1224:2 1235:1 1264:2
1 222:1 1224:2 1235:1 1264:2
1 222:1 1224:3 1235:1 1264:3
1 222:1 1224:3 1235:1 1264:3
1 222:1 1224:5 1235:1 1264:5
1 222:1 1224:3 1235:1 1264:3
1 222:1 1224:3 1235:1 1264:3
1 222:1 1224:3 1235:1 1264:3
1 222:1 1224:3 1235:1 1264:3
1 222:1 1224:3 1235:1 1264:3
1 222:1 1224:3 1235:1 1264:3
1 157:1 226:1 418:1 524:1 598:1 748:1 1182:1 1216:1 1224:3 1226:1 1236:1 1237:1 1238:1 1243:1 1249:1 1264:3
1 222:1 1224:3 1235:1 1264:3
1 222:1 226:1 418:1 524:1 598:1 625:1 1182:1 1206:1 1216:1 1224:6 1226:1 1235:1 1236:1 1238:1 1245:1 1249:1 1260:1 1264:6
1 1224:3 1264:3
1 222:1 1224:4 1235:1 1264:4
1 222:1 1224:3 1235:1 1264:3
1 222:1 1224:4 1235:1 1264:4
1 222:1 1224:3 1235:1 1264:3
1 222:1 1224:3 1235:1 1264:3
1 222:1 1224:3 1235:1 1264:3
1 157:1 418:2 524:1 598:4 625:3 748:1 868:1 1182:2 1206:1 1216:1 1223:1 1224:7 1226:4 1237:1 1238:2 1243:1 1245:3 1249:2 1260:1 1264:7
1 222:1 1224:4 1235:1 1264:4
1 157:1 226:1 418:1 524:1 598:1 748:1 1182:1 1216:1 1224:4 1226:1 1236:1 1237:1 1238:1 1243:1 1249:1 1264:4
1 222:1 1224:3 1235:1 1264:3
1 222:1 1224:3 1235:1 1264:3
1 222:1 1224:4 1235:1 1264:4
1 222:1 1224:3 1235:1 1264:3
1 222:1 1224:3 1235:1 1264:3
1 222:1 1224:3 1235:1 1264:3
1 222:1 1224:4 1235:1 1264:4
1 222:1 1224:3 1235:1 1264:3
1 222:1 1224:3 1235:1 1264:3
1 222:1 1224:3 1235:1 1264:3
1 222:1 1224:3 1235:1 1264:3
1 222:1 1224:3 1235:1 1264:3
1 222:1 1224:3 1235:1 1264:3
1 222:1 1224:3 1235:1 1264:3
1 222:1 1224:4 1235:1 1264:4
1 222:1 1224:3 1235:1 1264:3
1 222:1 1224:4 1235:1 1264:4
1 222:1 1224:2 1235:1 1264:2
1 157:1 226:1 236:1 418:1 520:1 524:1 543:1 591:1 598:1 625:1 748:1 810:1 858:1 868:1 881:1 958:1 1182:1 1206:1 1214:1 1216:1 1221:1 1222:1 1223:1 1224:5 1226:1 1227:1 1229:1 1234:1 1236:1 1237:1 1238:1 1239:1 1241:1 1243:1 1245:1 1249:1 1260:1 1264:5
1 222:1 1224:3 1235:1 1264:3
1 222:1 1224:4 1235:1 1264:4
1 1224:3 1264:3
1 222:1 1224:3 1235:1 1264:3
1 222:1 1224:3 1235:1 1264:3
1 391:1 563:1 598:1 789:1 990:1 1128:1 1129:1 1215:1 1217:1 1224:3 1226:1 1242:1 1255:1 1256:1 1262:1 1264:3
1 222:1 1224:5 1235:1 1264:5
1 1224:4 1264:4
1 222:1 1224:3 1235:1 1264:3
1 222:1 1224:3 1235:1 1264:3
1 222:1 1224:3 1235:1 1264:3
1 222:1 1224:2 1235:1 1264:2
1 222:1 1224:3 1235:1 1264:3
1 222:1 1224:3 1235:1 1264:3
1 222:1 1224:4 1235:1 1264:4
1 222:1 1224:3 1235:1 1264:3
1 222:1 1224:3 1235:1 1264:3
1 222:1 1224:3 1235:1 1264:3
1 1224:2 1264:2
1 157:1 226:1 236:1 418:1 520:1 524:1 543:1 591:1 598:1 625:1 748:1 810:1 858:1 868:1 881:1 958:1 1182:1 1206:1 1214:1 1216:1 1221:1 1222:1 1223:1 1224:1 1226:1 1227:1 1229:1 1234:1 1236:1 1237:1 1238:1 1239:1 1241:1 1243:1 1245:1 1249:1 1260:1 1264:1
1 222:1 1224:3 1235:1 1264:3
1 222:1 1224:3 1235:1 1264:3
1 222:1 1224:3 1235:1 1264:3
1 222:1 1224:4 1235:1 1264:4
1 222:1 1224:4 1235:1 1264:4
1 222:1 1224:3 1235:1 1264:3
1 222:1 1224:4 1235:1 1264:4
1 222:1 1224:3 1235:1 1264:3
1 222:1 1224:3 1235:1 1264:3
1 222:1 1224:3 1235:1 1264:3
1 222:1 1224:2 1235:1 1264:2
1 222:1 1224:4 1235:1 1264:4
1 157:1 226:1 236:1 418:1 520:1 524:1 543:1 591:1 598:1 625:1 748:1 810:1 858:1 868:1 881:1 958:1 1182:1 1206:1 1214:1 1216:1 1221:1 1222:1 1223:1 1224:2 1226:1 1227:1 1229:1 1234:1 1236:1 1237:1 1238:1 1239:1 1241:1 1243:1 1245:1 1249:1 1260:1 1264:2
1 222:1 1224:3 1235:1 1264:3
1 222:1 1224:4 1235:1 1264:4
1 222:1 1224:4 1235:1 1264:4
1 222:1 1224:3 1235:1 1264:3
1 222:1 1224:3 1235:1 1264:3
1 222:1 1224:3 1235:1 1264:3
1 222:1 1224:3 1235:1 1264:3
1 222:1 1224:3 1235:1 1264:3
1 222:1 1224:5 1235:1 1264:5
1 222:1 1224:3 1235:1 1264:3
1 222:1 1224:3 1235:1 1264:3
1 222:1 1224:3 1235:1 1264:3
1 598:1 605:1 1224:2 1226:1 1228:1 1264:2
1 222:1 1224:4 1235:1 1264:4
1 222:1 1224:4 1235:1 1264:4
1 222:1 226:1 418:1 524:1 598:1 625:1 1182:1 1206:1 1216:1 1224:7 1226:1 1235:1 1236:1 1238:1 1245:1 1249:1 1260:1 1264:7
1 222:1 1224:3 1235:1 1264:3
1 222:1 1224:3 1235:1 1264:3
1 222:1 1224:3 1235:1 1264:3
1 222:1 1224:4 1235:1 1264:4
1 222:1 1224:4 1235:1 1264:4
1 222:1 1224:3 1235:1 1264:3
1 222:1 1224:3 1235:1 1264:3
1 222:1 1224:4 1235:1 1264:4
1 222:1 1224:4 1235:1 1264:4
1 222:1 1224:4 1235:1 1264:4
1 222:1 1224:3 1235:1 1264:3
1 222:1 1224:3 1235:1 1264:3
1 1224:2 1264:2
1 222:1 1224:3 1235:1 1264:3
1 222:1 1224:3 1235:1 1264:3
1 222:1 1224:4 1235:1 1264:4
1 222:1 1224:3 1235:1 1264:3
1 222:1 1224:3 1235:1 1264:3
1 222:1 1224:2 1235:1 1264:2
1 222:1 1224:3 1235:1 1264:3
1 222:1 1224:5 1235:1 1264:5
1 222:1 1224:3 1235:1 1264:3
1 222:1 1224:4 1235:1 1264:4
1 222:1 1224:3 1235:1 1264:3
1 222:1 1224:3 1235:1 1264:3
1 222:1 1224:4 1235:1 1264:4
1 222:1 1224:3 1235:1 1264:3
1 222:1 1224:3 1235:1 1264:3
1 222:1 1224:3 1235:1 1264:3
1 222:1 1224:3 1235:1 1264:3
1 222:1 1224:4 1235:1 1264:4
1 1224:3 1264:3
1 222:1 1224:4 1235:1 1264:4
1 222:1 1224:4 1235:1 1264:4
1 598:1 605:1 625:1 1224:2 1226:1 1228:1 1245:1 1264:2
1 222:1 1224:3 1235:1 1264:3
1 222:1 1224:3 1235:1 1264:3
1 222:1 1224:3 1235:1 1264:3
1 222:1 1224:3 1235:1 1264:3
1 222:1 1224:3 1235:1 1264:3
1 222:1 1224:3 1235:1 1264:3
1 222:1 1224:3 1235:1 1264:3
1 157:1 226:1 418:1 524:1 598:1 748:1 1182:1 1216:1 1224:3 1226:1 1236:1 1237:1 1238:1 1243:1 1249:1 1264:3
1 222:1 1224:3 1235:1 1264:3
1 598:1 605:1 1224:2 1226:1 1228:1 1264:2
1 222:1 1224:3 1235:1 1264:3
1 222:1 1224:3 1235:1 1264:3
1 222:1 1224:3 1235:1 1264:3
1 222:1 1224:3 1235:1 1264:3
1 157:1 226:1 236:1 418:1 520:1 524:1 543:1 591:1 598:1 625:1 748:1 810:1 858:1 868:1 881:1 958:1 1182:1 1206:1 1214:1 1216:1 1221:1 1222:1 1223:1 1224:2 1226:1 1227:1 1229:1 1234:1 1236:1 1237:1 1238:1 1239:1 1241:1 1243:1 1245:1 1249:1 1260:1 1264:2
1 222:1 1224:3 1235:1 1264:3
1 222:1 1224:5 1235:1 1264:5
1 222:1 1224:4 1235:1 1264:4
1 222:1 1224:5 1235:1 1264:5
1 222:1 1224:3 1235:1 1264:3
1 222:1 1224:3 1235:1 1264:3
1 222:1 1224:3 1235:1 1264:3
1 222:1 1224:4 1235:1 1264:4
1 222:1 1224:3 1235:1 1264:3
1 222:1 1224:4 1235:1 1264:4
1 222:1 1224:3 1235:1 1264:3
1 222:1 1224:3 1235:1 1264:3
1 222:1 1224:3 1235:1 1264:3
1 222:1 1224:3 1235:1 1264:3
1 1224:2 1264:2
1 222:1 1224:3 1235:1 1264:3
1 222:1 1224:3 1235:1 1264:3
1 222:1 1224:3 1235:1 1264:3
-1 598:1 1050:1 1224:1 1226:1 1264:1
-1 598:1 1050:1 1224:1 1226:1 1264:1
-1 598:1 1050:1 1224:1 1226:1 1264:1
-1 598:1 1050:1 1224:1 1226:1 1264:1
-1 598:1 1050:1 1224:1 1226:1 1264:1
-1 598:1 1050:1 1224:1 1226:1 1264:1
-1 598:1 1050:1 1224:1 1226:1 1264:1
-1 598:1 1050:1 1224:1 1226:1 1264:1
-1 598:1 1050:1 1224:1 1226:1 1264:1
-1 174:1 226:1 418:1 520:1 524:1 598:1 791:1 856:1 1182:1 1214:1 1216:1 1218:1 1220:1 1224:2 1226:1 1236:1 1238:1 1249:1 1251:1 1264:2
-1 598:1 1050:1 1224:1 1226:1 1264:1
-1 598:1 1050:1 1224:1 1226:1 1264:1
-1 598:1 1050:1 1224:1 1226:1 1264:1
-1 260:1 418:1 524:1 598:1 1050:1 1216:1 1224:1 1226:1 1238:1 1264:1
-1 598:1 1050:1 1224:1 1226:1 1264:1
-1 598:1 1050:1 1224:1 1226:1 1264:1
-1 398:1 598:1 1050:1 1224:1 1226:1 1264:1
-1 598:1 1050:1 1224:1 1226:1 1264:1
-1 598:1 1050:1 1224:1 1226:1 1264:1
-1 598:1 1050:1 1224:1 1226:1 1264:1
-1 598:1 1050:1 1224:1 1226:1 1264:1
-1 598:1 1050:1 1224:1 1226:1 1264:1
-1 398:1 598:1 893:1 1050:1 1224:1 1226:1 1264:1
-1 398:1 598:1 893:1 1050:1 1224:1 1226:1 1264:1
-1 398:1 598:1 1050:1 1224:1 1226:1 1264:1
-1 598:1 1050:1 1224:1 1226:1 1264:1
-1 157:1 226:1 260:1 418:1 524:1 574:1 598:1 771:1 1182:1 1190:1 1216:1 1224:2 1226:1 1236:1 1238:1 1243:1 1248:1 1249:1 1264:2
-1 130:1 598:1 1050:1 1224:2 1226:1 1264:2
-1 171:1 260:1 278:1 371:1 591:1 594:1 598:1 1074:1 1190:1 1222:1 1224:1 1226:1 1264:1 1266:1
-1 174:1 226:1 418:1 598:1 748:1 1182:1 1224:3 1226:1 1236:1 1237:1 1238:1 1249:1 1251:1 1264:3
-1 418:1 598:1 625:1 1224:4 1226:1 1238:1 1245:1 1264:4
-1 174:1 418:1 598:1 625:1 1182:1 1224:2 1226:1 1238:1 1245:1 1249:1 1251:1 1264:2
-1 157:1 174:1 226:1 418:1 524:1 598:1 625:1 748:1 868:1 958:1 1182:1 1216:1 1223:1 1224:3 1226:1 1236:1 1237:1 1238:1 1239:1 1243:1 1245:1 1249:1 1251:1 1264:3
-1 157:1 174:1 226:1 418:1 598:1 625:1 748:1 868:1 1182:1 1223:1 1224:4 1226:1 1236:1 1237:1 1238:1 1243:1 1245:1 1249:1 1251:1 1264:4
-1 222:1 1224:3 1235:1 1264:3
-1 222:1 1224:3 1235:1 1264:3
-1 226:1 245:1 368:1 418:1 524:1 569:1 598:1 621:1 625:1 748:1 810:1 811:1 897:1 1182:1 1216:1 1224:1 1226:1 1234:1 1236:1 1237:1 1238:1 1245:1 1249:1 1264:1
-1 222:1 1224:3 1235:1 1264:3
-1 418:1 524:1 598:1 868:1 920:1 1182:1 1196:1 1206:1 1216:1 1223:1 1224:2 1226:1 1238:1 1249:1 1258:1 1260:1 1264:2
-1 157:1 174:1 226:1 418:1 524:1 598:1 625:1 748:1 868:1 920:1 958:1 1182:1 1216:1 1223:1 1224:1 1226:1 1236:1 1237:1 1238:1 1239:1 1243:1 1245:1 1249:1 1251:1 1258:1 1264:1
-1 157:1 317:1 418:1 524:1 598:1 748:1 868:1 1206:1 1216:1 1223:1 1224:2 1226:1 1237:1 1238:1 1243:1 1260:1 1264:2
-1 157:1 226:1 343:1 418:1 524:1 598:1 625:1 659:1 748:1 868:1 891:1 1182:1 1216:1 1223:1 1224:2 1226:1 1236:1 1237:1 1238:1 1243:1 1245:1 1249:1 1264:2
-1 1224:1 1264:1
-1 153:1 174:1 279:1 377:1 461:1 465:1 467:1 551:1 657:1 673:1 678:1 684:1 718:1 775:1 798:1 847:1 976:1 1099:1 1197:1 1224:1 1251:1 1264:1 1266:3
-1 598:1 1224:3 1226:1 1264:3
-1 157:1 418:2 524:1 591:1 598:4 625:2 868:1 1182:2 1216:1 1222:1 1223:1 1224:6 1226:4 1238:2 1243:1 1245:2 1249:2 1264:6
-1 157:1 226:2 418:2 524:1 598:4 625:2 1182:2 1206:1 1216:1 1224:6 1226:4 1236:2 1238:2 1243:1 1245:2 1249:2 1260:1 1264:6
-1 174:2 591:1 598:1 1222:1 1224:2 1226:1 1251:2 1264:2
-1 226:1 418:1 598:1 621:1 897:1 1182:1 1224:1 1226:1 1236:1 1238:1 1249:1 1264:1
-1 153:1 174:1 279:1 296:1 377:1 461:1 467:1 551:1 614:1 626:1 657:1 673:1 678:1 684:1 718:1 775:1 794:1 798:1 959:1 973:1 976:1 1099:1 1197:1 1224:2 1251:1 1264:2
-1 552:1 598:1 621:1 1224:1 1226:1 1264:1
-1 222:1 1224:2 1235:1 1264:2
-1 174:1 253:1 418:1 598:1 1224:2 1226:1 1238:1 1251:1 1264:2
-1 174:2 226:1 418:1 524:1 598:1 791:1 1182:1 1185:1 1216:1 1218:1 1224:2 1226:1 1236:1 1238:1 1249:1 1251:2 1264:2
-1 222:1 1224:2 1235:1 1264:2
-1 222:1 1224:2 1235:1 1264:2
-1 222:1 1224:2 1235:1 1264:2
-1 174:1 381:1 418:1 524:1 598:1 868:1 1216:1 1223:1 1224:2 1226:1 1238:1 1251:1 1264:2
-1 174:1 418:1 598:1 1224:5 1226:1 1238:1 1251:1 1264:5
-1 157:1 226:1 418:1 524:1 598:1 625:1 738:1 748:1 838:1 850:1 868:1 920:1 1182:1 1206:1 1216:1 1223:1 1224:1 1226:1 1236:1 1237:1 1238:1 1243:1 1245:1 1249:1 1258:1 1260:1 1264:1
-1 174:1 598:1 1224:2 1226:1 1251:1 1264:2
-1 157:1 226:1 418:1 524:1 574:1 598:1 625:1 738:1 791:1 810:1 868:1 1182:1 1206:1 1216:1 1218:1 1223:1 1224:1 1226:1 1234:1 1236:1 1238:1 1243:1 1245:1 1248:1 1249:1 1260:1 1264:1
-1 454:1 1219:1 1224:1 1264:1
-1 174:1 598:1 1224:4 1226:1 1251:1 1264:4
-1 174:1 418:1 598:1 1224:4 1226:1 1238:1 1251:1 1264:4
-1 119:1 223:1 226:1 246:1 368:1 418:1 574:1 598:1 621:1 625:1 705:1 748:1 791:1 881:1 897:1 958:1 1182:1 1218:1 1224:1 1226:1 1229:1 1236:1 1237:1 1238:1 1239:1 1245:1 1248:1 1249:1 1259:1 1264:1
-1 174:1 226:1 418:1 524:1 598:1 625:1 748:1 856:1 1216:1 1220:1 1224:2 1226:1 1236:1 1237:1 1238:1 1245:1 1251:1 1264:2
-1 222:1 1224:3 1235:1 1264:3
-1 418:1 524:1 598:1 625:1 748:1 838:1 850:1 868:1 1182:1 1216:1 1223:1 1224:1 1226:1 1237:1 1238:1 1245:1 1249:1 1264:1
-1 157:1 418:2 598:2 625:1 1182:2 1224:7 1226:2 1238:2 1243:1 1245:1 1249:2 1264:7
-1 157:1 174:2 226:1 418:1 524:1 598:1 791:1 868:1 1182:1 1216:1 1218:1 1223:1 1224:5 1226:1 1236:1 1238:1 1243:1 1249:1 1251:2 1264:5
-1 222:1 1224:3 1235:1 1264:3
-1 222:1 1224:2 1235:1 1264:2
-1 226:1 418:1 524:1 598:1 625:1 705:1 748:1 1182:1 1206:1 1216:1 1224:2 1226:1 1236:1 1237:1 1238:1 1245:1 1249:1 1259:1 1260:1 1264:2
-1 174:1 226:1 331:1 598:1 625:1 748:1 838:1 965:1 1182:1 1206:1 1224:1 1226:1 1236:1 1237:1 1245:1 1249:1 1251:1 1260:1 1264:1
-1 226:1 398:1 418:1 598:1 705:1 748:1 893:1 1182:1 1224:1 1226:1 1236:1 1237:1 1238:1 1249:1 1259:1 1264:1
-1 222:1 1224:4 1235:1 1264:4
-1 222:1 1224:3 1235:1 1264:3
-1 157:1 226:1 418:1 524:1 598:1 625:1 748:1 868:1 1182:1 1216:1 1223:1 1224:1 1226:1 1236:1 1237:1 1238:1 1243:1 1245:1 1249:1 1264:1 1266:1
-1 418:1 574:1 598:1 1224:1 1226:1 1238:1 1248:1 1264:1
-1 454:1 1219:1 1224:1 1264:1
-1 139:1 174:1 222:1 574:1 598:1 625:1 748:1 1182:1 1224:3 1226:1 1230:1 1235:1 1237:1 1245:1 1248:1 1249:1 1251:1 1264:3 1266:4
-1 157:1 226:1 418:1 524:1 598:1 625:1 832:1 868:1 1182:1 1216:1 1223:1 1224:11 1226:1 1236:1 1238:1 1243:1 1245:1 1249:1 1264:11
-1 222:1 1224:3 1235:1 1264:3
-1 222:1 1224:2 1235:1 1264:2
-1 226:1 418:1 524:1 591:1 598:1 625:1 748:1 791:1 1182:1 1188:1 1216:1 1218:1 1222:1 1224:2 1226:1 1236:1 1237:1 1238:1 1245:1 1249:1 1264:2
-1 226:1 418:1 524:1 598:1 748:1 1182:1 1216:1 1224:2 1226:1 1236:1 1237:1 1238:1 1249:1 1264:2
-1 157:1 174:1 226:1 236:1 418:3 524:1 591:1 598:4 625:3 748:1 1182:2 1206:1 1208:1 1216:1 1222:1 1224:5 1226:4 1236:1 1237:1 1238:3 1241:1 1243:1 1245:3 1249:2 1251:1 1260:1 1261:1 1264:5
-1 157:1 174:1 226:1 236:1 418:3 524:1 598:4 625:3 748:1 1182:2 1206:1 1208:1 1216:1 1224:5 1226:4 1236:1 1237:1 1238:3 1241:1 1243:1 1245:3 1249:2 1251:1 1260:1 1261:1 1264:5
-1 222:1 1224:3 1235:1 1264:3
-1 222:1 1224:3 1235:1 1264:3
-1 153:1 174:1 279:1 361:1 377:1 411:1 460:1 465:1 467:1 544:1 614:1 657:1 673:1 678:1 684:1 764:1 794:1 807:1 951:1 1103:1 1197:1 1224:1 1251:1 1264:1
-1 157:1 226:1 418:1 524:1 574:1 598:1 625:1 748:1 868:1 881:1 891:1 1182:1 1216:1 1223:1 1224:2 1226:1 1229:1 1236:1 1237:1 1238:1 1243:1 1245:1 1248:1 1249:1 1264:2
-1 157:1 226:1 236:1 418:1 524:1 598:1 748:1 868:1 895:1 1182:1 1216:1 1223:1 1224:2 1226:1 1236:1 1237:1 1238:1 1241:1 1243:1 1249:1 1264:2
-1 222:1 1224:3 1235:1 1264:3
-1 174:1 236:1 598:1 1224:6 1226:1 1241:1 1251:1 1264:6
-1 591:1 598:1 1222:1 1224:2 1226:1 1264:2
-1 174:1 418:1 598:1 856:1 902:1 1220:1 1224:2 1226:1 1238:1 1251:1 1264:2
-1 291:1 591:1 598:1 1172:1 1222:1 1224:3 1226:1 1264:3
-1 226:1 418:1 524:1 574:1 591:1 598:1 605:1 625:1 748:1 868:1 1182:1 1216:1 1222:1 1223:1 1224:1 1226:1 1228:1 1236:1 1237:1 1238:1 1245:1 1248:1 1249:1 1264:1
-1 130:1 179:1 192:1 260:1 352:1 552:1 598:1 609:1 698:1 762:1 777:1 1183:1 1190:1 1224:2 1226:1 1264:2
-1 157:1 226:1 418:1 524:1 574:1 591:1 598:1 625:1 748:1 868:1 881:1 891:1 1182:1 1206:1 1216:1 1222:1 1223:1 1224:1 1226:1 1229:1 1236:1 1237:1 1238:1 1243:1 1245:1 1248:1 1249:1 1260:1 1264:1
-1 598:1 1224:2 1226:1 1264:2
-1 1224:4 1264:4
-1 598:1 1182:1 1224:3 1226:1 1249:1 1264:3
-1 418:1 598:1 625:1 748:1 1224:3 1226:1 1237:1 1238:1 1245:1 1264:3
-1 157:1 226:1 418:1 524:1 598:1 725:1 748:1 1152:1 1182:1 1216:1 1224:3 1225:1 1226:1 1236:1 1237:1 1238:1 1243:1 1249:1 1264:3
-1 153:1 174:1 193:1 279:1 377:1 461:1 467:1 544:1 657:1 673:1 678:1 684:1 718:1 775:1 798:1 959:1 976:1 982:1 1057:1 1099:1 1197:1 1224:1 1251:1 1264:1
-1 139:1 145:1 153:1 174:1 279:1 344:1 377:1 460:1 467:1 544:1 657:1 673:1 678:1 684:1 794:1 797:1 1167:1 1224:3 1230:1 1251:1 1264:3
-1 134:1 139:1 145:1 153:1 174:1 279:1 344:1 377:1 460:1 467:1 525:1 544:1 657:1 673:1 678:1 684:1 707:1 718:1 738:1 794:1 826:1 858:1 973:1 976:1 1017:1 1130:1 1167:1 1221:1 1224:2 1230:1 1251:1 1264:2
-1 139:1 174:1 598:1 1182:1 1224:1 1226:1 1230:1 1249:1 1251:1 1264:1
-1 157:1 418:1 524:1 574:1 598:1 625:1 748:1 868:1 891:1 1182:1 1216:1 1223:1 1224:1 1226:1 1237:1 1238:1 1243:1 1245:1 1248:1 1249:1 1264:1
-1 222:1 418:1 598:1 625:1 792:1 1182:1 1224:1 1226:1 1235:1 1238:1 1245:1 1249:1 1264:1
-1 153:1 174:1 279:1 377:1 425:1 467:1 551:1 657:1 673:1 678:1 684:1 718:1 775:1 1099:1 1224:2 1251:1 1264:2
-1 226:1 297:1 371:1 418:1 448:1 520:1 522:1 524:1 574:1 591:1 598:1 625:1 748:1 881:1 919:1 1114:1 1182:1 1206:1 1208:1 1214:1 1216:1 1222:1 1224:2 1226:1 1229:1 1236:1 1237:1 1238:1 1245:1 1248:1 1249:1 1260:1 1261:1 1264:2 1266:919
-1 174:1 226:1 598:1 625:1 748:1 838:1 1182:1 1224:1 1226:1 1236:1 1237:1 1245:1 1249:1 1251:1 1264:1
-1 139:1 153:1 216:1 271:1 293:1 377:1 418:1 467:1 598:1 625:1 657:1 673:1 678:1 718:1 741:1 748:1 959:1 976:1 990:1 1099:1 1182:1 1224:2 1226:1 1230:1 1237:1 1238:1 1245:1 1249:1 1262:1 1264:2
-1 213:1 247:1 271:1 418:1 598:1 625:1 741:1 748:1 858:1 881:1 920:1 990:1 1147:1 1152:1 1182:1 1221:1 1224:1 1225:1 1226:1 1229:1 1237:1 1238:1 1245:1 1249:1 1258:1 1262:1 1264:1
-1 598:1 748:1 1182:1 1224:1 1226:1 1237:1 1249:1 1264:1
-1 271:1 598:1 741:1 748:1 990:1 1182:1 1224:1 1226:1 1237:1 1249:1 1262:1 1264:1
-1 284:1 598:1 738:1 748:1 858:1 1182:1 1221:1 1224:1 1226:1 1237:1 1249:1 1264:1
-1 271:1 418:1 598:1 741:1 810:1 990:1 1182:1 1224:1 1226:1 1234:1 1238:1 1249:1 1262:1 1264:1
-1 226:1 271:1 418:1 598:1 738:1 741:1 748:1 858:1 990:1 1182:1 1221:1 1224:1 1226:1 1236:1 1237:1 1238:1 1249:1 1262:1 1264:1
-1 222:1 1224:3 1235:1 1264:3
-1 157:1 226:1 365:1 418:1 574:1 598:1 625:1 738:1 1182:1 1206:1 1224:1 1226:1 1236:1 1238:1 1243:1 1244:1 1245:1 1248:1 1249:1 1260:1 1264:1 1266:3
-1 598:1 1224:3 1226:1 1264:3
-1 157:1 418:2 598:2 625:1 1182:2 1224:7 1226:2 1238:2 1243:1 1245:1 1249:2 1264:7
-1 139:1 591:1 598:1 791:1 1182:1 1218:1 1222:1 1224:4 1226:1 1230:1 1249:1 1264:4
-1 174:1 226:1 418:1 598:1 1182:1 1224:3 1226:1 1236:1 1238:1 1249:1 1251:1 1264:3
-1 174:1 226:1 418:1 598:1 1182:1 1224:3 1226:1 1236:1 1238:1 1249:1 1251:1 1264:3
-1 157:1 226:2 236:1 418:2 524:1 591:1 598:5 625:3 658:1 748:2 868:1 1104:1 1182:2 1206:1 1216:1 1222:1 1223:1 1224:6 1226:5 1236:2 1237:2 1238:2 1241:1 1243:1 1245:3 1249:2 1260:1 1264:6
-1 174:2 268:1 278:1 594:1 598:1 820:1 1043:1 1078:1 1224:3 1226:1 1251:2 1264:3
-1 139:1 153:1 174:1 344:1 377:1 467:1 520:1 651:1 657:1 673:1 678:1 684:1 775:1 791:1 973:1 1052:1 1197:1 1214:1 1218:1 1224:2 1230:1 1251:1 1264:2
-1 598:1 1224:2 1226:1 1264:2
-1 157:1 418:2 524:1 598:3 625:1 748:1 1182:2 1216:1 1224:6 1226:3 1237:1 1238:2 1243:1 1245:1 1249:2 1264:6
-1 222:1 1224:3 1235:1 1264:3
-1 222:1 1224:3 1235:1 1264:3
-1 260:1 262:1 598:1 1190:1 1224:2 1226:1 1264:2
-1 174:1 418:1 598:1 1224:5 1226:1 1238:1 1251:1 1264:5
-1 418:1 488:1 598:1 748:1 1114:1 1166:1 1182:1 1206:1 1224:3 1226:1 1233:1 1237:1 1238:1 1249:1 1260:1 1264:3
-1 212:1 308:1 374:1 391:1 418:1 563:1 598:1 617:1 789:1 814:1 928:1 990:1 1118:1 1128:1 1129:1 1215:1 1217:1 1224:3 1226:1 1238:1 1240:1 1242:1 1250:1 1255:1 1256:1 1262:1 1264:3
-1 174:2 598:1 1182:1 1224:3 1226:1 1249:1 1251:2 1264:3
-1 174:1 199:1 418:1 446:1 598:1 868:1 1223:1 1224:2 1226:1 1238:1 1251:1 1264:2
-1 174:1 586:1 598:1 1224:2 1226:1 1251:1 1264:2
-1 222:1 1224:2 1235:1 1264:2
-1 222:1 1224:2 1235:1 1264:2
-1 598:1 748:1 792:1 801:1 1182:1 1224:1 1226:1 1237:1 1249:1 1264:1
-1 222:1 1224:2 1235:1 1264:2
-1 222:1 598:1 748:1 791:1 792:1 801:1 807:1 1182:1 1218:1 1224:1 1226:1 1235:1 1237:1 1249:1 1264:1 1266:9
-1 598:1 792:1 801:1 1182:1 1224:3 1226:1 1249:1 1264:3 1266:26
-1 454:1 1219:1 1224:1 1264:1
-1 153:1 174:1 279:1 377:1 461:1 465:1 467:1 551:1 657:1 673:1 678:1 718:1 786:1 798:1 847:1 1224:1 1251:1 1264:1
-1 222:1 1224:4 1235:1 1264:4
-1 598:1 1224:1 1226:1 1264:1
-1 139:1 174:1 226:1 418:1 543:1 574:1 598:1 1182:1 1224:1 1226:1 1227:1 1230:1 1236:1 1238:1 1248:1 1249:1 1251:1 1264:1
-1 139:1 153:1 174:1 293:1 377:1 467:1 598:1 657:1 673:1 678:1 943:1 963:1 1182:1 1224:1 1226:1 1230:1 1249:1 1251:1 1264:1
-1 418:1 524:1 591:1 598:1 672:1 1216:1 1222:1 1224:2 1226:1 1238:1 1264:2
-1 454:1 1219:1 1224:1 1264:1
-1 157:1 226:1 418:1 524:1 598:1 625:1 748:1 868:1 891:1 1122:1 1182:1 1216:1 1223:1 1224:2 1226:1 1236:1 1237:1 1238:1 1243:1 1245:1 1249:1 1264:2
-1 174:1 598:1 1182:1 1224:2 1226:1 1249:1 1251:1 1264:2
-1 139:1 153:1 174:1 377:1 467:1 479:1 657:1 673:1 678:1 684:1 1224:2 1230:1 1251:1 1264:2
-1 176:1 418:1 524:1 598:1 1216:1 1224:3 1226:1 1238:1 1252:1 1264:3
-1 142:1 159:1 226:1 418:1 574:1 591:1 598:1 742:1 748:1 841:1 868:1 930:1 1108:1 1113:1 1222:1 1223:1 1224:2 1226:1 1236:1 1237:1 1238:1 1248:1 1264:2 1266:3660
-1 157:1 418:2 598:4 625:1 1182:3 1224:5 1226:4 1238:2 1243:1 1245:1 1249:3 1264:5
-1 157:1 418:2 598:4 625:1 1182:3 1224:4 1226:4 1238:2 1243:1 1245:1 1249:3 1264:4
-1 130:1 179:1 192:1 260:1 352:1 398:1 552:1 598:1 609:1 698:1 893:1 1190:1 1224:1 1226:1 1264:1
-1 346:1 418:1 507:1 591:1 598:1 748:1 941:1 1182:1 1222:1 1224:2 1226:1 1237:1 1238:1 1249:1 1264:2
-1 174:1 346:1 418:1 524:1 591:1 598:1 748:1 856:1 1182:1 1216:1 1220:1 1222:1 1224:2 1226:1 1237:1 1238:1 1249:1 1251:1 1264:2
-1 157:1 418:2 598:2 625:1 1182:2 1224:7 1226:2 1238:2 1243:1 1245:1 1249:2 1264:7
-1 139:1 153:1 169:1 174:1 279:1 344:1 361:1 377:1 411:1 439:1 467:1 544:1 657:1 673:1 678:1 684:1 764:1 774:1 794:1 900:1 946:1 976:1 1099:1 1103:1 1197:1 1224:2 1230:1 1251:1 1264:2
-1 222:1 1224:4 1235:1 1264:4
-1 157:1 226:1 418:1 524:1 598:1 748:1 1182:1 1206:1 1216:1 1224:3 1226:1 1236:1 1237:1 1238:1 1243:1 1249:1 1260:1 1264:3
-1 157:1 226:1 418:1 524:1 598:1 748:1 1182:1 1206:1 1216:1 1224:3 1226:1 1236:1 1237:1 1238:1 1243:1 1249:1 1260:1 1264:3
-1 134:1 139:1 153:1 169:1 174:1 235:1 256:1 279:1 298:1 344:1 377:1 420:1 460:1 467:1 544:1 625:1 657:1 673:1 678:1 684:1 718:1 719:1 774:1 794:1 834:1 949:1 963:1 971:1 973:1 1093:1 1197:1 1224:3 1230:1 1245:1 1251:1 1264:3
-1 139:1 153:1 174:1 244:1 344:1 377:1 467:1 540:1 554:1 657:1 673:1 678:1 684:1 719:1 775:1 834:1 973:1 1052:1 1119:1 1197:1 1224:1 1230:1 1251:1 1264:1
-1 139:1 174:1 418:1 598:1 748:1 1182:1 1224:2 1226:1 1230:1 1237:1 1238:1 1249:1 1251:1 1264:2
-1 174:2 226:1 418:1 524:1 574:1 598:1 810:1 1216:1 1224:5 1226:1 1234:1 1236:1 1238:1 1248:1 1251:2 1264:5
-1 139:1 153:1 169:1 174:1 235:1 279:1 344:1 377:1 461:1 467:1 493:1 544:1 551:1 614:1 657:1 673:1 678:1 696:1 718:1 774:1 794:1 864:1 973:1 976:1 1099:1 1197:1 1224:2 1230:1 1251:1 1264:2
-1 139:1 1224:1 1230:1 1264:1
-1 174:1 418:1 598:1 791:1 1182:1 1218:1 1224:4 1226:1 1238:1 1249:1 1251:1 1264:4
-1 139:1 1224:1 1230:1 1264:1
-1 598:1 1224:2 1226:1 1264:2
-1 139:1 1224:1 1230:1 1264:1
-1 157:1 226:1 236:1 418:1 524:1 591:1 598:1 625:1 748:1 868:1 1182:1 1206:1 1216:1 1222:1 1223:1 1224:4 1226:1 1236:1 1237:1 1238:1 1241:1 1243:1 1245:1 1249:1 1260:1 1264:4
-1 226:1 247:1 418:1 524:1 598:1 705:1 748:1 881:1 919:1 1216:1 1224:2 1226:1 1229:1 1236:1 1237:1 1238:1 1259:1 1264:2 1266:2
-1 226:1 418:1 524:1 598:1 868:1 1182:1 1216:1 1223:1 1224:1 1226:1 1236:1 1238:1 1249:1 1264:1
-1 174:1 418:1 598:1 625:1 748:1 856:1 1220:1 1224:3 1226:1 1237:1 1238:1 1245:1 1251:1 1264:3
-1 222:1 1224:2 1235:1 1264:2
-1 226:1 418:1 524:1 591:1 598:1 1182:1 1216:1 1222:1 1224:1 1226:1 1236:1 1238:1 1249:1 1264:1
-1 157:1 226:1 418:1 524:1 574:1 598:1 625:1 705:1 736:1 748:1 868:1 1182:1 1206:1 1216:1 1223:1 1224:1 1226:1 1236:1 1237:1 1238:1 1243:1 1245:1 1248:1 1249:1 1259:1 1260:1 1264:1
-1 222:1 1224:3 1235:1 1264:3
-1 222:1 1224:2 1235:1 1264:2
-1 157:1 176:1 418:1 524:1 598:1 868:1 1216:1 1223:1 1224:3 1226:1 1238:1 1243:1 1252:1 1264:3
-1 340:1 553:1 555:1 598:1 851:1 1224:4 1226:1 1264:4
-1 222:1 1224:3 1235:1 1264:3
-1 222:1 1224:2 1235:1 1264:2
-1 278:1 594:1 598:1 621:1 1224:1 1226:1 1264:1
-1 157:1 226:1 418:2 524:1 598:4 625:2 1182:2 1216:1 1224:6 1226:4 1236:1 1238:2 1243:1 1245:2 1249:2 1264:6
-1 157:1 226:1 418:2 499:1 524:1 591:1 598:4 625:3 748:1 881:1 1182:2 1206:1 1216:1 1222:1 1224:6 1226:4 1229:1 1236:1 1237:1 1238:2 1243:1 1245:3 1249:2 1253:1 1260:1 1264:6
-1 222:1 1224:3 1235:1 1264:3
-1 598:1 895:1 1224:2 1226:1 1264:2
-1 187:1 226:2 404:1 418:1 524:1 598:2 958:1 1216:1 1224:4 1226:2 1236:2 1238:1 1239:1 1264:4
-1 226:1 418:1 591:1 598:1 1182:1 1206:1 1222:1 1224:2 1226:1 1236:1 1238:1 1249:1 1260:1 1264:2
-1 226:1 418:1 591:1 598:1 1182:1 1206:1 1222:1 1224:2 1226:1 1236:1 1238:1 1249:1 1260:1 1264:2
-1 222:1 1224:3 1235:1 1264:3
-1 174:1 278:1 594:1 598:1 1043:1 1078:1 1224:2 1226:1 1251:1 1264:2
-1 226:1 418:1 598:1 625:1 1224:3 1226:1 1236:1 1238:1 1245:1 1264:3
-1 598:1 1224:2 1226:1 1264:2
-1 157:1 226:1 257:1 343:1 372:1 374:1 391:1 418:1 435:1 514:1 524:1 563:1 574:1 591:1 598:1 599:1 617:1 625:1 748:1 789:1 810:1 814:1 883:1 928:1 990:1 1118:1 1128:1 1129:1 1182:1 1206:1 1208:1 1215:1 1216:1 1217:1 1222:1 1224:2 1226:1 1232:1 1234:1 1236:1 1237:1 1238:1 1240:1 1242:1 1243:1 1245:1 1248:1 1249:1 1250:1 1255:1 1256:1 1260:1 1261:1 1262:1 1264:2 1266:124
-1 139:1 157:1 212:1 226:1 257:1 308:1 324:1 343:1 374:1 382:1 391:1 418:1 426:1 435:1 448:1 514:1 524:1 545:1 563:1 574:1 591:1 598:1 617:1 625:1 635:1 641:1 705:1 736:1 738:1 746:1 748:1 789:1 791:1 795:1 810:1 814:1 835:1 866:1 881:1 883:1 928:1 990:1 1010:1 1015:1 1029:1 1069:1 1128:1 1129:1 1152:1 1182:1 1206:1 1208:1 1215:1 1216:1 1217:1 1218:1 1222:1 1224:4 1225:1 1226:1 1229:1 1230:1 1232:1 1234:1 1236:1 1237:1 1238:1 1240:1 1242:1 1243:1 1245:1 1248:1 1249:1 1250:1 1255:1 1256:1 1259:1 1260:1 1261:1 1262:1 1264:4 1266:190
-1 139:1 391:1 563:1 598:1 789:1 990:1 1128:1 1129:1 1215:1 1217:1 1224:1 1226:1 1230:1 1242:1 1255:1 1256:1 1262:1 1264:1
-1 139:1 157:1 226:1 418:1 524:1 574:1 598:1 605:1 625:1 705:1 748:1 791:1 1182:1 1216:1 1218:1 1224:1 1226:1 1228:1 1230:1 1236:1 1237:1 1238:1 1243:1 1245:1 1248:1 1249:1 1259:1 1264:1
-1 157:1 226:1 418:1 524:1 574:1 598:1 625:1 748:1 868:1 891:1 1182:1 1216:1 1223:1 1224:3 1226:1 1236:1 1237:1 1238:1 1243:1 1245:1 1248:1 1249:1 1264:3
-1 130:1 260:1 262:1 598:1 1114:1 1166:1 1190:1 1224:2 1226:1 1233:1 1264:2
-1 157:1 226:1 418:1 524:1 598:1 748:1 1182:1 1206:1 1216:1 1224:4 1226:1 1236:1 1237:1 1238:1 1243:1 1249:1 1260:1 1264:4
-1 157:1 226:1 418:1 524:1 598:1 748:1 1182:1 1206:1 1216:1 1224:4 1226:1 1236:1 1237:1 1238:1 1243:1 1249:1 1260:1 1264:4
-1 174:1 598:1 856:1 1040:1 1220:1 1224:2 1226:1 1251:1 1264:2
-1 157:1 418:2 598:2 625:1 1182:2 1224:7 1226:2 1238:2 1243:1 1245:1 1249:2 1264:7
-1 174:2 598:1 1224:2 1226:1 1251:2 1264:2
-1 598:1 863:1 1172:1 1224:2 1226:1 1264:2
-1 157:1 226:1 418:1 524:1 598:1 748:1 1182:1 1206:1 1216:1 1224:3 1226:1 1236:1 1237:1 1238:1 1243:1 1249:1 1260:1 1264:3
-1 1224:3 1264:3
-1 598:1 1224:2 1226:1 1264:2
-1 153:1 174:1 226:1 331:1 377:1 418:1 467:1 598:1 657:1 673:1 678:1 705:1 718:1 1224:2 1226:1 1236:1 1238:1 1251:1 1259:1 1264:2
-1 157:1 418:2 598:2 625:1 1182:2 1224:7 1226:2 1238:2 1243:1 1245:1 1249:2 1264:7
-1 591:1 598:1 1222:1 1224:2 1226:1 1264:2
-1 174:1 226:1 260:1 418:1 515:1 524:1 598:1 608:1 836:1 1190:1 1216:1 1224:2 1226:1 1236:1 1238:1 1251:1 1264:2
-1 174:2 598:1 1224:2 1226:1 1251:2 1264:2
-1 157:1 174:1 226:1 326:1 418:1 598:1 718:1 1182:1 1224:3 1226:1 1236:1 1238:1 1243:1 1249:1 1251:1 1264:3 1266:39
-1 157:1 174:1 226:1 418:1 524:1 598:1 868:1 1182:1 1188:1 1216:1 1223:1 1224:4 1226:1 1236:1 1238:1 1243:1 1249:1 1251:1 1264:4
-1 343:1 418:1 598:1 625:1 748:1 1044:1 1224:2 1226:1 1237:1 1238:1 1245:1 1264:2
-1 454:1 1219:1 1224:2 1264:2
-1 153:1 174:1 377:1 461:1 467:1 657:1 673:1 678:1 959:1 1224:2 1251:1 1264:2
-1 153:1 174:1 377:1 461:1 467:1 551:1 657:1 673:1 678:1 718:1 959:1 976:1 1224:2 1251:1 1264:2
-1 222:1 1224:4 1235:1 1264:4
-1 157:1 174:1 418:1 598:1 1224:2 1226:1 1238:1 1243:1 1251:1 1264:2
-1 157:1 226:1 343:1 418:1 524:1 591:1 598:1 625:1 748:1 868:1 1182:1 1206:1 1208:1 1216:1 1222:1 1223:1 1224:5 1226:1 1236:1 1237:1 1238:1 1243:1 1245:1 1249:1 1260:1 1261:1 1264:5
-1 157:1 418:2 598:2 625:1 1182:2 1224:7 1226:2 1238:2 1243:1 1245:1 1249:2 1264:7
-1 157:1 418:2 598:2 625:1 1182:2 1224:7 1226:2 1238:2 1243:1 1245:1 1249:2 1264:7
-1 222:1 1224:3 1235:1 1264:3
-1 418:1 524:1 598:1 605:1 649:1 676:1 895:1 1042:1 1178:1 1216:1 1224:1 1226:1 1228:1 1238:1 1264:1
-1 157:1 302:1 418:1 524:1 598:1 621:1 636:1 683:1 739:1 897:1 1216:1 1224:1 1226:1 1238:1 1243:1 1264:1
-1 157:1 418:2 524:1 591:1 598:3 625:1 748:1 1182:2 1216:1 1222:1 1224:6 1226:3 1237:1 1238:2 1243:1 1245:1 1249:2 1264:6
-1 222:1 1224:4 1235:1 1264:4
-1 157:1 418:2 598:2 625:1 1182:2 1224:7 1226:2 1238:2 1243:1 1245:1 1249:2 1264:7
-1 157:1 236:1 418:1 447:1 524:1 598:1 650:1 748:1 784:1 1148:1 1182:1 1206:1 1216:1 1224:2 1226:1 1237:1 1238:1 1241:1 1243:1 1249:1 1260:1 1264:2
-1 157:1 226:1 331:1 418:1 520:1 524:1 574:1 598:1 625:1 705:1 736:1 738:1 748:1 791:1 810:1 850:1 858:1 868:1 881:1 891:1 1152:1 1182:1 1206:1 1214:1 1216:1 1218:1 1221:1 1223:1 1224:1 1225:1 1226:1 1229:1 1234:1 1236:1 1237:1 1238:1 1243:1 1245:1 1248:1 1249:1 1259:1 1260:1 1264:1
-1 226:1 410:1 418:1 448:1 524:1 533:1 574:1 598:1 625:1 705:1 748:1 791:1 795:1 810:1 858:1 919:1 1152:1 1182:1 1188:1 1206:1 1216:1 1218:1 1221:1 1224:1 1225:1 1226:1 1234:1 1236:1 1237:1 1238:1 1245:1 1248:1 1249:1 1259:1 1260:1 1264:1
-1 157:1 418:2 598:2 625:1 1182:2 1224:7 1226:2 1238:2 1243:1 1245:1 1249:2 1264:7
-1 174:1 1224:3 1251:1 1264:3
-1 157:1 174:1 226:1 236:1 418:1 444:1 524:1 591:1 598:1 748:1 868:1 1182:1 1216:1 1222:1 1223:1 1224:4 1226:1 1236:1 1237:1 1238:1 1241:1 1243:1 1249:1 1251:1 1264:4
-1 121:1 129:1 139:1 153:1 174:1 193:1 203:1 217:1 226:1 279:1 344:1 361:1 377:1 417:1 418:1 448:1 460:1 461:1 467:1 524:1 525:1 531:1 540:1 544:1 551:1 578:1 614:1 626:1 630:1 657:1 673:1 675:1 678:1 684:1 705:1 718:1 764:1 775:1 798:1 804:1 805:1 823:1 859:1 886:1 959:1 973:1 976:1 1004:1 1061:1 1098:1 1099:1 1141:1 1216:1 1224:2 1230:1 1231:1 1236:1 1238:1 1251:1 1259:1 1264:2
-1 139:1 174:1 446:1 574:1 598:1 738:1 1182:1 1224:2 1226:1 1230:1 1248:1 1249:1 1251:1 1264:2
-1 139:1 145:1 154:1 174:1 191:1 276:1 279:1 305:1 377:1 467:1 544:1 629:1 673:1 711:1 774:1 780:1 913:1 961:1 973:1 1052:1 1197:1 1224:2 1230:1 1251:1 1264:2 1266:23
-1 157:1 174:1 418:1 524:1 598:1 625:1 748:1 1105:1 1182:1 1216:1 1224:2 1226:1 1237:1 1238:1 1243:1 1245:1 1249:1 1251:1 1264:2
-1 139:1 157:1 174:1 226:1 326:1 418:1 598:1 691:1 738:1 748:1 1182:1 1224:1 1226:1 1230:1 1236:1 1237:1 1238:1 1243:1 1249:1 1251:1 1264:1 1266:39
-1 153:1 174:1 226:1 377:1 467:1 571:1 598:1 657:1 660:1 673:1 678:1 679:1 718:1 1224:3 1226:1 1236:1 1251:1 1264:3
-1 174:1 226:1 418:1 598:1 625:1 718:1 738:1 858:1 1152:1 1182:1 1221:1 1224:1 1225:1 1226:1 1236:1 1238:1 1245:1 1249:1 1251:1 1264:1
-1 174:1 226:1 326:1 341:1 418:1 461:1 574:1 598:1 691:1 748:1 959:1 1110:1 1182:1 1224:3 1226:1 1236:1 1237:1 1238:1 1248:1 1249:1 1251:1 1264:3 1266:39
-1 174:1 226:1 598:1 817:1 1224:3 1226:1 1236:1 1251:1 1264:3
-1 226:1 236:1 418:1 520:1 524:1 574:1 598:1 605:1 736:1 748:1 791:1 810:1 850:1 881:1 1182:1 1214:1 1216:1 1218:1 1224:2 1226:1 1228:1 1229:1 1234:1 1236:1 1237:1 1238:1 1241:1 1248:1 1249:1 1264:2
-1 157:1 418:2 598:2 625:1 1182:2 1224:7 1226:2 1238:2 1243:1 1245:1 1249:2 1264:7
-1 454:1 1219:1 1224:1 1264:1
-1 174:1 418:2 598:4 625:2 1182:1 1224:5 1226:4 1238:2 1245:2 1249:1 1251:1 1264:5
-1 598:1 1224:2 1226:1 1264:2
-1 598:1 1224:2 1226:1 1264:2
-1 157:1 226:1 418:1 524:1 598:1 605:1 625:1 705:1 738:1 748:1 1182:1 1206:1 1216:1 1224:2 1226:1 1228:1 1236:1 1237:1 1238:1 1243:1 1245:1 1249:1 1259:1 1260:1 1264:2
-1 174:1 1224:3 1251:1 1264:3
-1 157:1 226:1 260:1 418:1 524:1 598:1 625:1 659:1 748:1 868:1 891:1 1182:1 1190:1 1216:1 1223:1 1224:2 1226:1 1236:1 1237:1 1238:1 1243:1 1245:1 1249:1 1264:2
-1 139:1 174:1 226:1 446:1 574:1 598:1 738:1 1182:1 1224:2 1226:1 1230:1 1236:1 1248:1 1249:1 1251:1 1264:2
-1 222:1 1224:3 1235:1 1264:3
-1 157:1 226:1 236:1 343:1 418:1 524:1 543:1 574:1 591:1 598:1 605:1 625:1 651:1 748:1 868:1 1182:1 1188:1 1206:1 1208:1 1216:1 1222:1 1223:1 1224:1 1226:1 1227:1 1228:1 1236:1 1237:1 1238:1 1241:1 1243:1 1245:1 1248:1 1249:1 1260:1 1261:1 1264:1
-1 157:1 226:2 418:2 524:1 598:4 625:3 748:1 868:1 1182:2 1206:1 1216:1 1223:1 1224:6 1226:4 1236:2 1237:1 1238:2 1243:1 1245:3 1249:2 1260:1 1264:6
-1 174:2 236:1 598:1 1224:3 1226:1 1241:1 1251:2 1264:3
-1 598:1 1224:2 1226:1 1264:2
-1 598:1 1224:2 1226:1 1264:2
-1 598:1 1224:3 1226:1 1264:3
-1 222:1 1224:3 1235:1 1264:3
-1 598:1 1224:3 1226:1 1264:3
-1 174:1 598:1 1224:3 1226:1 1251:1 1264:3
-1 174:2 226:1 236:1 418:1 524:1 598:1 748:1 1216:1 1224:2 1226:1 1236:1 1237:1 1238:1 1241:1 1251:2 1264:2
-1 153:1 174:1 279:1 377:1 461:1 465:1 467:1 551:1 657:1 673:1 678:1 684:1 718:1 775:1 786:1 798:1 847:1 1099:1 1197:1 1224:1 1251:1 1264:1 1266:3
-1 598:1 1224:3 1226:1 1264:3
-1 139:1 153:1 174:1 182:1 341:1 377:1 461:1 467:1 598:1 657:1 673:1 678:1 718:1 916:1 959:1 1038:1 1182:1 1224:1 1226:1 1230:1 1249:1 1251:1 1264:1
-1 139:1 157:1 174:1 217:1 226:1 418:1 524:1 543:1 574:1 598:1 605:1 748:1 1216:1 1224:2 1226:1 1227:1 1228:1 1230:1 1231:1 1236:1 1237:1 1238:1 1243:1 1248:1 1251:1 1264:2
-1 174:1 226:1 532:1 598:1 748:1 1224:3 1226:1 1236:1 1237:1 1251:1 1264:3
-1 174:1 226:1 532:1 598:1 748:1 1224:3 1226:1 1236:1 1237:1 1251:1 1264:3
-1 153:1 174:1 344:1 540:1 544:1 647:1 652:1 679:1 707:1 794:1 826:1 927:1 973:1 1115:1 1169:1 1224:2 1251:1 1264:2
-1 157:1 226:1 418:1 524:1 574:1 591:1 598:1 748:1 868:1 1143:1 1182:1 1206:1 1216:1 1222:1 1223:1 1224:2 1226:1 1236:1 1237:1 1238:1 1243:1 1248:1 1249:1 1260:1 1264:2 1266:69
-1 174:2 179:1 260:1 552:1 598:1 1190:1 1224:3 1226:1 1251:2 1264:3
-1 157:1 226:1 418:1 524:1 598:1 625:1 738:1 748:1 1182:1 1206:1 1216:1 1224:3 1226:1 1236:1 1237:1 1238:1 1243:1 1245:1 1249:1 1260:1 1264:3
-1 174:2 418:1 598:1 868:1 1223:1 1224:2 1226:1 1238:1 1251:2 1264:2
-1 222:1 1224:3 1235:1 1264:3
-1 598:1 634:1 791:1 852:1 1013:1 1182:1 1218:1 1224:1 1226:1 1249:1 1264:1
-1 598:1 634:1 791:1 852:1 1013:1 1182:1 1218:1 1224:1 1226:1 1249:1 1264:1
-1 454:1 1219:1 1224:1 1264:1
-1 174:2 226:1 418:1 524:1 591:1 598:1 625:1 748:1 791:1 868:1 1182:1 1188:1 1216:1 1218:1 1222:1 1223:1 1224:2 1226:1 1236:1 1237:1 1238:1 1245:1 1249:1 1251:2 1264:2
-1 174:2 179:1 260:1 418:1 511:1 552:1 598:1 791:1 1190:1 1218:1 1224:2 1226:1 1238:1 1251:2 1264:2
-1 418:1 524:1 598:1 895:1 999:1 1053:1 1216:1 1224:1 1226:1 1238:1 1264:1 1266:5
-1 139:1 153:1 174:1 377:1 411:1 418:1 467:1 493:1 598:1 657:1 673:1 678:1 679:1 791:1 920:1 927:1 958:1 1182:1 1218:1 1224:2 1226:1 1230:1 1238:1 1239:1 1249:1 1251:1 1258:1 1264:2
-1 139:1 153:1 174:1 279:1 293:1 344:1 377:1 418:1 467:1 493:1 544:1 624:1 657:1 673:1 678:1 684:1 699:1 774:1 775:1 1099:1 1224:2 1230:1 1238:1 1251:1 1264:2
-1 139:1 174:1 598:1 1182:1 1224:1 1226:1 1230:1 1249:1 1251:1 1264:1
-1 222:1 1224:3 1235:1 1264:3
-1 226:1 418:1 598:1 791:1 1218:1 1224:2 1226:1 1236:1 1238:1 1264:2
-1 157:1 418:2 598:2 625:1 1182:2 1224:7 1226:2 1238:2 1243:1 1245:1 1249:2 1264:7
-1 222:1 1224:2 1235:1 1264:2
-1 157:1 226:1 418:1 524:1 598:1 748:1 1182:1 1206:1 1216:1 1224:2 1226:1 1236:1 1237:1 1238:1 1243:1 1249:1 1260:1 1264:2
-1 157:1 418:2 524:1 598:5 625:2 1182:2 1206:1 1216:1 1224:6 1226:5 1238:2 1243:1 1245:2 1249:2 1260:1 1264:6
-1 174:1 598:1 748:1 1182:1 1224:1 1226:1 1237:1 1249:1 1251:1 1264:1
-1 226:1 260:1 418:1 520:1 524:1 574:1 591:1 598:1 625:1 736:1 748:1 791:1 978:1 1015:1 1166:1 1182:1 1188:1 1206:1 1214:1 1216:1 1218:1 1222:1 1224:2 1226:1 1233:1 1236:1 1237:1 1238:1 1245:1 1248:1 1249:1 1260:1 1264:2 1266:59
-1 174:1 418:1 448:1 524:1 598:1 722:1 1182:1 1216:1 1224:1 1226:1 1238:1 1249:1 1251:1 1264:1
-1 157:1 226:1 343:1 418:1 524:1 591:1 598:1 625:1 748:1 868:1 1182:1 1206:1 1208:1 1216:1 1222:1 1223:1 1224:5 1226:1 1236:1 1237:1 1238:1 1243:1 1245:1 1249:1 1260:1 1261:1 1264:5
-1 157:1 226:1 418:1 524:1 598:1 625:1 868:1 1182:1 1206:1 1216:1 1223:1 1224:5 1226:1 1236:1 1238:1 1243:1 1245:1 1249:1 1260:1 1264:5
-1 146:1 153:1 174:1 279:1 344:1 377:1 467:1 526:1 540:1 657:1 673:1 678:1 684:1 718:1 973:1 976:1 1024:1 1224:3 1251:1 1264:3
-1 222:1 1224:4 1235:1 1264:4
-1 222:1 1224:4 1235:1 1264:4
-1 598:1 1224:2 1226:1 1264:2
-1 174:1 345:1 598:1 1182:1 1224:3 1226:1 1249:1 1251:1 1264:3
-1 222:1 1224:3 1235:1 1264:3
-1 222:1 1224:3 1235:1 1264:3
-1 157:1 418:1 524:1 598:1 625:1 748:1 881:1 1182:1 1216:1 1224:1 1226:1 1229:1 1237:1 1238:1 1243:1 1245:1 1249:1 1264:1
-1 157:1 418:2 524:1 598:5 625:2 868:1 1182:2 1206:1 1216:1 1223:1 1224:7 1226:5 1238:2 1243:1 1245:2 1249:2 1260:1 1264:7
-1 157:1 418:2 524:1 591:2 598:3 625:2 748:1 868:1 1182:1 1216:1 1222:2 1223:1 1224:6 1226:3 1237:1 1238:2 1243:1 1245:2 1249:1 1264:6
-1 598:1 1224:2 1226:1 1264:2
-1 157:1 418:2 524:1 591:1 598:4 625:3 748:1 1182:2 1206:1 1216:1 1222:1 1224:6 1226:4 1237:1 1238:2 1243:1 1245:3 1249:2 1260:1 1264:6
-1 157:1 418:2 524:1 591:1 598:4 625:3 748:1 868:1 1182:2 1206:1 1216:1 1222:1 1223:1 1224:6 1226:4 1237:1 1238:2 1243:1 1245:3 1249:2 1260:1 1264:6
-1 139:1 145:1 153:1 169:1 174:1 279:1 344:1 361:1 377:1 460:1 467:1 499:1 540:1 544:1 625:1 657:1 673:1 678:1 684:1 718:1 738:1 775:1 973:1 976:1 1099:1 1197:1 1224:2 1230:1 1245:1 1251:1 1253:1 1264:2
-1 174:1 598:1 778:1 1224:8 1226:1 1251:1 1264:8
-1 122:1 174:1 598:1 702:1 759:1 1224:6 1226:1 1251:1 1264:6
-1 174:2 260:1 418:1 524:1 598:1 1216:1 1224:2 1226:1 1238:1 1251:2 1264:2
-1 157:1 226:2 418:2 524:1 598:3 625:2 748:1 868:1 1182:2 1216:1 1223:1 1224:6 1226:3 1236:2 1237:1 1238:2 1243:1 1245:2 1249:2 1264:6
-1 157:1 226:1 418:2 524:1 598:4 625:2 748:1 868:1 1182:2 1216:1 1223:1 1224:6 1226:4 1236:1 1237:1 1238:2 1243:1 1245:2 1249:2 1264:6
-1 122:1 174:1 598:1 702:1 759:1 1224:6 1226:1 1251:1 1264:6
-1 157:1 418:1 524:1 598:1 868:1 1182:1 1216:1 1223:1 1224:1 1226:1 1238:1 1243:1 1249:1 1264:1
-1 118:1 139:1 147:1 153:1 174:1 279:1 344:1 377:1 460:1 467:1 540:1 657:1 673:1 678:1 684:1 774:1 775:1 834:1 973:1 1052:1 1103:1 1197:1 1224:2 1230:1 1251:1 1264:2
-1 157:1 226:3 418:2 524:1 598:4 625:3 748:1 868:1 1182:2 1206:1 1208:1 1216:1 1223:1 1224:6 1226:4 1236:3 1237:1 1238:2 1243:1 1245:3 1249:2 1260:1 1261:1 1264:6
-1 153:1 174:1 226:1 461:1 551:1 598:1 657:1 673:1 959:1 1182:1 1224:2 1226:1 1236:1 1249:1 1251:1 1264:2
-1 222:1 1224:3 1235:1 1264:3
-1 222:1 1224:4 1235:1 1264:4
-1 222:1 1224:3 1235:1 1264:3
-1 222:1 1224:3 1235:1 1264:3
-1 222:1 1224:3 1235:1 1264:3
-1 222:1 1224:3 1235:1 1264:3
-1 222:1 1224:3 1235:1 1264:3
-1 174:1 418:1 461:1 551:1 598:1 691:1 718:1 959:1 1182:1 1188:1 1224:3 1226:1 1238:1 1249:1 1251:1 1264:3
-1 226:1 418:1 524:1 598:1 748:1 1216:1 1224:1 1226:1 1236:1 1237:1 1238:1 1264:1
-1 226:1 247:1 418:1 524:1 598:1 705:1 748:1 881:1 919:1 1216:1 1224:2 1226:1 1229:1 1236:1 1237:1 1238:1 1259:1 1264:2 1266:2
-1 454:1 1219:1 1224:1 1264:1
-1 157:1 226:1 418:1 524:1 598:1 748:1 1182:1 1206:1 1216:1 1224:3 1226:1 1236:1 1237:1 1238:1 1243:1 1249:1 1260:1 1264:3
-1 174:1 418:1 524:1 591:1 598:1 1216:1 1222:1 1224:2 1226:1 1238:1 1251:1 1264:2
-1 174:1 598:1 1224:2 1226:1 1251:1 1264:2
-1 157:1 174:1 226:1 236:1 418:1 524:1 598:1 748:1 868:1 1182:1 1216:1 1223:1 1224:2 1226:1 1236:1 1237:1 1238:1 1241:1 1243:1 1249:1 1251:1 1264:2
-1 174:1 418:1 524:1 598:1 1216:1 1224:2 1226:1 1238:1 1251:1 1264:2
-1 222:1 1224:2 1235:1 1264:2
-1 153:1 169:1 174:1 235:1 279:1 293:1 296:1 377:1 460:1 467:1 544:1 614:1 626:1 657:1 673:1 678:1 764:1 774:1 794:1 798:1 973:1 976:1 1224:3 1251:1 1264:3
-1 174:1 226:1 261:1 418:1 534:1 598:1 625:1 856:1 902:1 1220:1 1224:2 1226:1 1236:1 1238:1 1245:1 1251:1 1264:2
-1 157:1 174:1 418:1 524:1 598:1 659:1 748:1 856:1 1216:1 1220:1 1224:3 1226:1 1237:1 1238:1 1243:1 1251:1 1264:3
-1 222:1 1224:3 1235:1 1264:3
-1 174:1 226:1 418:1 598:1 1182:1 1224:3 1226:1 1236:1 1238:1 1249:1 1251:1 1264:3
-1 598:1 1224:1 1226:1 1264:1
-1 157:1 226:1 418:1 524:1 598:1 791:1 1216:1 1218:1 1224:2 1226:1 1236:1 1238:1 1243:1 1264:2
-1 174:2 237:1 598:1 702:1 1224:5 1226:1 1251:2 1264:5
-1 236:1 598:1 1224:2 1226:1 1241:1 1264:2
-1 174:2 226:1 237:1 458:1 598:1 702:1 1224:5 1226:1 1236:1 1251:2 1264:5
-1 157:1 226:1 418:1 524:1 591:1 598:1 1182:1 1216:1 1222:1 1224:2 1226:1 1236:1 1238:1 1243:1 1249:1 1264:2
-1 174:2 598:1 1224:2 1226:1 1251:2 1264:2
-1 157:1 331:1 418:1 524:1 574:1 598:1 605:1 625:1 705:1 738:1 748:1 776:1 920:1 1152:1 1182:1 1216:1 1224:1 1225:1 1226:1 1228:1 1237:1 1238:1 1243:1 1245:1 1248:1 1249:1 1258:1 1259:1 1264:1
-1 330:1 1224:3 1264:3
-1 174:2 237:1 458:1 598:1 702:1 966:1 1224:6 1226:1 1251:2 1264:6
-1 598:1 621:1 1224:2 1226:1 1264:2
-1 222:1 1224:4 1235:1 1264:4
-1 591:1 598:1 1172:1 1222:1 1224:2 1226:1 1264:2
-1 157:1 418:2 598:2 625:1 1182:2 1224:7 1226:2 1238:2 1243:1 1245:1 1249:2 1264:7
-1 206:1 285:1 418:1 468:1 473:1 503:1 524:1 596:1 598:1 605:1 649:1 676:1 697:1 748:1 848:1 895:1 1009:1 1018:1 1030:1 1042:1 1045:1 1094:1 1178:1 1179:1 1216:1 1224:1 1226:1 1228:1 1237:1 1238:1 1264:1
-1 598:1 1172:1 1224:2 1226:1 1264:2
-1 174:2 445:1 598:1 1224:2 1226:1 1251:2 1264:2
-1 157:1 418:2 598:2 625:1 1182:2 1224:6 1226:2 1238:2 1243:1 1245:1 1249:2 1264:6
-1 157:1 226:3 418:2 524:1 591:1 598:7 625:3 748:1 868:1 1182:2 1206:1 1208:1 1216:1 1222:1 1223:1 1224:6 1226:7 1236:3 1237:1 1238:2 1243:1 1245:3 1249:2 1260:1 1261:1 1264:6
-1 222:1 1224:4 1235:1 1264:4
-1 418:1 591:1 598:1 1182:1 1222:1 1224:3 1226:1 1238:1 1249:1 1264:3
-1 418:1 591:1 598:1 1182:1 1222:1 1224:3 1226:1 1238:1 1249:1 1264:3
-1 157:1 226:1 343:1 418:1 524:1 574:1 598:1 625:1 748:1 868:1 891:1 1182:1 1206:1 1216:1 1223:1 1224:1 1226:1 1236:1 1237:1 1238:1 1243:1 1245:1 1248:1 1249:1 1260:1 1264:1
-1 454:1 1219:1 1224:1 1264:1
-1 151:1 153:1 174:1 193:1 256:1 279:1 344:1 361:1 377:1 460:1 467:1 544:1 657:1 673:1 678:1 684:1 774:1 775:1 859:1 1002:1 1099:1 1125:1 1197:1 1224:2 1251:1 1264:2
-1 139:1 174:1 213:1 247:1 249:1 418:1 448:1 524:1 598:1 625:1 705:1 738:1 748:1 850:1 881:1 1154:1 1182:1 1187:1 1216:1 1224:2 1226:1 1229:1 1230:1 1237:1 1238:1 1245:1 1249:1 1251:1 1254:1 1259:1 1264:2
-1 139:1 157:1 174:1 213:1 226:1 247:1 249:1 324:1 365:1 418:1 448:1 524:1 598:1 625:1 705:1 730:1 738:1 748:1 850:1 920:1 1182:1 1187:1 1206:1 1216:1 1224:1 1226:1 1230:1 1236:1 1237:1 1238:1 1243:1 1244:1 1245:1 1249:1 1251:1 1254:1 1258:1 1259:1 1260:1 1264:1
-1 157:1 226:1 418:1 524:1 598:1 1182:1 1216:1 1224:3 1226:1 1236:1 1238:1 1243:1 1249:1 1264:3
-1 174:2 598:1 1224:2 1226:1 1251:2 1264:2
-1 222:1 1224:3 1235:1 1264:3
-1 222:1 1224:2 1235:1 1264:2
-1 598:1 1224:1 1226:1 1264:1
-1 174:1 418:1 558:1 598:1 1224:2 1226:1 1238:1 1251:1 1264:2
-1 153:1 174:1 293:1 377:1 467:1 598:1 657:1 673:1 678:1 718:1 959:1 1182:1 1224:3 1226:1 1249:1 1251:1 1264:3
-1 222:1 1224:3 1235:1 1264:3
-1 153:1 157:1 174:1 322:1 377:1 418:1 467:1 524:1 598:1 657:1 673:1 678:1 718:1 748:1 1182:1 1216:1 1224:1 1226:1 1237:1 1238:1 1243:1 1249:1 1251:1 1264:1
-1 454:1 1219:1 1224:1 1264:1
-1 222:1 1224:3 1235:1 1264:3
-1 222:1 1224:3 1235:1 1264:3
-1 139:1 153:1 174:1 211:1 279:1 344:1 377:1 467:1 540:1 657:1 673:1 678:1 791:1 794:1 1052:1 1103:1 1161:1 1218:1 1224:2 1230:1 1251:1 1264:2
-1 139:1 157:1 163:1 174:1 226:1 247:1 343:1 346:1 418:1 524:1 574:1 591:1 598:1 605:1 625:1 720:1 748:1 809:1 857:1 1182:1 1216:1 1222:1 1224:1 1226:1 1228:1 1230:1 1236:1 1237:1 1238:1 1243:1 1245:1 1248:1 1249:1 1251:1 1264:1
-1 139:1 174:1 418:1 558:1 598:1 1224:1 1226:1 1230:1 1238:1 1251:1 1264:1
-1 139:1 174:1 418:1 544:1 598:1 1224:2 1226:1 1230:1 1238:1 1251:1 1264:2
-1 222:1 1224:3 1235:1 1264:3
-1 139:1 174:1 418:1 598:1 1182:1 1224:1 1226:1 1230:1 1238:1 1249:1 1251:1 1264:1
-1 139:1 174:1 467:1 479:1 490:1 592:1 657:1 673:1 684:1 1224:2 1230:1 1251:1 1264:2
-1 139:1 174:1 418:1 479:1 490:1 598:1 1182:1 1224:2 1226:1 1230:1 1238:1 1249:1 1251:1 1264:2
-1 157:1 174:1 418:1 524:1 598:1 625:1 748:1 1105:1 1182:1 1216:1 1224:2 1226:1 1237:1 1238:1 1243:1 1245:1 1249:1 1251:1 1264:2
-1 598:1 1224:1 1226:1 1264:1
-1 139:1 174:1 418:1 574:1 598:1 791:1 1206:1 1218:1 1224:2 1226:1 1230:1 1238:1 1248:1 1251:1 1260:1 1264:2
-1 226:1 418:1 591:1 598:1 736:1 772:1 810:1 858:1 1182:1 1206:1 1221:1 1222:1 1224:3 1226:1 1234:1 1236:1 1238:1 1249:1 1260:1 1264:3 1266:2
-1 157:1 226:1 418:1 422:1 524:1 591:1 598:1 625:1 748:1 868:1 1182:1 1206:1 1216:1 1222:1 1223:1 1224:5 1226:1 1236:1 1237:1 1238:1 1243:1 1245:1 1249:1 1260:1 1264:5
-1 222:1 1224:3 1235:1 1264:3
-1 139:1 174:1 226:1 418:1 461:1 551:1 598:1 625:1 748:1 786:1 959:1 1003:1 1182:1 1224:1 1226:1 1230:1 1236:1 1237:1 1238:1 1245:1 1249:1 1251:1 1264:1
-1 139:1 174:1 226:1 418:1 461:1 551:1 598:1 625:1 748:1 786:1 959:1 1003:1 1182:1 1224:1 1226:1 1230:1 1236:1 1237:1 1238:1 1245:1 1249:1 1251:1 1264:1
-1 153:1 174:1 279:1 377:1 461:1 467:1 551:1 598:1 657:1 673:1 678:1 718:1 748:1 786:1 798:1 847:1 976:1 1197:1 1224:1 1226:1 1237:1 1251:1 1264:1 1266:3
-1 139:1 172:1 174:1 217:1 418:1 598:1 705:1 730:1 738:1 845:1 1022:1 1182:1 1224:3 1226:1 1230:1 1231:1 1238:1 1249:1 1251:1 1259:1 1264:3
-1 174:1 598:1 791:1 1131:1 1182:1 1218:1 1224:1 1226:1 1249:1 1251:1 1264:1
-1 122:1 174:1 598:1 702:1 759:1 1224:6 1226:1 1251:1 1264:6
-1 174:1 381:1 598:1 922:1 1224:3 1226:1 1251:1 1264:3
-1 157:1 316:1 418:1 469:1 524:1 561:1 598:1 868:1 1206:1 1216:1 1223:1 1224:2 1226:1 1238:1 1243:1 1260:1 1264:2 1266:2
-1 174:1 418:1 598:1 997:1 1224:2 1226:1 1238:1 1251:1 1264:2
-1 222:1 1224:4 1235:1 1264:4
-1 157:1 226:1 418:2 524:1 598:5 625:3 748:1 868:1 891:1 1182:2 1206:1 1216:1 1223:1 1224:6 1226:5 1236:1 1237:1 1238:2 1243:1 1245:3 1249:2 1260:1 1264:6
-1 157:1 226:2 418:2 524:1 598:5 625:3 748:1 1182:2 1206:1 1216:1 1224:6 1226:5 1236:2 1237:1 1238:2 1243:1 1245:3 1249:2 1260:1 1264:6
-1 139:1 153:1 157:1 174:1 193:1 226:1 279:1 344:1 377:1 418:1 460:1 467:1 481:1 524:1 544:1 574:1 598:1 625:1 657:1 673:1 678:1 684:1 718:1 748:1 774:1 775:1 976:1 1099:1 1197:1 1216:1 1224:2 1226:1 1230:1 1236:1 1237:1 1238:1 1243:1 1245:1 1248:1 1251:1 1264:2
-1 174:1 226:1 418:1 598:1 856:1 1220:1 1224:3 1226:1 1236:1 1238:1 1251:1 1264:3
-1 157:1 226:2 418:2 524:1 598:4 625:2 748:1 1182:2 1206:1 1216:1 1224:6 1226:4 1236:2 1237:1 1238:2 1243:1 1245:2 1249:2 1260:1 1264:6
-1 222:1 1224:3 1235:1 1264:3
-1 174:1 418:1 598:1 1224:2 1226:1 1238:1 1251:1 1264:2
-1 130:1 192:1 260:1 352:1 398:1 552:1 598:1 609:1 893:1 1190:1 1224:1 1226:1 1264:1
-1 139:1 174:1 418:1 574:1 598:1 791:1 1182:1 1206:1 1218:1 1224:2 1226:1 1230:1 1238:1 1248:1 1249:1 1251:1 1260:1 1264:2
-1 157:1 418:1 598:1 625:1 1182:1 1224:5 1226:1 1238:1 1243:1 1245:1 1249:1 1264:5
-1 139:1 145:1 153:1 174:1 180:1 193:1 217:1 235:1 249:1 276:1 279:1 344:1 361:1 377:1 460:1 461:1 467:1 482:1 516:1 525:1 540:1 544:1 578:1 614:1 625:1 657:1 673:1 678:1 684:1 705:1 718:1 738:1 774:1 775:1 798:1 872:1 959:1 973:1 976:1 982:1 1099:1 1186:1 1197:1 1224:3 1230:1 1231:1 1245:1 1251:1 1254:1 1259:1 1264:3
-1 157:1 226:1 418:1 524:1 591:1 598:1 748:1 868:1 1182:1 1216:1 1222:1 1223:1 1224:4 1226:1 1236:1 1237:1 1238:1 1243:1 1249:1 1264:4
-1 157:1 226:1 418:1 524:1 598:1 748:1 1182:1 1206:1 1216:1 1224:2 1226:1 1236:1 1237:1 1238:1 1243:1 1249:1 1260:1 1264:2
-1 174:1 226:1 418:1 598:1 1182:1 1224:3 1226:1 1236:1 1238:1 1249:1 1251:1 1264:3
-1 153:1 174:1 279:1 377:1 425:1 461:1 467:1 544:1 551:1 614:1 626:1 657:1 673:1 678:1 684:1 718:1 775:1 794:1 798:1 959:1 976:1 1099:1 1224:2 1251:1 1264:2
-1 139:1 153:1 174:1 344:1 377:1 418:1 461:1 467:1 543:1 574:1 598:1 657:1 673:1 678:1 718:1 774:1 1182:1 1224:2 1226:1 1227:1 1230:1 1238:1 1248:1 1249:1 1251:1 1264:2
-1 139:1 153:1 174:1 235:1 279:1 344:1 377:1 418:1 461:1 467:1 544:1 551:1 574:1 614:1 625:1 626:1 657:1 673:1 678:1 684:1 691:1 718:1 748:1 774:1 775:1 794:1 798:1 929:1 959:1 976:1 1099:1 1197:1 1224:3 1230:1 1237:1 1238:1 1245:1 1248:1 1251:1 1264:3
-1 174:1 598:1 1224:2 1226:1 1251:1 1264:2
-1 174:2 598:1 1224:2 1226:1 1251:2 1264:2
-1 157:1 174:1 226:1 259:1 418:1 524:1 598:1 748:1 756:1 868:1 1182:1 1206:1 1216:1 1223:1 1224:1 1226:1 1236:1 1237:1 1238:1 1243:1 1249:1 1251:1 1260:1 1264:1
-1 157:1 174:1 365:1 418:1 524:1 598:1 1182:1 1206:1 1216:1 1224:2 1226:1 1238:1 1243:1 1244:1 1249:1 1251:1 1260:1 1264:2
-1 134:1 139:1 145:1 153:1 174:1 193:1 200:1 235:1 279:1 344:1 361:1 377:1 460:1 465:1 467:1 544:1 657:1 673:1 678:1 684:1 774:1 775:1 794:1 806:1 859:1 973:1 982:1 1052:1 1103:1 1132:1 1197:1 1224:2 1230:1 1251:1 1264:2
-1 153:1 174:1 235:1 344:1 377:1 460:1 467:1 544:1 618:1 657:1 673:1 678:1 684:1 774:1 775:1 794:1 1052:1 1197:1 1224:3 1251:1 1264:3
-1 157:1 174:1 365:1 418:1 572:1 598:1 736:1 756:1 788:1 1182:1 1224:2 1226:1 1238:1 1243:1 1244:1 1246:1 1249:1 1251:1 1264:2
-1 174:2 598:1 1182:1 1224:4 1226:1 1249:1 1251:2 1264:4
-1 406:1 418:1 469:1 598:1 1127:1 1224:3 1226:1 1238:1 1264:3 1266:2
-1 226:1 418:1 448:1 524:1 574:1 598:1 625:1 748:1 810:1 868:1 891:1 938:1 1182:1 1216:1 1223:1 1224:1 1226:1 1234:1 1236:1 1237:1 1238:1 1245:1 1248:1 1249:1 1264:1
-1 157:1 226:1 418:1 598:1 1026:1 1224:2 1226:1 1236:1 1238:1 1243:1 1264:2
-1 157:1 418:1 448:1 524:1 598:1 625:1 659:1 748:1 868:1 891:1 1182:1 1216:1 1223:1 1224:2 1226:1 1237:1 1238:1 1243:1 1245:1 1249:1 1264:2
-1 222:1 1224:3 1235:1 1264:3
-1 174:1 418:1 524:1 598:1 756:1 1216:1 1224:2 1226:1 1238:1 1251:1 1264:2
-1 157:1 226:1 418:1 524:1 598:1 748:1 1182:1 1206:1 1216:1 1224:3 1226:1 1236:1 1237:1 1238:1 1243:1 1249:1 1260:1 1264:3
-1 174:1 226:1 418:1 598:1 748:1 756:1 1182:1 1206:1 1224:1 1226:1 1236:1 1237:1 1238:1 1249:1 1251:1 1260:1 1264:1
-1 454:1 1219:1 1224:1 1264:1
-1 157:1 174:2 226:1 237:1 418:1 458:1 491:1 598:1 702:1 966:1 968:1 1019:1 1224:5 1226:1 1236:1 1238:1 1243:1 1247:1 1251:2 1264:5 1266:35
-1 157:1 226:1 418:1 423:1 524:1 591:1 598:1 625:1 748:1 868:1 958:1 1182:1 1206:1 1216:1 1222:1 1223:1 1224:5 1226:1 1236:1 1237:1 1238:1 1239:1 1243:1 1245:1 1249:1 1260:1 1264:5
-1 139:1 157:1 174:1 418:1 598:1 1182:1 1200:1 1206:1 1224:2 1226:1 1230:1 1238:1 1243:1 1249:1 1251:1 1260:1 1264:2
-1 174:2 598:1 1224:3 1226:1 1251:2 1264:3
-1 174:2 598:1 1224:2 1226:1 1251:2 1264:2
-1 260:1 262:1 598:1 1190:1 1224:2 1226:1 1264:2
-1 174:2 260:1 418:1 470:1 524:1 598:1 1190:1 1216:1 1224:2 1226:1 1238:1 1251:2 1264:2
-1 174:1 587:1 598:1 1224:3 1226:1 1251:1 1264:3
-1 454:1 1219:1 1224:1 1264:1
-1 454:1 1219:1 1224:1 1264:1
-1 222:1 1224:3 1235:1 1264:3
-1 157:1 174:2 226:1 418:1 524:1 598:1 625:1 682:31 748:1 868:1 1182:1 1216:1 1223:1 1224:2 1226:1 1236:1 1237:1 1238:1 1243:1 1245:1 1249:1 1251:2 1264:2
-1 139:1 145:1 153:1 174:1 256:1 279:1 344:1 377:1 460:1 467:1 544:1 657:1 673:1 678:1 684:1 774:1 775:1 834:1 973:1 1004:1 1052:1 1197:1 1224:1 1230:1 1251:1 1264:1
-1 222:1 1224:3 1235:1 1264:3
-1 139:1 174:1 574:1 598:1 625:1 748:1 1182:1 1224:1 1226:1 1230:1 1237:1 1245:1 1248:1 1249:1 1251:1 1264:1
-1 139:1 174:1 479:1 598:1 1224:2 1226:1 1230:1 1251:1 1264:2
-1 174:1 418:1 598:1 856:1 1220:1 1224:2 1226:1 1238:1 1251:1 1264:2
-1 139:1 226:1 598:1 718:1 1224:1 1226:1 1230:1 1236:1 1264:1
-1 418:1 598:1 868:1 1223:1 1224:4 1226:1 1238:1 1264:4
-1 157:1 174:1 226:1 418:1 499:1 524:1 574:1 598:1 625:1 748:1 868:1 902:1 1182:1 1206:1 1216:1 1223:1 1224:2 1226:1 1236:1 1237:1 1238:1 1243:1 1245:1 1248:1 1249:1 1251:1 1253:1 1260:1 1264:2
-1 157:1 226:1 290:1 418:1 524:1 598:1 659:1 748:1 868:1 1114:1 1182:1 1206:1 1216:1 1223:1 1224:2 1226:1 1236:1 1237:1 1238:1 1243:1 1249:1 1260:1 1264:2
-1 153:1 174:1 377:1 418:1 467:1 524:1 574:1 598:1 657:1 673:1 678:1 1216:1 1224:2 1226:1 1238:1 1248:1 1251:1 1264:2
-1 153:1 174:1 377:1 467:1 598:1 625:1 657:1 673:1 678:1 718:1 1224:2 1226:1 1245:1 1251:1 1264:2
-1 222:1 1224:2 1235:1 1264:2
-1 174:2 598:1 1224:2 1226:1 1251:2 1264:2
-1 174:2 598:1 1224:2 1226:1 1251:2 1264:2
-1 157:1 418:2 598:4 625:1 1182:3 1224:4 1226:4 1238:2 1243:1 1245:1 1249:3 1264:4
-1 598:1 1224:2 1226:1 1264:2
-1 222:1 1224:3 1235:1 1264:3
-1 222:1 1224:2 1235:1 1264:2
-1 139:1 153:1 174:1 226:1 331:1 375:1 377:1 418:1 467:1 574:1 598:1 625:1 657:1 673:1 678:1 679:1 684:1 705:1 748:1 858:1 1099:1 1152:1 1182:1 1221:1 1224:1 1225:1 1226:1 1230:1 1236:1 1237:1 1238:1 1245:1 1248:1 1249:1 1251:1 1259:1 1264:1
-1 222:1 1224:3 1235:1 1264:3
-1 598:1 1224:1 1226:1 1264:1
-1 139:1 153:1 174:1 377:1 465:1 467:1 657:1 673:1 678:1 684:1 774:1 976:1 1224:2 1230:1 1251:1 1264:2
-1 157:1 226:1 418:1 524:1 598:1 748:1 1182:1 1216:1 1224:2 1226:1 1236:1 1237:1 1238:1 1243:1 1249:1 1264:2
-1 222:1 1224:3 1235:1 1264:3
-1 222:1 1224:3 1235:1 1264:3
-1 139:1 153:1 157:1 174:1 183:1 251:1 256:1 279:1 344:1 361:1 377:1 418:1 460:1 461:1 465:1 467:1 524:1 540:1 544:1 614:1 657:1 673:1 678:1 684:1 705:1 718:1 721:1 764:1 774:1 775:1 794:1 830:1 858:1 927:1 959:1 973:1 976:1 1099:1 1152:1 1208:1 1216:1 1221:1 1224:3 1225:1 1230:1 1238:1 1243:1 1251:1 1259:1 1261:1 1264:3
-1 222:1 1224:3 1235:1 1264:3
-1 174:1 598:1 1224:5 1226:1 1251:1 1264:5
-1 222:1 1224:2 1235:1 1264:2
-1 153:1 174:1 226:1 377:1 418:1 467:1 574:1 598:1 657:1 673:1 678:1 718:1 1182:1 1224:2 1226:1 1236:1 1238:1 1248:1 1249:1 1251:1 1264:2
-1 222:1 1224:4 1235:1 1264:4
-1 174:1 1091:1 1224:1 1251:1 1264:1
-1 174:1 418:1 598:1 868:1 1223:1 1224:2 1226:1 1238:1 1251:1 1264:2
-1 598:1 748:1 1224:2 1226:1 1237:1 1264:2
-1 236:1 418:1 524:1 598:1 625:1 1182:1 1216:1 1224:2 1226:1 1238:1 1241:1 1245:1 1249:1 1264:2
-1 157:1 226:1 418:1 524:1 598:1 625:1 748:1 1182:1 1206:1 1208:1 1216:1 1224:4 1226:1 1236:1 1237:1 1238:1 1243:1 1245:1 1249:1 1260:1 1261:1 1264:4
-1 157:1 174:1 226:1 346:1 418:1 524:1 591:1 598:1 748:1 868:1 881:1 1182:1 1216:1 1222:1 1223:1 1224:2 1226:1 1229:1 1236:1 1237:1 1238:1 1243:1 1249:1 1251:1 1264:2
-1 157:1 226:2 418:2 524:1 598:5 625:3 748:1 868:1 1182:3 1206:1 1216:1 1223:1 1224:6 1226:5 1236:2 1237:1 1238:2 1243:1 1245:3 1249:3 1260:1 1264:6
-1 157:1 226:1 418:1 524:1 574:1 591:1 598:1 791:1 868:1 958:1 1182:1 1216:1 1218:1 1222:1 1223:1 1224:2 1226:1 1236:1 1238:1 1239:1 1243:1 1248:1 1249:1 1264:2
-1 157:1 226:1 418:1 524:1 574:1 591:1 598:1 791:1 868:1 920:1 958:1 1182:1 1216:1 1218:1 1222:1 1223:1 1224:2 1226:1 1236:1 1238:1 1239:1 1243:1 1248:1 1249:1 1258:1 1264:2
-1 174:1 418:1 598:1 1182:1 1224:2 1226:1 1238:1 1249:1 1251:1 1264:2
-1 418:1 524:1 598:1 868:1 1182:1 1206:1 1216:1 1223:1 1224:2 1226:1 1238:1 1249:1 1260:1 1264:2
-1 418:1 524:1 598:1 605:1 895:1 1178:1 1216:1 1224:1 1226:1 1228:1 1238:1 1264:1
-1 454:1 1219:1 1224:1 1264:1
-1 157:1 226:1 418:1 524:1 574:1 598:1 605:1 625:1 738:1 748:1 868:1 881:1 895:1 917:1 1114:1 1142:1 1182:1 1206:1 1216:1 1223:1 1224:1 1226:1 1228:1 1229:1 1236:1 1237:1 1238:1 1243:1 1245:1 1248:1 1249:1 1260:1 1264:1
-1 222:1 1224:3 1235:1 1264:3
-1 226:1 418:1 524:1 598:1 1182:1 1216:1 1224:2 1226:1 1236:1 1238:1 1249:1 1264:2
-1 598:1 1224:1 1226:1 1264:1
-1 157:1 418:2 524:1 591:1 598:4 625:2 868:1 1182:2 1216:1 1222:1 1223:1 1224:6 1226:4 1238:2 1243:1 1245:2 1249:2 1264:6
-1 174:2 598:1 1224:2 1226:1 1251:2 1264:2
-1 174:1 236:1 346:1 418:1 524:1 534:1 591:1 598:1 748:1 902:1 1182:1 1216:1 1222:1 1224:3 1226:1 1237:1 1238:1 1241:1 1249:1 1251:1 1264:3 1266:9
-1 174:1 418:1 598:1 856:1 1220:1 1224:2 1226:1 1238:1 1251:1 1264:2
-1 157:1 418:2 598:2 625:1 1182:2 1224:6 1226:2 1238:2 1243:1 1245:1 1249:2 1264:6
-1 226:1 418:1 524:1 574:1 591:1 598:1 625:1 748:1 1182:1 1206:1 1216:1 1222:1 1224:2 1226:1 1236:1 1237:1 1238:1 1245:1 1248:1 1249:1 1260:1 1264:2
-1 371:1 418:1 598:1 1224:2 1226:1 1238:1 1264:2
-1 226:1 260:1 418:1 524:1 591:1 598:1 625:1 748:1 791:1 1182:1 1188:1 1216:1 1218:1 1222:1 1224:2 1226:1 1236:1 1237:1 1238:1 1245:1 1249:1 1264:2 1266:40
-1 157:1 226:1 257:1 374:1 391:1 418:1 435:1 524:1 563:1 574:1 598:1 617:1 746:1 789:1 835:1 881:1 883:1 990:1 1128:1 1129:1 1182:1 1215:1 1216:1 1217:1 1224:2 1226:1 1229:1 1232:1 1236:1 1238:1 1240:1 1242:1 1243:1 1248:1 1249:1 1250:1 1255:1 1256:1 1262:1 1264:2
-1 222:1 1224:3 1235:1 1264:3
-1 174:1 381:1 418:1 524:1 598:1 658:1 868:1 1216:1 1223:1 1224:2 1226:1 1238:1 1251:1 1264:2
-1 174:1 381:1 418:1 524:1 598:1 868:1 1216:1 1223:1 1224:2 1226:1 1238:1 1251:1 1264:2
-1 174:1 381:1 418:1 524:1 598:1 868:1 1216:1 1223:1 1224:2 1226:1 1238:1 1251:1 1264:2
-1 598:1 1224:2 1226:1 1264:2
-1 157:1 226:1 418:1 524:1 598:1 748:1 1182:1 1206:1 1216:1 1224:2 1226:1 1236:1 1237:1 1238:1 1243:1 1249:1 1260:1 1264:2
-1 454:1 1219:1 1224:1 1264:1
-1 157:1 226:1 418:2 524:1 598:3 625:1 748:1 868:1 958:1 1182:2 1206:1 1216:1 1223:1 1224:6 1226:3 1236:1 1237:1 1238:2 1239:1 1243:1 1245:1 1249:2 1260:1 1264:6
-1 174:1 418:1 598:1 856:1 1220:1 1224:3 1226:1 1238:1 1251:1 1264:3
-1 139:1 153:1 174:1 344:1 377:1 418:1 461:1 467:1 551:1 574:1 598:1 625:1 657:1 673:1 678:1 718:1 959:1 973:1 1182:1 1197:1 1224:3 1226:1 1230:1 1238:1 1245:1 1248:1 1249:1 1251:1 1264:3
-1 139:1 153:1 157:1 174:1 226:1 377:1 418:1 467:1 524:1 598:1 657:1 673:1 678:1 705:1 721:1 738:1 868:1 963:1 971:1 1182:1 1216:1 1223:1 1224:2 1226:1 1230:1 1236:1 1238:1 1243:1 1249:1 1251:1 1259:1 1264:2
-1 157:1 226:1 418:1 524:1 598:1 605:1 649:1 868:1 895:1 901:1 1042:1 1178:1 1182:1 1216:1 1223:1 1224:1 1226:1 1228:1 1236:1 1238:1 1243:1 1249:1 1264:1
-1 418:1 574:1 598:1 625:1 748:1 792:1 810:1 1182:1 1224:2 1226:1 1234:1 1237:1 1238:1 1245:1 1248:1 1249:1 1264:2
-1 174:1 418:1 598:1 625:1 748:1 1182:1 1206:1 1224:1 1226:1 1237:1 1238:1 1245:1 1249:1 1251:1 1260:1 1264:1 1266:1
-1 122:1 174:1 598:1 702:1 759:1 1224:6 1226:1 1251:1 1264:6
-1 222:1 1224:5 1235:1 1264:5
-1 157:1 174:1 226:1 236:1 260:1 290:1 346:1 418:1 524:1 591:1 598:1 748:1 868:1 902:1 1182:1 1190:1 1199:1 1216:1 1222:1 1223:1 1224:2 1226:1 1236:1 1237:1 1238:1 1241:1 1243:1 1249:1 1251:1 1257:1 1264:2 1266:61
-1 157:1 226:1 418:1 524:1 598:1 748:1 1182:1 1206:1 1216:1 1224:3 1226:1 1236:1 1237:1 1238:1 1243:1 1249:1 1260:1 1264:3
-1 139:1 1021:1 1224:2 1230:1 1264:2
-1 139:1 598:1 1224:1 1226:1 1230:1 1264:1
-1 157:1 174:1 226:1 418:1 524:1 598:1 625:1 748:1 868:1 1182:1 1216:1 1223:1 1224:4 1226:1 1236:1 1237:1 1238:1 1243:1 1245:1 1249:1 1251:1 1264:4
-1 174:1 598:1 721:1 1224:2 1226:1 1251:1 1264:2
-1 418:1 524:1 598:1 868:1 1182:1 1216:1 1223:1 1224:1 1226:1 1238:1 1249:1 1264:1
-1 222:1 1224:3 1235:1 1264:3
-1 139:1 153:1 157:1 174:1 295:1 343:1 377:1 418:1 448:1 467:1 524:1 543:1 598:1 625:1 657:1 673:1 678:1 718:1 748:1 1182:1 1216:1 1224:1 1226:1 1227:1 1230:1 1237:1 1238:1 1243:1 1245:1 1249:1 1251:1 1264:1
-1 174:1 418:1 598:1 625:1 748:1 1182:1 1224:2 1226:1 1237:1 1238:1 1245:1 1249:1 1251:1 1264:2
-1 430:1 598:1 1224:2 1226:1 1264:2
-1 174:1 418:1 598:1 1224:4 1226:1 1238:1 1251:1 1264:4
-1 174:2 236:1 598:1 791:1 1218:1 1224:3 1226:1 1241:1 1251:2 1264:3
-1 418:1 422:1 598:1 748:1 1224:2 1226:1 1237:1 1238:1 1264:2
-1 418:1 422:1 598:1 748:1 1224:2 1226:1 1237:1 1238:1 1264:2
-1 174:1 278:1 418:1 594:1 598:1 908:1 1078:1 1224:3 1226:1 1238:1 1251:1 1264:3
-1 174:1 260:1 598:1 1051:1 1190:1 1224:2 1226:1 1251:1 1264:2
-1 236:1 598:1 1182:1 1224:2 1226:1 1241:1 1249:1 1264:2
-1 598:1 792:1 1182:1 1224:1 1226:1 1249:1 1264:1
-1 174:2 236:1 598:1 1224:3 1226:1 1241:1 1251:2 1264:3
-1 157:1 226:1 236:1 418:2 524:1 598:4 625:2 748:1 958:1 1182:2 1206:1 1216:1 1224:6 1226:4 1236:1 1237:1 1238:2 1239:1 1241:1 1243:1 1245:2 1249:2 1260:1 1264:6
-1 157:1 236:1 418:2 524:1 598:4 625:2 868:1 1182:2 1206:1 1216:1 1223:1 1224:6 1226:4 1238:2 1241:1 1243:1 1245:2 1249:2 1260:1 1264:6
-1 157:1 226:1 247:1 331:1 418:1 499:1 520:1 524:1 574:1 591:1 598:1 605:1 625:1 705:1 738:1 748:1 791:1 810:1 881:1 1015:1 1182:1 1206:1 1208:1 1214:1 1216:1 1218:1 1222:1 1224:2 1226:1 1228:1 1229:1 1234:1 1236:1 1237:1 1238:1 1243:1 1245:1 1248:1 1249:1 1253:1 1259:1 1260:1 1261:1 1264:2
-1 222:1 1224:3 1235:1 1264:3
-1 222:1 1224:2 1235:1 1264:2
-1 253:1 418:2 552:1 598:4 625:2 1182:1 1224:5 1226:4 1238:2 1245:2 1249:1 1264:5
-1 157:1 260:2 418:2 524:1 598:4 625:3 748:1 868:1 1182:2 1190:1 1206:1 1216:1 1223:1 1224:6 1226:4 1237:1 1238:2 1243:1 1245:3 1249:2 1260:1 1264:6
-1 260:1 262:1 552:1 598:1 666:1 1190:1 1224:4 1226:1 1264:4
-1 157:1 226:1 418:1 524:1 598:1 748:1 1182:1 1216:1 1224:2 1226:1 1236:1 1237:1 1238:1 1243:1 1249:1 1264:2
-1 153:1 169:1 174:1 279:1 344:1 377:1 443:1 467:1 540:1 544:1 626:1 657:1 673:1 678:1 684:1 738:1 973:1 976:1 1197:1 1224:2 1251:1 1264:2
-1 174:1 598:1 1224:5 1226:1 1251:1 1264:5
-1 174:2 598:1 1224:3 1226:1 1251:2 1264:3
-1 222:1 1224:4 1235:1 1264:4
-1 454:1 1219:1 1224:1 1264:1
-1 139:1 146:1 153:1 174:1 203:1 279:1 295:1 296:1 328:1 344:1 377:1 379:1 417:1 418:1 425:1 460:1 461:1 463:1 467:1 525:1 544:1 551:1 570:1 614:1 626:1 630:1 657:1 673:1 678:1 684:1 687:1 718:1 775:1 794:1 797:1 798:1 842:1 861:1 959:1 973:1 976:1 1002:1 1004:1 1024:1 1099:1 1224:3 1230:1 1238:1 1251:1 1264:3
-1 153:1 174:1 279:1 377:1 467:1 544:1 657:1 673:1 678:1 684:1 775:1 794:1 1099:1 1224:2 1251:1 1264:2
-1 222:1 1224:2 1235:1 1264:2
-1 157:1 226:1 418:1 524:1 598:1 791:1 868:1 958:1 1182:1 1216:1 1218:1 1223:1 1224:1 1226:1 1236:1 1238:1 1239:1 1243:1 1249:1 1264:1
-1 454:1 1219:1 1224:1 1264:1
-1 157:1 418:2 598:2 625:1 1182:2 1224:7 1226:2 1238:2 1243:1 1245:1 1249:2 1264:7
-1 139:1 157:1 174:1 226:1 408:1 418:1 524:1 598:1 605:1 625:1 718:1 1122:1 1182:1 1216:1 1224:2 1226:1 1228:1 1230:1 1236:1 1238:1 1243:1 1245:1 1249:1 1251:1 1264:2
-1 157:1 226:1 418:1 524:1 598:1 748:1 1182:1 1206:1 1216:1 1224:3 1226:1 1236:1 1237:1 1238:1 1243:1 1249:1 1260:1 1264:3
-1 454:1 1219:1 1224:1 1264:1
-1 1224:3 1264:3
-1 139:1 174:1 418:1 598:1 1224:2 1226:1 1230:1 1238:1 1251:1 1264:2
-1 157:1 174:1 226:1 418:1 446:1 520:1 524:1 543:1 574:1 591:1 598:1 748:1 791:1 868:1 1152:1 1182:1 1214:1 1216:1 1218:1 1222:1 1223:1 1224:4 1225:1 1226:1 1227:1 1236:1 1237:1 1238:1 1243:1 1248:1 1249:1 1251:1 1264:4
-1 222:1 1224:3 1235:1 1264:3
-1 157:1 226:1 418:2 524:1 598:4 625:2 1182:2 1206:1 1216:1 1224:6 1226:4 1236:1 1238:2 1243:1 1245:2 1249:2 1260:1 1264:6
-1 144:1 174:1 598:1 748:1 1224:1 1226:1 1237:1 1251:1 1264:1
-1 625:1 748:1 940:1 1133:1 1224:2 1237:1 1245:1 1264:2
-1 174:2 598:1 1224:5 1226:1 1251:2 1264:5
-1 226:1 418:1 598:1 1182:1 1224:3 1226:1 1236:1 1238:1 1249:1 1264:3
-1 222:1 1224:2 1235:1 1264:2
-1 134:1 139:1 145:1 153:1 169:1 174:1 216:1 279:1 344:1 377:1 460:1 467:1 540:1 544:1 614:1 657:1 673:1 678:1 684:1 716:1 718:1 733:1 774:1 775:1 949:1 1052:1 1224:3 1230:1 1251:1 1264:3
-1 157:1 226:1 418:1 524:1 598:1 748:1 1182:1 1206:1 1216:1 1224:3 1226:1 1236:1 1237:1 1238:1 1243:1 1249:1 1260:1 1264:3
-1 222:1 1224:3 1235:1 1264:3
-1 157:1 226:1 260:3 418:2 524:1 598:5 625:3 748:2 868:1 958:1 1182:2 1188:1 1206:1 1208:1 1216:1 1223:1 1224:6 1226:5 1236:1 1237:2 1238:2 1239:1 1243:1 1245:3 1249:2 1260:1 1261:1 1264:6
-1 222:1 1224:3 1235:1 1264:3
-1 598:1 725:1 1224:3 1226:1 1264:3
-1 260:1 262:1 598:1 972:1 985:1 1190:1 1224:1 1226:1 1264:1
-1 260:1 262:1 598:1 985:1 1190:1 1224:1 1226:1 1264:1
-1 260:1 262:1 598:1 972:1 985:1 1190:1 1224:1 1226:1 1264:1
-1 418:1 486:1 517:1 598:1 621:1 862:1 897:1 1207:1 1224:1 1226:1 1238:1 1264:1
-1 454:1 1219:1 1224:1 1264:1
-1 598:1 1224:2 1226:1 1264:2
-1 141:1 174:2 278:1 594:1 598:1 622:1 1043:1 1073:1 1078:1 1224:2 1226:1 1251:2 1264:2
-1 226:1 418:1 524:1 598:1 868:1 1182:1 1216:1 1223:1 1224:1 1226:1 1236:1 1238:1 1249:1 1264:1
-1 598:1 1172:1 1224:3 1226:1 1264:3
-1 598:1 1172:1 1224:3 1226:1 1264:3
-1 598:1 1172:1 1224:3 1226:1 1264:3
-1 598:1 1172:1 1224:3 1226:1 1264:3
-1 163:1 418:1 524:1 598:1 1134:1 1144:1 1182:1 1216:1 1224:2 1226:1 1238:1 1249:1 1264:2
-1 157:1 226:2 236:1 418:3 491:1 524:1 598:5 625:2 748:1 868:1 1182:2 1188:1 1206:1 1216:1 1223:1 1224:6 1226:5 1236:2 1237:1 1238:3 1241:1 1243:1 1245:2 1247:1 1249:2 1260:1 1264:6
-1 174:1 226:1 418:1 574:1 598:1 1224:6 1226:1 1236:1 1238:1 1248:1 1251:1 1264:6
-1 118:1 134:1 139:1 145:1 153:1 169:1 174:1 193:1 200:1 201:1 203:1 217:1 227:1 256:1 279:1 344:1 349:1 361:1 375:1 377:1 460:1 465:1 467:1 544:1 576:1 578:1 614:1 625:1 657:1 673:1 678:1 679:1 684:1 699:1 705:1 718:1 733:1 774:1 775:1 794:1 949:1 959:1 963:1 973:1 975:1 976:1 1002:1 1099:1 1106:1 1197:1 1224:2 1230:1 1231:1 1245:1 1251:1 1259:1 1264:2
-1 139:1 153:1 174:1 226:1 256:1 279:1 377:1 460:1 467:1 598:1 657:1 673:1 678:1 684:1 774:1 973:1 1224:2 1226:1 1230:1 1236:1 1251:1 1264:2
-1 139:1 153:1 174:1 193:1 221:1 235:1 258:1 279:1 344:1 377:1 460:1 461:1 465:1 467:1 544:1 551:1 625:1 626:1 657:1 673:1 678:1 684:1 718:1 774:1 775:1 794:1 834:1 959:1 973:1 976:1 1099:1 1103:1 1130:1 1175:1 1197:1 1203:1 1224:2 1230:1 1245:1 1251:1 1264:2
-1 153:1 174:1 377:1 467:1 574:1 598:1 673:1 678:1 718:1 773:1 1182:1 1224:1 1226:1 1248:1 1249:1 1251:1 1264:1
-1 153:1 174:1 377:1 418:1 467:1 598:1 657:1 673:1 678:1 1224:3 1226:1 1238:1 1251:1 1264:3
-1 454:1 1219:1 1224:1 1264:1
-1 157:1 226:1 418:1 524:1 598:1 748:1 1182:1 1206:1 1216:1 1224:3 1226:1 1236:1 1237:1 1238:1 1243:1 1249:1 1260:1 1264:3
-1 222:1 1224:3 1235:1 1264:3
-1 139:1 174:1 418:1 448:1 598:1 625:1 748:1 1182:1 1224:2 1226:1 1230:1 1237:1 1238:1 1245:1 1249:1 1251:1 1264:2
-1 598:1 1224:1 1226:1 1264:1
-1 139:1 157:1 174:1 226:1 418:1 524:1 598:1 625:1 716:1 718:1 1182:1 1216:1 1224:1 1226:1 1230:1 1236:1 1238:1 1243:1 1245:1 1249:1 1251:1 1264:1
-1 222:1 1224:2 1235:1 1264:2
-1 174:1 598:1 1182:1 1224:3 1226:1 1249:1 1251:1 1264:3
-1 157:1 418:1 524:1 591:1 598:1 625:1 659:1 748:1 784:1 868:1 891:1 1182:1 1216:1 1222:1 1223:1 1224:2 1226:1 1237:1 1238:1 1243:1 1245:1 1249:1 1264:2
-1 157:1 418:1 524:1 591:1 598:1 625:1 659:1 748:1 784:1 868:1 891:1 1182:1 1216:1 1222:1 1223:1 1224:2 1226:1 1237:1 1238:1 1243:1 1245:1 1249:1 1264:2
-1 145:1 153:1 216:1 271:1 279:1 328:1 344:1 377:1 460:1 467:1 475:1 513:1 544:1 614:1 625:1 626:1 657:1 673:1 678:1 684:1 707:1 718:1 741:1 973:1 990:1 1084:1 1099:1 1197:1 1224:1 1245:1 1262:1 1264:1
-1 174:1 226:1 418:1 524:1 598:1 628:1 1182:1 1216:1 1224:2 1226:1 1236:1 1238:1 1249:1 1251:1 1264:2
-1 157:1 418:2 524:1 591:1 598:4 625:2 628:1 1182:2 1206:1 1216:1 1222:1 1224:6 1226:4 1238:2 1243:1 1245:2 1249:2 1260:1 1264:6
-1 157:1 174:1 226:1 418:1 524:1 598:1 856:1 902:1 1182:1 1216:1 1220:1 1224:2 1226:1 1236:1 1238:1 1243:1 1249:1 1251:1 1264:2
-1 157:1 226:1 236:1 418:2 524:1 598:4 625:2 1182:2 1216:1 1224:6 1226:4 1236:1 1238:2 1241:1 1243:1 1245:2 1249:2 1264:6
-1 598:1 1224:1 1226:1 1264:1
-1 598:1 1224:2 1226:1 1264:2
-1 222:1 1224:3 1235:1 1264:3
-1 330:1 1224:2 1264:2
-1 157:1 174:2 226:1 236:1 418:1 524:1 598:1 748:1 868:1 1182:1 1216:1 1223:1 1224:2 1226:1 1236:1 1237:1 1238:1 1241:1 1243:1 1249:1 1251:2 1264:2
-1 174:1 598:1 1224:2 1226:1 1251:1 1264:2
-1 157:1 226:1 365:1 418:1 481:1 524:1 574:1 598:1 625:1 738:1 748:1 868:1 1182:1 1206:1 1216:1 1223:1 1224:2 1226:1 1236:1 1237:1 1238:1 1243:1 1244:1 1245:1 1248:1 1249:1 1260:1 1264:2
-1 157:1 226:1 418:1 524:1 598:1 625:1 748:1 868:1 1182:1 1206:1 1216:1 1223:1 1224:1 1226:1 1236:1 1237:1 1238:1 1243:1 1245:1 1249:1 1260:1 1264:1
-1 174:1 418:1 598:1 718:1 738:1 1182:1 1206:1 1224:1 1226:1 1238:1 1249:1 1251:1 1260:1 1264:1
-1 139:1 145:1 153:1 216:1 271:1 279:1 377:1 460:1 467:1 544:1 657:1 678:1 684:1 774:1 775:1 990:1 1052:1 1086:1 1099:1 1224:2 1230:1 1262:1 1264:2
-1 139:1 174:1 418:1 598:1 718:1 791:1 1182:1 1206:1 1218:1 1224:1 1226:1 1230:1 1238:1 1249:1 1251:1 1260:1 1264:1 1266:3
-1 139:1 145:1 153:1 174:1 276:1 279:1 377:1 460:1 467:1 544:1 657:1 673:1 678:1 684:1 699:1 705:1 718:1 738:1 774:1 959:1 976:1 1224:1 1230:1 1251:1 1259:1 1264:1
-1 157:1 226:1 418:1 524:1 598:1 625:1 748:1 868:1 1182:1 1216:1 1223:1 1224:1 1226:1 1236:1 1237:1 1238:1 1243:1 1245:1 1249:1 1264:1
-1 222:1 1224:4 1235:1 1264:4
-1 126:1 139:1 152:1 174:1 267:1 441:1 487:1 625:1 647:1 1169:1 1224:1 1230:1 1245:1 1251:1 1264:1
-1 139:1 154:1 174:1 231:1 279:1 306:1 309:1 315:1 328:1 329:1 348:1 377:1 380:1 409:1 625:1 629:1 648:1 656:1 665:1 673:1 732:1 747:1 931:1 950:1 1197:1 1224:1 1230:1 1245:1 1251:1 1264:1
-1 139:1 150:1 153:1 174:1 235:1 256:1 279:1 344:1 345:1 361:1 377:1 460:1 467:1 540:1 544:1 576:1 625:1 657:1 673:1 678:1 684:1 687:1 718:1 774:1 797:1 798:1 949:1 1052:1 1054:1 1099:1 1197:1 1224:2 1230:1 1245:1 1251:1 1264:2
-1 222:1 1224:3 1235:1 1264:3
-1 174:1 278:1 598:1 1224:2 1226:1 1251:1 1264:2
-1 222:1 1224:3 1235:1 1264:3
-1 139:1 153:1 157:1 174:1 235:1 251:1 279:1 344:1 377:1 418:1 425:1 461:1 467:1 524:1 543:1 551:1 574:1 598:1 614:1 626:1 657:1 673:1 678:1 684:1 691:1 718:1 774:1 775:1 804:1 959:1 975:1 976:1 1099:1 1110:1 1182:1 1188:1 1198:1 1216:1 1224:3 1226:1 1227:1 1230:1 1238:1 1243:1 1248:1 1249:1 1251:1 1264:3
-1 222:1 1224:3 1235:1 1264:3
-1 222:1 1224:3 1235:1 1264:3
-1 222:1 1224:3 1235:1 1264:3
-1 157:1 174:1 418:1 598:1 1182:1 1224:2 1226:1 1238:1 1243:1 1249:1 1251:1 1264:2
-1 598:1 1224:1 1226:1 1264:1
-1 157:1 226:1 290:1 418:1 524:1 591:1 598:1 748:1 868:1 1114:1 1166:1 1182:1 1199:1 1216:1 1222:1 1223:1 1224:2 1226:1 1233:1 1236:1 1237:1 1238:1 1243:1 1249:1 1257:1 1264:2 1266:2
-1 174:1 226:1 418:1 598:1 1182:1 1224:3 1226:1 1236:1 1238:1 1249:1 1251:1 1264:3
-1 157:1 418:2 598:4 625:1 1182:3 1224:4 1226:4 1238:2 1243:1 1245:1 1249:3 1264:4
-1 139:1 153:1 169:1 174:1 201:1 279:1 344:1 364:1 377:1 460:1 467:1 475:1 544:1 546:1 657:1 673:1 678:1 684:1 707:1 738:1 774:1 775:1 794:1 949:1 963:1 1052:1 1106:1 1224:2 1230:1 1251:1 1264:2
-1 174:1 381:1 598:1 922:1 1224:3 1226:1 1251:1 1264:3
-1 122:1 174:1 598:1 702:1 759:1 1224:6 1226:1 1251:1 1264:6
-1 122:1 174:1 598:1 702:1 759:1 1224:6 1226:1 1251:1 1264:6
-1 122:1 174:1 598:1 702:1 759:1 1224:5 1226:1 1251:1 1264:5
-1 122:1 174:1 598:1 702:1 759:1 1224:5 1226:1 1251:1 1264:5
-1 174:2 278:1 446:1 594:1 598:1 1078:1 1224:2 1226:1 1251:2 1264:2
-1 139:1 153:1 216:1 271:1 377:1 467:1 643:1 657:1 678:1 684:1 718:1 990:1 1099:1 1224:2 1230:1 1262:1 1264:2
-1 139:1 153:1 216:1 271:1 377:1 467:1 643:1 657:1 678:1 684:1 718:1 990:1 1099:1 1224:2 1230:1 1262:1 1264:2
-1 174:1 598:1 1224:6 1226:1 1251:1 1264:6
-1 222:1 1224:3 1235:1 1264:3
-1 151:1 153:1 174:1 235:1 249:1 279:1 344:1 377:1 460:1 461:1 467:1 513:1 540:1 544:1 625:1 657:1 673:1 678:1 684:1 705:1 718:1 774:1 775:1 794:1 959:1 973:1 976:1 1099:1 1130:1 1175:1 1203:1 1224:2 1245:1 1251:1 1254:1 1259:1 1264:2
-1 153:1 174:1 235:1 256:1 279:1 344:1 377:1 438:1 460:1 465:1 467:1 544:1 625:1 631:1 657:1 673:1 678:1 718:1 774:1 775:1 794:1 976:1 1165:1 1175:1 1197:1 1203:1 1224:2 1245:1 1251:1 1264:2
-1 139:1 144:1 153:1 174:1 227:1 235:1 279:1 377:1 411:1 460:1 461:1 467:1 525:1 544:1 657:1 673:1 678:1 684:1 705:1 718:1 736:1 775:1 794:1 959:1 973:1 976:1 1086:1 1099:1 1197:1 1198:1 1224:2 1230:1 1251:1 1259:1 1264:2
-1 153:1 174:1 279:1 293:1 344:1 377:1 418:1 467:1 657:1 673:1 678:1 691:1 718:1 738:1 774:1 825:1 1203:1 1224:2 1238:1 1251:1 1264:2
-1 153:1 174:1 221:1 279:1 344:1 377:1 438:1 460:1 461:1 465:1 467:1 625:1 657:1 673:1 678:1 718:1 738:1 774:1 959:1 976:1 979:1 1130:1 1175:1 1203:1 1224:2 1245:1 1251:1 1264:2
-1 222:1 1224:3 1235:1 1264:3
-1 222:1 1224:2 1235:1 1264:2
-1 139:1 153:1 174:1 344:1 377:1 460:1 467:1 520:1 544:1 657:1 673:1 678:1 684:1 774:1 1214:1 1224:2 1230:1 1251:1 1264:2
-1 222:1 1224:3 1235:1 1264:3
-1 174:2 508:1 598:1 653:1 674:1 702:1 759:1 1013:1 1182:1 1224:4 1226:1 1249:1 1251:2 1264:4
-1 418:1 598:1 1224:2 1226:1 1238:1 1264:2
-1 222:1 1224:3 1235:1 1264:3
-1 222:1 1224:3 1235:1 1264:3
-1 222:1 1224:3 1235:1 1264:3
-1 139:1 174:1 479:1 598:1 1224:2 1226:1 1230:1 1251:1 1264:2
-1 157:1 226:1 365:1 418:1 574:1 598:1 625:1 738:1 1182:1 1206:1 1224:1 1226:1 1236:1 1238:1 1243:1 1244:1 1245:1 1248:1 1249:1 1260:1 1264:1 1266:3
-1 157:1 418:1 524:1 598:1 1182:1 1206:1 1216:1 1224:2 1226:1 1238:1 1243:1 1249:1 1260:1 1264:2
-1 157:1 418:1 499:1 524:1 574:1 598:1 625:1 748:1 1182:1 1216:1 1224:1 1226:1 1237:1 1238:1 1243:1 1245:1 1248:1 1249:1 1253:1 1264:1
-1 222:1 1224:3 1235:1 1264:3
-1 598:1 1224:1 1226:1 1264:1
-1 153:1 157:1 174:1 226:1 377:1 418:1 467:1 598:1 657:1 673:1 678:1 691:1 705:1 718:1 748:1 963:1 971:1 1182:1 1224:2 1226:1 1236:1 1237:1 1238:1 1243:1 1249:1 1251:1 1259:1 1264:2
-1 153:1 174:1 226:1 377:1 418:1 467:1 574:1 657:1 673:1 678:1 718:1 748:1 1224:3 1236:1 1237:1 1238:1 1248:1 1251:1 1264:3
-1 174:1 598:1 1224:2 1226:1 1251:1 1264:2 1266:1
-1 174:1 598:1 1224:2 1226:1 1251:1 1264:2 1266:1
-1 157:1 226:1 260:1 343:1 418:1 524:1 574:1 591:1 598:1 625:1 748:1 868:1 1182:1 1190:1 1216:1 1222:1 1223:1 1224:2 1226:1 1236:1 1237:1 1238:1 1243:1 1245:1 1248:1 1249:1 1264:2
-1 157:1 226:1 260:1 343:1 418:1 524:1 574:1 591:1 598:1 625:1 748:1 868:1 1182:1 1190:1 1216:1 1222:1 1223:1 1224:3 1226:1 1236:1 1237:1 1238:1 1243:1 1245:1 1248:1 1249:1 1264:3
-1 174:1 418:1 552:1 598:1 1117:1 1224:3 1226:1 1238:1 1251:1 1264:3
-1 157:1 418:2 598:4 625:1 1182:3 1224:4 1226:4 1238:2 1243:1 1245:1 1249:3 1264:4
-1 139:1 153:1 174:1 344:1 377:1 418:1 467:1 574:1 598:1 625:1 657:1 673:1 678:1 718:1 791:1 927:1 955:1 958:1 963:1 1157:1 1206:1 1218:1 1224:2 1226:1 1230:1 1238:1 1239:1 1245:1 1248:1 1251:1 1260:1 1264:2
-1 157:1 226:1 418:1 524:1 574:1 598:1 605:1 625:1 748:1 895:1 917:1 1142:1 1182:1 1206:1 1216:1 1224:1 1226:1 1228:1 1236:1 1237:1 1238:1 1243:1 1245:1 1248:1 1249:1 1260:1 1264:1
-1 157:1 226:1 418:1 524:1 598:1 605:1 791:1 868:1 1182:1 1216:1 1218:1 1223:1 1224:1 1226:1 1228:1 1236:1 1238:1 1243:1 1249:1 1264:1
-1 157:1 226:1 418:1 524:1 598:1 748:1 1182:1 1206:1 1216:1 1224:2 1226:1 1236:1 1237:1 1238:1 1243:1 1249:1 1260:1 1264:2
-1 157:1 226:2 418:2 524:1 598:4 625:2 748:1 868:1 1182:2 1206:1 1216:1 1223:1 1224:6 1226:4 1236:2 1237:1 1238:2 1243:1 1245:2 1249:2 1260:1 1264:6
-1 157:1 418:2 598:2 625:1 1182:2 1224:7 1226:2 1238:2 1243:1 1245:1 1249:2 1264:7
-1 222:1 1224:3 1235:1 1264:3
-1 134:1 139:1 153:1 174:1 193:1 279:1 328:1 361:1 377:1 460:1 467:1 544:1 578:1 657:1 673:1 678:1 684:1 774:1 794:1 973:1 1052:1 1099:1 1197:1 1224:2 1230:1 1251:1 1264:2
-1 139:1 153:1 174:1 256:1 279:1 345:1 377:1 448:1 467:1 474:1 544:1 598:1 657:1 673:1 678:1 973:1 1197:1 1224:2 1226:1 1230:1 1251:1 1264:2
-1 222:1 1224:3 1235:1 1264:3
-1 222:1 1224:2 1235:1 1264:2
-1 157:1 418:2 598:4 625:2 1182:3 1224:6 1226:4 1238:2 1243:1 1245:2 1249:3 1264:6
-1 454:1 1219:1 1224:3 1264:3
-1 454:1 1219:1 1224:2 1264:2
-1 454:1 1219:1 1224:2 1264:2
-1 454:1 1219:1 1224:2 1264:2
-1 454:1 1219:1 1224:2 1264:2
-1 454:1 1219:1 1224:2 1264:2
-1 454:1 1219:1 1224:1 1264:1
-1 454:1 1219:1 1224:1 1264:1
-1 454:1 1219:1 1224:2 1264:2
-1 454:1 1219:1 1224:1 1264:1
-1 454:1 1219:1 1224:1 1264:1
-1 454:1 1219:1 1224:1 1264:1
-1 153:1 174:1 377:1 418:1 448:1 461:1 467:1 574:1 598:1 657:1 673:1 678:1 718:1 959:1 1182:1 1224:3 1226:1 1238:1 1248:1 1249:1 1251:1 1264:3
-1 153:1 174:1 217:1 247:1 249:1 364:1 377:1 418:1 461:1 467:1 524:1 598:1 625:1 657:1 673:1 678:1 705:1 718:1 736:1 738:1 748:1 850:1 858:1 881:1 963:1 1038:1 1099:1 1106:1 1130:1 1182:1 1216:1 1221:1 1224:1 1226:1 1229:1 1231:1 1237:1 1238:1 1245:1 1249:1 1251:1 1254:1 1259:1 1264:1
-1 153:1 174:1 279:1 377:1 438:1 467:1 657:1 673:1 678:1 976:1 1224:2 1251:1 1264:2
-1 157:1 418:1 524:1 574:1 598:1 625:1 748:1 868:1 891:1 1182:1 1216:1 1223:1 1224:1 1226:1 1237:1 1238:1 1243:1 1245:1 1248:1 1249:1 1264:1
-1 222:1 1224:4 1235:1 1264:4
-1 222:1 1224:3 1235:1 1264:3
-1 174:2 236:1 598:1 1224:3 1226:1 1241:1 1251:2 1264:3
-1 174:2 598:1 1224:2 1226:1 1251:2 1264:2
-1 139:1 153:1 169:1 174:1 256:1 279:1 377:1 467:1 657:1 673:1 678:1 684:1 718:1 775:1 1099:1 1224:1 1230:1 1251:1 1264:1
-1 165:1 442:1 598:1 1172:1 1224:2 1226:1 1264:2
-1 157:1 418:2 598:2 625:1 1182:2 1224:7 1226:2 1238:2 1243:1 1245:1 1249:2 1264:7
-1 174:1 226:1 253:1 261:1 418:1 524:1 543:1 574:1 598:1 605:1 625:1 748:1 749:1 809:1 868:1 1182:1 1216:1 1223:1 1224:1 1226:1 1227:1 1228:1 1236:1 1237:1 1238:1 1245:1 1248:1 1249:1 1251:1 1264:1 1266:43
-1 226:1 418:1 524:1 598:1 1182:1 1216:1 1224:2 1226:1 1236:1 1238:1 1249:1 1264:2
-1 174:1 598:1 1182:1 1224:2 1226:1 1249:1 1251:1 1264:2
-1 418:1 507:1 598:1 640:1 686:1 941:1 1224:2 1226:1 1238:1 1264:2
-1 157:1 174:1 226:1 343:1 418:1 499:1 524:1 574:1 598:1 625:1 738:1 748:1 881:1 1182:1 1206:1 1216:1 1224:3 1226:1 1229:1 1236:1 1237:1 1238:1 1243:1 1245:1 1248:1 1249:1 1251:1 1253:1 1260:1 1264:3
-1 139:1 146:1 153:1 174:1 180:1 228:1 235:1 279:1 377:1 439:1 467:1 521:1 544:1 592:1 630:1 657:1 673:1 678:1 684:1 733:1 794:1 973:1 1099:1 1123:1 1204:1 1224:2 1230:1 1251:1 1264:2
-1 174:1 226:1 418:1 598:1 625:1 748:1 1182:1 1224:2 1226:1 1236:1 1237:1 1238:1 1245:1 1249:1 1251:1 1264:2
-1 157:1 226:1 418:1 524:1 598:1 625:1 748:1 868:1 1182:1 1206:1 1216:1 1223:1 1224:2 1226:1 1236:1 1237:1 1238:1 1243:1 1245:1 1249:1 1260:1 1264:2
-1 139:1 153:1 174:1 214:1 217:1 226:1 235:1 279:1 361:1 377:1 418:1 460:1 467:1 493:1 598:1 657:1 673:1 678:1 684:1 718:1 774:1 794:1 1002:1 1103:1 1182:1 1189:1 1197:1 1206:1 1224:3 1226:1 1230:1 1231:1 1236:1 1238:1 1249:1 1251:1 1260:1 1264:3
-1 157:1 418:1 524:1 598:1 1182:1 1206:1 1216:1 1224:2 1226:1 1238:1 1243:1 1249:1 1260:1 1264:2
-1 157:1 418:1 524:1 598:1 1182:1 1206:1 1216:1 1224:2 1226:1 1238:1 1243:1 1249:1 1260:1 1264:2
-1 157:1 226:1 418:1 598:1 625:1 748:1 868:1 1182:1 1223:1 1224:1 1226:1 1236:1 1237:1 1238:1 1243:1 1245:1 1249:1 1264:1
-1 222:1 1224:3 1235:1 1264:3
-1 157:1 418:2 598:2 625:1 1182:2 1224:7 1226:2 1238:2 1243:1 1245:1 1249:2 1264:7
-1 139:1 144:1 174:1 226:1 331:1 418:1 505:1 524:1 574:1 598:1 605:1 625:1 705:1 738:1 748:1 804:1 919:1 1182:1 1216:1 1224:1 1226:1 1228:1 1230:1 1236:1 1237:1 1238:1 1245:1 1248:1 1249:1 1251:1 1259:1 1264:1
-1 174:1 226:1 418:1 598:1 1182:1 1224:4 1226:1 1236:1 1238:1 1249:1 1251:1 1264:4
-1 166:1 520:1 598:1 1172:1 1214:1 1224:3 1226:1 1264:3
-1 520:1 598:1 727:1 1172:1 1214:1 1224:3 1226:1 1264:3
-1 157:1 418:2 524:1 598:5 625:2 1182:2 1206:1 1216:1 1224:6 1226:5 1238:2 1243:1 1245:2 1249:2 1260:1 1264:6
-1 157:1 226:1 418:1 598:1 1182:1 1224:1 1226:1 1236:1 1238:1 1243:1 1249:1 1264:1
-1 598:1 1160:1 1224:1 1226:1 1264:1
-1 174:1 418:1 598:1 718:1 1182:1 1224:2 1226:1 1238:1 1249:1 1251:1 1264:2
-1 166:1 174:2 274:1 418:1 524:1 598:1 705:1 791:1 1182:1 1216:1 1218:1 1224:4 1226:1 1238:1 1249:1 1251:2 1259:1 1264:4 1266:5590
-1 157:1 418:2 598:2 625:1 1182:2 1224:7 1226:2 1238:2 1243:1 1245:1 1249:2 1264:7
-1 174:1 226:1 418:1 598:1 1182:1 1224:4 1226:1 1236:1 1238:1 1249:1 1251:1 1264:4
-1 139:1 157:1 174:1 226:1 343:1 418:1 598:1 691:1 748:1 929:1 1110:1 1182:1 1224:2 1226:1 1230:1 1236:1 1237:1 1238:1 1243:1 1249:1 1251:1 1264:2
-1 139:1 153:1 174:1 194:1 235:1 344:1 377:1 418:1 460:1 467:1 544:1 598:1 620:1 657:1 673:1 678:1 718:1 719:1 738:1 963:1 971:1 973:1 1182:1 1224:3 1226:1 1230:1 1238:1 1249:1 1251:1 1264:3
-1 153:1 174:1 279:1 377:1 425:1 467:1 657:1 673:1 678:1 718:1 803:1 1177:1 1224:2 1251:1 1264:2
-1 157:1 226:1 418:1 524:1 598:1 748:1 1182:1 1206:1 1216:1 1224:3 1226:1 1236:1 1237:1 1238:1 1243:1 1249:1 1260:1 1264:3
-1 157:1 357:1 418:1 446:1 524:1 574:1 598:1 625:1 748:1 895:1 1182:1 1216:1 1224:2 1226:1 1237:1 1238:1 1243:1 1245:1 1248:1 1249:1 1264:2
-1 489:1 598:1 621:1 953:1 1031:1 1224:2 1226:1 1264:2
-1 157:1 226:1 418:1 489:1 524:1 574:1 598:1 621:1 625:1 748:1 953:1 1031:1 1182:1 1206:1 1216:1 1224:1 1226:1 1236:1 1237:1 1238:1 1243:1 1245:1 1248:1 1249:1 1260:1 1264:1
-1 222:1 1224:4 1235:1 1264:4
-1 222:1 1224:2 1235:1 1264:2
-1 222:1 1224:3 1235:1 1264:3
-1 222:1 1224:2 1235:1 1264:2
-1 222:1 1224:3 1235:1 1264:3
-1 157:1 418:2 598:2 625:1 1182:2 1224:7 1226:2 1238:2 1243:1 1245:1 1249:2 1264:7
-1 222:1 1224:3 1235:1 1264:3
-1 157:1 226:1 418:1 524:1 598:1 748:1 1182:1 1206:1 1216:1 1224:3 1226:1 1236:1 1237:1 1238:1 1243:1 1249:1 1260:1 1264:3
-1 222:1 1224:2 1235:1 1264:2
-1 222:1 1224:2 1235:1 1264:2
-1 222:1 1224:2 1235:1 1264:2
-1 222:1 1224:2 1235:1 1264:2
-1 260:1 340:1 400:1 598:1 871:1 1224:3 1226:1 1264:3 1266:66
-1 260:1 371:1 598:1 867:1 1072:1 1224:1 1226:1 1264:1 1266:66
-1 222:1 1224:2 1235:1 1264:2
-1 145:1 153:1 174:1 235:1 279:1 344:1 361:1 364:1 377:1 460:1 540:1 544:1 625:1 657:1 673:1 678:1 684:1 718:1 738:1 775:1 927:1 963:1 973:1 976:1 1099:1 1130:1 1154:1 1161:1 1197:1 1198:1 1203:1 1224:2 1245:1 1251:1 1264:2
-1 153:1 216:1 271:1 279:1 377:1 461:1 467:1 551:1 657:1 673:1 678:1 684:1 718:1 775:1 794:1 798:1 959:1 990:1 1099:1 1224:2 1262:1 1264:2
-1 226:1 418:1 520:1 524:1 574:1 598:1 625:1 868:1 881:1 1182:1 1214:1 1216:1 1223:1 1224:1 1226:1 1229:1 1236:1 1238:1 1245:1 1248:1 1249:1 1264:1
-1 157:1 418:2 598:4 625:1 1182:3 1224:5 1226:4 1238:2 1243:1 1245:1 1249:3 1264:5
-1 418:1 598:1 1182:1 1224:1 1226:1 1238:1 1249:1 1264:1
-1 157:1 226:1 418:1 524:1 598:1 1182:1 1216:1 1224:1 1226:1 1236:1 1238:1 1243:1 1249:1 1264:1
-1 157:1 226:1 418:1 524:1 598:1 1182:1 1216:1 1224:1 1226:1 1236:1 1238:1 1243:1 1249:1 1264:1
-1 226:1 418:1 598:1 1182:1 1224:1 1226:1 1236:1 1238:1 1249:1 1264:1
-1 226:1 418:1 598:1 1182:1 1224:1 1226:1 1236:1 1238:1 1249:1 1264:1
-1 226:1 290:1 331:1 418:1 423:1 448:1 524:1 574:1 598:1 625:1 748:1 868:1 891:1 958:1 1122:1 1182:1 1206:1 1216:1 1223:1 1224:1 1226:1 1236:1 1237:1 1238:1 1239:1 1245:1 1248:1 1249:1 1260:1 1264:1
-1 226:1 290:1 331:1 418:1 423:1 448:1 524:1 574:1 598:1 625:1 748:1 868:1 891:1 958:1 1122:1 1182:1 1206:1 1216:1 1223:1 1224:1 1226:1 1236:1 1237:1 1238:1 1239:1 1245:1 1248:1 1249:1 1260:1 1264:1
-1 174:1 260:1 262:1 598:1 1224:3 1226:1 1251:1 1264:3
-1 418:1 524:1 598:1 868:1 1182:1 1216:1 1223:1 1224:1 1226:1 1238:1 1249:1 1264:1
-1 139:1 153:1 174:1 226:1 377:1 467:1 598:1 657:1 667:1 673:1 678:1 705:1 1022:1 1182:1 1224:2 1226:1 1230:1 1236:1 1249:1 1251:1 1259:1 1264:2
-1 226:1 418:1 524:1 574:1 598:1 625:1 748:1 1182:1 1216:1 1224:1 1226:1 1236:1 1237:1 1238:1 1245:1 1248:1 1249:1 1264:1
-1 174:1 222:1 574:1 598:1 625:1 748:1 1182:1 1224:3 1226:1 1235:1 1237:1 1245:1 1248:1 1249:1 1251:1 1264:3
-1 139:1 157:1 174:1 226:1 418:1 524:1 543:1 598:1 625:1 705:1 748:1 1182:1 1216:1 1224:2 1226:1 1227:1 1230:1 1236:1 1237:1 1238:1 1243:1 1245:1 1249:1 1251:1 1259:1 1264:2 1266:1
-1 157:1 174:1 260:1 418:1 524:1 598:1 1190:1 1216:1 1224:3 1226:1 1238:1 1243:1 1251:1 1264:3
-1 174:1 418:1 598:1 1224:5 1226:1 1238:1 1251:1 1264:5
-1 157:1 418:1 524:1 598:1 625:1 659:1 748:1 868:1 891:1 1182:1 1216:1 1223:1 1224:2 1226:1 1237:1 1238:1 1243:1 1245:1 1249:1 1264:2
-1 157:1 176:1 226:1 418:1 598:1 1224:2 1226:1 1236:1 1238:1 1243:1 1252:1 1264:2
-1 226:1 236:1 418:1 524:1 598:1 1182:1 1216:1 1224:2 1226:1 1236:1 1238:1 1241:1 1249:1 1264:2
-1 157:1 226:2 418:2 524:1 591:1 598:6 625:3 658:1 748:2 868:1 1182:2 1188:1 1206:1 1208:1 1216:1 1222:1 1223:1 1224:5 1226:6 1236:2 1237:2 1238:2 1243:1 1245:3 1249:2 1260:1 1261:1 1264:5
-1 139:1 174:1 598:1 610:1 1182:1 1224:2 1226:1 1230:1 1249:1 1251:1 1264:2
-1 139:1 174:1 247:1 418:1 461:1 598:1 625:1 748:1 959:1 1152:1 1182:1 1224:2 1225:1 1226:1 1230:1 1237:1 1238:1 1245:1 1249:1 1251:1 1264:2
-1 222:1 1224:3 1235:1 1264:3
-1 174:2 598:1 952:1 1224:2 1226:1 1251:2 1264:2
-1 222:1 1224:3 1235:1 1264:3
-1 222:1 1224:3 1235:1 1264:3
-1 222:1 1224:3 1235:1 1264:3
-1 157:1 226:1 418:1 524:1 598:1 625:1 659:1 748:1 868:1 881:1 891:1 1182:1 1216:1 1223:1 1224:2 1226:1 1229:1 1236:1 1237:1 1238:1 1243:1 1245:1 1249:1 1264:2
-1 454:1 1219:1 1224:1 1264:1
-1 157:1 226:1 303:1 418:1 520:1 524:1 574:1 591:1 597:1 598:1 605:1 625:1 748:1 791:1 858:1 1182:1 1206:1 1214:1 1216:1 1218:1 1221:1 1222:1 1224:1 1226:1 1228:1 1236:1 1237:1 1238:1 1243:1 1245:1 1248:1 1249:1 1260:1 1264:1 1266:4
-1 260:1 418:1 524:1 598:1 1182:1 1190:1 1216:1 1224:2 1226:1 1238:1 1249:1 1264:2
-1 174:1 598:1 1224:3 1226:1 1251:1 1264:3
-1 157:1 226:1 236:1 418:2 524:1 591:1 598:4 625:3 748:1 868:1 1182:2 1206:1 1216:1 1222:1 1223:1 1224:6 1226:4 1236:1 1237:1 1238:2 1241:1 1243:1 1245:3 1249:2 1260:1 1264:6
-1 157:1 226:1 418:1 423:1 524:1 598:1 625:1 738:1 748:1 1182:1 1206:1 1216:1 1224:1 1226:1 1236:1 1237:1 1238:1 1243:1 1245:1 1249:1 1260:1 1264:1
-1 330:1 1224:2 1264:2
-1 157:1 226:1 236:1 418:1 520:1 524:1 598:1 625:1 868:1 1182:1 1206:1 1214:1 1216:1 1223:1 1224:5 1226:1 1236:1 1238:1 1241:1 1243:1 1245:1 1249:1 1260:1 1264:5
-1 157:1 226:1 418:1 524:1 574:1 598:1 625:1 748:1 1182:1 1216:1 1224:1 1226:1 1236:1 1237:1 1238:1 1243:1 1245:1 1248:1 1249:1 1264:1
-1 157:1 226:1 418:1 524:1 574:1 598:1 625:1 748:1 868:1 891:1 1182:1 1201:1 1216:1 1223:1 1224:1 1226:1 1236:1 1237:1 1238:1 1243:1 1245:1 1248:1 1249:1 1264:1
-1 226:1 418:1 524:1 574:1 598:1 625:1 748:1 1182:1 1201:1 1216:1 1224:1 1226:1 1236:1 1237:1 1238:1 1245:1 1248:1 1249:1 1264:1
-1 398:1 598:1 893:1 1224:1 1226:1 1264:1
-1 157:1 418:1 524:1 574:1 598:1 625:1 748:1 868:1 891:1 1182:1 1216:1 1223:1 1224:1 1226:1 1237:1 1238:1 1243:1 1245:1 1248:1 1249:1 1264:1
-1 226:1 418:1 598:1 1182:1 1224:1 1226:1 1236:1 1238:1 1249:1 1264:1
-1 226:1 418:1 491:1 524:1 574:1 598:1 625:1 748:1 868:1 891:1 1080:1 1182:1 1216:1 1223:1 1224:1 1226:1 1236:1 1237:1 1238:1 1245:1 1247:1 1248:1 1249:1 1264:1
-1 157:1 226:1 331:1 343:1 418:1 524:1 543:1 574:1 591:1 598:1 605:1 625:1 705:1 748:1 868:1 891:1 1182:1 1188:1 1208:1 1216:1 1222:1 1223:1 1224:1 1226:1 1227:1 1228:1 1236:1 1237:1 1238:1 1243:1 1245:1 1248:1 1249:1 1259:1 1261:1 1264:1
-1 226:1 418:1 524:1 574:1 598:1 625:1 748:1 868:1 891:1 1182:1 1216:1 1223:1 1224:1 1226:1 1236:1 1237:1 1238:1 1245:1 1248:1 1249:1 1264:1
-1 157:1 226:1 343:1 418:1 448:1 520:1 524:1 574:1 591:1 598:1 625:1 738:1 748:1 791:1 868:1 891:1 1182:1 1214:1 1216:1 1218:1 1222:1 1223:1 1224:1 1226:1 1236:1 1237:1 1238:1 1243:1 1245:1 1248:1 1249:1 1264:1
-1 157:1 226:1 418:1 524:1 574:1 598:1 625:1 1182:1 1216:1 1224:1 1226:1 1236:1 1238:1 1243:1 1245:1 1248:1 1249:1 1264:1
-1 157:1 338:1 418:1 524:1 574:1 598:1 625:1 748:1 868:1 891:1 1182:1 1216:1 1223:1 1224:1 1226:1 1237:1 1238:1 1243:1 1245:1 1248:1 1249:1 1264:1
-1 157:1 418:2 598:2 625:1 1182:2 1224:7 1226:2 1238:2 1243:1 1245:1 1249:2 1264:7
-1 157:1 174:1 418:1 524:1 598:1 748:1 1182:1 1216:1 1224:2 1226:1 1237:1 1238:1 1243:1 1249:1 1251:1 1264:2
-1 157:1 226:1 284:1 418:1 524:1 598:1 748:1 1182:1 1216:1 1224:1 1226:1 1236:1 1237:1 1238:1 1243:1 1249:1 1264:1 1266:14
-1 236:1 598:1 1224:2 1226:1 1241:1 1264:2
-1 174:1 226:1 418:1 524:1 598:1 625:1 748:1 856:1 1182:1 1206:1 1216:1 1220:1 1224:1 1226:1 1236:1 1237:1 1238:1 1245:1 1249:1 1251:1 1260:1 1264:1
-1 157:1 418:1 598:1 1182:1 1206:1 1224:2 1226:1 1238:1 1243:1 1249:1 1260:1 1264:2
-1 157:1 418:2 598:2 625:1 1182:2 1224:7 1226:2 1238:2 1243:1 1245:1 1249:2 1264:7
-1 236:1 598:1 1224:2 1226:1 1241:1 1264:2
-1 134:1 145:1 153:1 174:1 193:1 200:1 279:1 344:1 361:1 377:1 420:1 460:1 467:1 657:1 673:1 678:1 684:1 764:1 775:1 776:1 794:1 859:1 976:1 1052:1 1099:1 1224:2 1251:1 1264:2
-1 236:1 598:1 1224:2 1226:1 1241:1 1264:2
-1 236:1 598:1 1224:2 1226:1 1241:1 1264:2
-1 236:1 598:1 1224:2 1226:1 1241:1 1264:2
-1 236:1 598:1 1224:2 1226:1 1241:1 1264:2
-1 418:1 524:1 574:1 598:1 625:1 1152:1 1182:1 1216:1 1224:1 1225:1 1226:1 1238:1 1245:1 1248:1 1249:1 1264:1
-1 226:1 418:1 598:1 858:1 1182:1 1221:1 1224:1 1226:1 1236:1 1238:1 1249:1 1264:1
-1 226:1 343:1 418:1 524:1 574:1 598:1 625:1 748:1 868:1 891:1 1182:1 1188:1 1206:1 1216:1 1223:1 1224:1 1226:1 1236:1 1237:1 1238:1 1245:1 1248:1 1249:1 1260:1 1264:1
-1 157:1 174:1 226:1 418:1 524:1 598:1 625:1 748:1 773:1 868:1 1003:1 1182:1 1188:1 1216:1 1223:1 1224:1 1226:1 1236:1 1237:1 1238:1 1243:1 1245:1 1249:1 1251:1 1264:1
-1 418:1 524:1 598:1 621:1 625:1 748:1 868:1 1182:1 1216:1 1223:1 1224:1 1226:1 1237:1 1238:1 1245:1 1249:1 1264:1
-1 222:1 1224:3 1235:1 1264:3
-1 222:1 1224:3 1235:1 1264:3
-1 226:1 418:1 524:1 574:1 598:1 625:1 748:1 868:1 891:1 1182:1 1216:1 1223:1 1224:1 1226:1 1236:1 1237:1 1238:1 1245:1 1248:1 1249:1 1264:1
-1 139:1 153:1 174:1 377:1 418:1 467:1 493:1 598:1 657:1 673:1 678:1 679:1 791:1 927:1 958:1 963:1 1157:1 1182:1 1218:1 1224:2 1226:1 1230:1 1238:1 1239:1 1249:1 1251:1 1264:2
-1 174:1 226:1 418:1 574:1 598:1 1224:2 1226:1 1236:1 1238:1 1248:1 1251:1 1264:2
-1 454:1 1219:1 1224:1 1264:1
-1 157:1 174:1 418:1 598:1 773:1 1182:1 1224:1 1226:1 1238:1 1243:1 1249:1 1251:1 1264:1
-1 222:1 1224:3 1235:1 1264:3
-1 418:1 598:1 1224:2 1226:1 1238:1 1264:2
-1 157:1 226:1 418:1 524:1 574:1 598:1 605:1 625:1 748:1 868:1 1182:1 1208:1 1216:1 1223:1 1224:1 1226:1 1228:1 1236:1 1237:1 1238:1 1243:1 1245:1 1248:1 1249:1 1261:1 1264:1
-1 163:1 418:1 524:1 598:1 748:1 784:1 1216:1 1224:2 1226:1 1237:1 1238:1 1264:2
-1 163:1 418:1 524:1 598:1 748:1 784:1 1216:1 1224:2 1226:1 1237:1 1238:1 1264:2
-1 163:1 418:1 524:1 598:1 748:1 784:1 1216:1 1224:2 1226:1 1237:1 1238:1 1264:2
-1 163:1 418:1 524:1 598:1 748:1 784:1 1216:1 1224:2 1226:1 1237:1 1238:1 1264:2
-1 260:1 262:1 598:1 1190:1 1224:3 1226:1 1264:3
-1 598:1 1064:1 1224:2 1226:1 1264:2
-1 222:1 1224:4 1235:1 1264:4
-1 157:1 226:1 418:1 524:1 598:1 748:1 1182:1 1206:1 1216:1 1224:3 1226:1 1236:1 1237:1 1238:1 1243:1 1249:1 1260:1 1264:3
-1 222:1 1224:4 1235:1 1264:4
-1 454:1 1219:1 1224:1 1264:1
-1 257:1 284:1 374:1 391:1 435:1 563:1 598:1 617:1 748:1 789:1 835:1 883:1 990:1 1036:1 1128:1 1129:1 1182:1 1215:1 1217:1 1224:3 1226:1 1232:1 1237:1 1240:1 1242:1 1249:1 1250:1 1255:1 1256:1 1262:1 1264:3 1266:8
-1 371:1 418:1 524:1 598:1 625:1 748:1 957:1 1036:1 1182:1 1216:1 1224:1 1226:1 1237:1 1238:1 1245:1 1249:1 1264:1 1266:4
-1 454:1 1219:1 1224:1 1264:1
-1 278:1 594:1 598:1 895:1 917:1 1224:3 1226:1 1264:3
-1 174:1 598:1 1224:3 1226:1 1251:1 1264:3
-1 157:1 226:2 418:2 524:1 591:1 598:4 625:3 748:1 868:1 1182:2 1206:1 1216:1 1222:1 1223:1 1224:6 1226:4 1236:2 1237:1 1238:2 1243:1 1245:3 1249:2 1260:1 1264:6
-1 157:1 174:1 226:1 418:1 524:1 598:1 748:1 856:1 902:1 1020:1 1182:1 1206:1 1216:1 1220:1 1224:2 1226:1 1236:1 1237:1 1238:1 1243:1 1249:1 1251:1 1260:1 1264:2
-1 139:1 174:1 365:1 418:1 598:1 738:1 1182:1 1224:3 1226:1 1230:1 1238:1 1244:1 1249:1 1251:1 1264:3
-1 418:2 598:2 625:1 1182:2 1224:7 1226:2 1238:2 1245:1 1249:2 1264:7
-1 139:1 145:1 153:1 169:1 174:1 180:1 193:1 226:1 229:1 256:1 279:1 344:1 361:1 377:1 411:1 418:1 425:1 460:1 461:1 467:1 494:1 505:1 524:1 543:1 544:1 551:1 574:1 579:1 598:1 614:1 625:1 626:1 643:1 657:1 663:1 673:1 678:1 684:1 695:1 699:1 705:1 718:1 734:1 738:1 760:1 774:1 775:1 794:1 800:1 804:1 818:1 826:1 834:1 842:1 858:1 859:1 864:1 927:1 929:1 949:1 959:1 973:1 975:1 976:1 1004:1 1023:1 1061:1 1065:1 1099:1 1115:1 1135:1 1154:1 1197:1 1216:1 1221:1 1224:2 1226:1 1227:1 1230:1 1236:1 1238:1 1245:1 1248:1 1251:1 1259:1 1264:2
-1 260:1 262:1 418:1 524:1 591:1 598:1 1182:1 1190:1 1216:1 1222:1 1224:2 1226:1 1238:1 1249:1 1264:2
-1 222:1 1224:3 1235:1 1264:3
-1 222:1 1224:2 1235:1 1264:2
-1 222:1 1224:3 1235:1 1264:3
-1 222:1 1224:4 1235:1 1264:4
-1 222:1 1224:2 1235:1 1264:2
-1 174:1 226:1 362:1 418:1 574:1 598:1 748:1 1182:1 1224:2 1226:1 1236:1 1237:1 1238:1 1248:1 1249:1 1251:1 1264:2
-1 153:1 157:1 174:1 365:1 377:1 418:1 467:1 598:1 657:1 678:1 1224:2 1226:1 1238:1 1243:1 1244:1 1251:1 1264:2
-1 290:1 418:1 591:1 598:1 1222:1 1224:2 1226:1 1238:1 1264:2
-1 174:1 226:1 362:1 417:1 418:1 499:1 524:1 574:1 598:1 625:1 748:1 818:1 861:1 915:1 1182:1 1216:1 1224:1 1226:1 1236:1 1237:1 1238:1 1245:1 1248:1 1249:1 1251:1 1253:1 1264:1
-1 174:1 418:1 598:1 791:1 1218:1 1224:5 1226:1 1238:1 1251:1 1264:5 1266:7
-1 222:1 1224:4 1235:1 1264:4
-1 176:1 598:1 1224:3 1226:1 1252:1 1264:3
-1 598:1 1224:2 1226:1 1264:2
-1 130:1 174:1 260:1 418:1 470:1 524:1 598:1 1013:1 1190:1 1216:1 1224:2 1226:1 1238:1 1251:1 1264:2
-1 222:1 1224:3 1235:1 1264:3
-1 222:1 1224:3 1235:1 1264:3
-1 418:1 598:1 1224:4 1226:1 1238:1 1264:4
-1 174:2 598:1 791:1 1185:1 1218:1 1224:2 1226:1 1251:2 1264:2
-1 174:2 598:1 1224:2 1226:1 1251:2 1264:2
-1 157:1 174:1 226:1 418:1 524:1 574:1 598:1 748:1 868:1 1216:1 1223:1 1224:2 1226:1 1236:1 1237:1 1238:1 1243:1 1248:1 1251:1 1264:2
-1 174:1 418:1 598:1 868:1 1223:1 1224:2 1226:1 1238:1 1251:1 1264:2
-1 174:1 418:1 598:1 868:1 1223:1 1224:2 1226:1 1238:1 1251:1 1264:2
-1 174:1 418:1 524:1 598:1 868:1 1216:1 1223:1 1224:2 1226:1 1238:1 1251:1 1264:2
-1 139:1 174:1 479:1 598:1 1224:2 1226:1 1230:1 1251:1 1264:2
-1 174:2 236:1 598:1 1206:1 1224:5 1226:1 1241:1 1251:2 1260:1 1264:5
-1 222:1 1224:3 1235:1 1264:3
-1 157:1 226:1 418:1 556:1 574:1 598:1 625:1 736:1 748:1 791:1 795:1 810:1 858:1 868:1 1107:1 1152:1 1182:1 1206:1 1218:1 1221:1 1223:1 1224:2 1225:1 1226:1 1234:1 1236:1 1237:1 1238:1 1243:1 1245:1 1248:1 1249:1 1260:1 1264:2
-1 174:1 226:1 418:1 598:1 625:1 748:1 1224:3 1226:1 1236:1 1237:1 1238:1 1245:1 1251:1 1264:3
-1 174:2 236:1 598:1 1224:3 1226:1 1241:1 1251:2 1264:3
-1 358:1 418:1 598:1 1224:3 1226:1 1238:1 1264:3
-1 174:2 236:1 290:1 418:1 598:1 1199:1 1224:3 1226:1 1238:1 1241:1 1251:2 1257:1 1264:3
-1 174:2 290:1 598:1 869:1 1224:2 1226:1 1251:2 1264:2
-1 598:1 1224:1 1226:1 1264:1
-1 157:1 174:1 226:1 418:1 598:1 625:1 748:1 984:1 1182:1 1224:1 1226:1 1236:1 1237:1 1238:1 1243:1 1245:1 1249:1 1251:1 1264:1
-1 454:1 1219:1 1224:1 1264:1
-1 222:1 1224:3 1235:1 1264:3
-1 135:1 226:1 391:1 418:1 524:1 563:1 574:1 598:1 617:1 625:1 748:1 789:1 804:1 881:1 883:1 898:1 990:1 1128:1 1129:1 1182:1 1206:1 1215:1 1216:1 1217:1 1224:2 1226:1 1229:1 1232:1 1236:1 1237:1 1238:1 1240:1 1242:1 1245:1 1248:1 1249:1 1255:1 1256:1 1260:1 1262:1 1264:2
-1 174:1 226:1 278:1 418:1 594:1 598:1 1078:1 1224:4 1226:1 1236:1 1238:1 1251:1 1264:4
-1 139:1 157:1 174:1 222:1 418:1 524:1 543:1 574:1 598:1 605:1 748:1 1216:1 1224:3 1226:1 1227:1 1228:1 1230:1 1235:1 1237:1 1238:1 1243:1 1248:1 1251:1 1264:3
-1 222:1 1224:3 1235:1 1264:3
-1 157:1 174:1 226:1 236:1 418:1 524:1 598:1 625:1 748:1 868:1 1182:1 1216:1 1223:1 1224:4 1226:1 1236:1 1237:1 1238:1 1241:1 1243:1 1245:1 1249:1 1251:1 1264:4
-1 222:1 1224:3 1235:1 1264:3
-1 157:1 226:1 418:1 524:1 550:1 574:1 591:1 598:1 625:1 659:1 748:1 791:1 868:1 891:1 1182:1 1216:1 1218:1 1222:1 1223:1 1224:2 1226:1 1236:1 1237:1 1238:1 1243:1 1245:1 1248:1 1249:1 1264:2
-1 176:1 418:1 598:1 1224:3 1226:1 1238:1 1252:1 1264:3
-1 226:1 418:1 524:1 574:1 598:1 625:1 748:1 791:1 833:1 1182:1 1216:1 1218:1 1224:4 1226:1 1236:1 1237:1 1238:1 1245:1 1248:1 1249:1 1264:4
-1 157:1 226:1 418:1 524:1 598:1 748:1 1182:1 1216:1 1224:2 1226:1 1236:1 1237:1 1238:1 1243:1 1249:1 1264:2
-1 157:1 174:1 213:1 226:1 236:1 418:1 524:1 591:1 598:1 625:1 705:1 748:1 791:1 833:1 868:1 920:1 958:1 1182:1 1216:1 1218:1 1222:1 1223:1 1224:5 1226:1 1236:1 1237:1 1238:1 1239:1 1241:1 1243:1 1245:1 1249:1 1251:1 1258:1 1259:1 1264:5
-1 418:1 598:1 791:1 1182:1 1206:1 1218:1 1224:1 1226:1 1238:1 1249:1 1260:1 1264:1
-1 157:1 226:1 418:1 520:1 524:1 574:1 598:1 605:1 625:1 748:1 791:1 1182:1 1206:1 1214:1 1216:1 1218:1 1224:2 1226:1 1228:1 1236:1 1237:1 1238:1 1243:1 1245:1 1248:1 1249:1 1260:1 1264:2
-1 157:1 226:1 260:1 418:2 422:1 524:1 598:5 625:3 748:1 771:1 821:1 868:1 1182:2 1190:1 1206:1 1216:1 1223:1 1224:6 1226:5 1236:1 1237:1 1238:2 1243:1 1245:3 1249:2 1260:1 1264:6
-1 139:1 174:1 479:1 598:1 1224:2 1226:1 1230:1 1251:1 1264:2
-1 174:1 226:1 418:1 598:1 1224:3 1226:1 1236:1 1238:1 1251:1 1264:3
-1 139:1 153:1 174:1 235:1 279:1 361:1 377:1 460:1 465:1 467:1 657:1 673:1 678:1 684:1 774:1 775:1 794:1 982:1 1052:1 1103:1 1193:1 1224:2 1230:1 1251:1 1264:2
-1 157:1 418:1 524:1 598:1 748:1 1182:1 1216:1 1224:1 1226:1 1237:1 1238:1 1243:1 1249:1 1264:1 1266:5
-1 153:1 174:1 344:1 377:1 460:1 467:1 657:1 673:1 678:1 684:1 774:1 775:1 791:1 807:1 1052:1 1197:1 1218:1 1224:2 1251:1 1264:2
-1 174:1 226:1 418:1 598:1 1182:1 1224:3 1226:1 1236:1 1238:1 1249:1 1251:1 1264:3
-1 391:1 563:1 598:1 617:1 746:1 789:1 883:1 944:1 990:1 1128:1 1129:1 1182:1 1215:1 1217:1 1224:4 1226:1 1232:1 1240:1 1242:1 1249:1 1255:1 1256:1 1262:1 1264:4 1266:36
-1 157:1 174:1 226:1 418:1 598:1 625:1 1224:4 1226:1 1236:1 1238:1 1243:1 1245:1 1251:1 1264:4
-1 153:1 174:1 377:1 467:1 598:1 657:1 673:1 678:1 818:1 1224:3 1226:1 1251:1 1264:3
-1 222:1 1224:3 1235:1 1264:3
-1 174:2 598:1 1224:2 1226:1 1251:2 1264:2
-1 174:1 418:1 598:1 738:1 748:1 1224:2 1226:1 1237:1 1238:1 1251:1 1264:2
-1 226:1 418:1 524:1 543:1 598:1 748:1 1182:1 1216:1 1224:2 1226:1 1227:1 1236:1 1237:1 1238:1 1249:1 1264:2
-1 226:1 418:1 524:1 598:1 625:1 748:1 1182:1 1216:1 1224:2 1226:1 1236:1 1237:1 1238:1 1245:1 1249:1 1264:2
-1 226:1 418:1 524:1 598:1 625:1 748:1 1182:1 1216:1 1224:2 1226:1 1236:1 1237:1 1238:1 1245:1 1249:1 1264:2
-1 598:1 1224:3 1226:1 1264:3
-1 139:1 157:1 174:1 218:1 226:1 418:1 524:1 543:1 574:1 598:1 605:1 625:1 748:1 1182:1 1216:1 1224:1 1226:1 1227:1 1228:1 1230:1 1236:1 1237:1 1238:1 1243:1 1245:1 1248:1 1249:1 1251:1 1264:1
-1 454:1 1219:1 1224:1 1264:1
-1 418:1 598:1 625:1 748:1 1206:1 1224:2 1226:1 1237:1 1238:1 1245:1 1260:1 1264:2
-1 153:1 216:1 271:1 279:1 344:1 377:1 460:1 467:1 617:1 657:1 678:1 684:1 774:1 775:1 965:1 973:1 990:1 1052:1 1099:1 1197:1 1224:1 1240:1 1262:1 1264:1
-1 123:1 174:1 418:1 598:1 625:1 748:1 856:1 1182:1 1220:1 1224:2 1226:1 1237:1 1238:1 1245:1 1249:1 1251:1 1264:2 1266:5
-1 157:1 418:1 524:1 598:1 625:1 748:1 1182:1 1206:1 1216:1 1224:5 1226:1 1237:1 1238:1 1243:1 1245:1 1249:1 1260:1 1264:5
-1 174:2 226:1 418:1 524:1 591:1 598:1 1216:1 1222:1 1224:2 1226:1 1236:1 1238:1 1251:2 1264:2 1266:116
-1 174:1 418:1 591:1 598:1 1206:1 1222:1 1224:3 1226:1 1238:1 1251:1 1260:1 1264:3
-1 157:1 418:2 598:2 625:1 1182:2 1224:7 1226:2 1238:2 1243:1 1245:1 1249:2 1264:7
-1 157:1 226:1 418:1 524:1 598:1 748:1 1182:1 1206:1 1216:1 1224:3 1226:1 1236:1 1237:1 1238:1 1243:1 1249:1 1260:1 1264:3
-1 139:1 153:1 174:1 226:1 377:1 461:1 467:1 598:1 625:1 657:1 673:1 678:1 718:1 738:1 959:1 1182:1 1224:2 1226:1 1230:1 1236:1 1245:1 1249:1 1251:1 1264:2
-1 153:1 174:1 279:1 377:1 418:1 467:1 598:1 657:1 673:1 678:1 684:1 718:1 748:1 1099:1 1224:3 1226:1 1237:1 1238:1 1251:1 1264:3
-1 139:1 174:1 598:1 1224:1 1226:1 1230:1 1251:1 1264:1
-1 157:1 260:3 418:2 524:1 598:4 625:2 868:1 1182:2 1190:2 1206:1 1216:1 1223:1 1224:6 1226:4 1238:2 1243:1 1245:2 1249:2 1260:1 1264:6
-1 153:1 174:1 377:1 418:1 467:1 524:1 574:1 598:1 657:1 673:1 678:1 684:1 718:1 868:1 1099:1 1182:1 1216:1 1223:1 1224:3 1226:1 1238:1 1248:1 1249:1 1251:1 1264:3
-1 139:1 174:1 418:1 574:1 598:1 791:1 1206:1 1218:1 1224:2 1226:1 1230:1 1238:1 1248:1 1251:1 1260:1 1264:2
-1 157:1 159:1 226:1 236:1 239:1 418:1 524:1 574:1 591:1 598:1 625:1 688:1 748:1 791:1 812:1 829:1 868:1 881:1 1113:1 1182:1 1216:1 1218:1 1222:1 1223:1 1224:2 1226:1 1229:1 1236:1 1237:1 1238:1 1241:1 1243:1 1245:1 1248:1 1249:1 1264:2 1266:368
-1 418:1 524:1 591:1 598:1 1206:1 1216:1 1222:1 1224:2 1226:1 1238:1 1260:1 1264:2
-1 292:1 940:1 1224:2 1264:2
-1 174:2 226:1 598:1 1224:2 1226:1 1236:1 1251:2 1264:2
-1 598:1 791:1 1218:1 1224:2 1226:1 1264:2
-1 598:1 1224:2 1226:1 1264:2
-1 157:1 418:2 524:1 568:1 598:5 625:3 748:1 868:1 1182:2 1206:1 1216:1 1223:1 1224:6 1226:5 1237:1 1238:2 1243:1 1245:3 1249:2 1260:1 1264:6
-1 418:1 524:1 598:1 868:1 1182:1 1216:1 1223:1 1224:4 1226:1 1238:1 1249:1 1264:4
-1 157:1 226:1 418:1 524:1 598:1 748:1 791:1 868:1 895:1 1216:1 1218:1 1223:1 1224:2 1226:1 1236:1 1237:1 1238:1 1243:1 1264:2
-1 552:1 598:1 895:1 1224:2 1226:1 1264:2
-1 552:1 598:1 895:1 1224:2 1226:1 1264:2
-1 598:1 1224:3 1226:1 1264:3
-1 174:2 260:1 552:1 598:1 609:1 1190:1 1224:2 1226:1 1251:2 1264:2
-1 139:1 157:1 174:1 226:1 247:1 253:1 343:1 346:1 418:1 524:1 574:1 591:1 598:1 605:1 625:1 720:1 748:1 809:1 857:1 1152:1 1182:1 1216:1 1222:1 1224:2 1225:1 1226:1 1228:1 1230:1 1236:1 1237:1 1238:1 1243:1 1245:1 1248:1 1249:1 1251:1 1264:2
-1 157:1 158:1 226:1 418:1 524:1 574:1 591:1 598:1 625:1 738:1 748:1 753:1 791:1 810:1 868:1 881:1 958:1 1152:1 1182:1 1216:1 1218:1 1222:1 1223:1 1224:3 1225:1 1226:1 1229:1 1234:1 1236:1 1237:1 1238:1 1239:1 1243:1 1245:1 1248:1 1249:1 1264:3
-1 157:1 158:1 226:1 418:1 524:1 591:1 598:1 625:1 738:1 748:1 810:1 868:1 881:1 958:1 1182:1 1216:1 1222:1 1223:1 1224:2 1226:1 1229:1 1234:1 1236:1 1237:1 1238:1 1239:1 1243:1 1245:1 1249:1 1264:2
-1 132:1 174:1 237:1 418:1 598:1 1224:7 1226:1 1238:1 1251:1 1264:7
-1 174:2 226:1 260:1 418:1 524:1 591:1 598:1 868:1 1190:1 1216:1 1222:1 1223:1 1224:2 1226:1 1236:1 1238:1 1251:2 1264:2 1266:112
-1 157:1 226:1 418:3 524:1 598:5 625:2 748:1 868:1 1182:2 1206:1 1216:1 1223:1 1224:6 1226:5 1236:1 1237:1 1238:3 1243:1 1245:2 1249:2 1260:1 1264:6
-1 157:1 418:2 598:4 625:1 1182:3 1224:4 1226:4 1238:2 1243:1 1245:1 1249:3 1264:4
-1 174:2 208:1 226:1 236:1 327:1 418:1 598:1 1083:1 1224:2 1226:1 1236:1 1238:1 1241:1 1251:2 1264:2
-1 174:2 598:1 1182:1 1224:3 1226:1 1249:1 1251:2 1264:3
-1 520:1 598:1 611:1 621:1 791:1 1182:1 1214:1 1218:1 1224:2 1226:1 1249:1 1264:2
-1 174:1 226:1 260:1 534:1 598:1 902:1 1051:1 1190:1 1224:2 1226:1 1236:1 1251:1 1264:2
-1 157:1 174:1 418:1 479:1 490:1 598:1 718:1 1182:1 1224:2 1226:1 1238:1 1243:1 1249:1 1251:1 1264:2
-1 454:1 1219:1 1224:1 1264:1
-1 157:1 174:1 226:1 418:1 524:1 574:1 598:1 738:1 748:1 791:1 807:1 833:1 868:1 1182:1 1216:1 1218:1 1223:1 1224:1 1226:1 1236:1 1237:1 1238:1 1243:1 1248:1 1249:1 1251:1 1264:1
-1 134:1 139:1 145:1 153:1 174:1 193:1 235:1 256:1 279:1 344:1 361:1 377:1 460:1 467:1 544:1 657:1 673:1 678:1 684:1 718:1 719:1 774:1 775:1 834:1 859:1 973:1 1001:1 1052:1 1070:1 1115:1 1193:1 1197:1 1224:2 1230:1 1251:1 1264:2
-1 174:1 418:1 598:1 791:1 1218:1 1224:2 1226:1 1238:1 1251:1 1264:2
-1 350:1 598:1 601:1 899:1 991:1 1172:1 1224:3 1226:1 1264:3
-1 174:2 236:1 598:1 1206:1 1224:4 1226:1 1241:1 1251:2 1260:1 1264:4
-1 134:1 139:1 145:1 153:1 174:1 279:1 344:1 377:1 460:1 467:1 544:1 657:1 673:1 678:1 684:1 774:1 775:1 791:1 807:1 927:1 1052:1 1197:1 1218:1 1224:1 1230:1 1251:1 1264:1
-1 418:1 524:1 598:1 1216:1 1224:2 1226:1 1238:1 1264:2
-1 418:1 524:1 591:1 598:1 868:1 1216:1 1222:1 1223:1 1224:2 1226:1 1238:1 1264:2
-1 192:1 260:1 418:1 524:1 598:1 868:1 1190:1 1216:1 1223:1 1224:2 1226:1 1238:1 1264:2
-1 157:1 226:1 415:1 418:1 524:1 574:1 598:1 625:1 748:1 868:1 891:1 911:1 958:1 1182:1 1216:1 1223:1 1224:2 1226:1 1236:1 1237:1 1238:1 1239:1 1243:1 1245:1 1248:1 1249:1 1264:2
-1 157:1 226:1 418:1 524:1 574:1 598:1 625:1 748:1 868:1 891:1 1182:1 1216:1 1223:1 1224:1 1226:1 1236:1 1237:1 1238:1 1243:1 1245:1 1248:1 1249:1 1264:1
-1 157:1 226:1 418:1 459:1 524:1 574:1 598:1 625:1 748:1 868:1 891:1 911:1 1136:1 1182:1 1216:1 1223:1 1224:1 1226:1 1236:1 1237:1 1238:1 1243:1 1245:1 1248:1 1249:1 1264:1
-1 157:1 226:1 270:1 332:1 418:1 459:1 524:1 574:1 598:1 625:1 748:1 868:1 891:1 911:1 918:1 1136:1 1182:1 1201:1 1216:1 1223:1 1224:1 1226:1 1236:1 1237:1 1238:1 1243:1 1245:1 1248:1 1249:1 1264:1 1266:21
-1 157:1 226:1 287:1 418:1 524:1 574:1 598:1 625:1 748:1 868:1 891:1 1182:1 1216:1 1223:1 1224:1 1226:1 1236:1 1237:1 1238:1 1243:1 1245:1 1248:1 1249:1 1264:1
-1 157:1 332:1 418:1 524:1 574:1 598:1 625:1 748:1 868:1 891:1 1182:1 1216:1 1223:1 1224:1 1226:1 1237:1 1238:1 1243:1 1245:1 1248:1 1249:1 1264:1
-1 157:1 418:2 598:2 625:1 1182:2 1224:7 1226:2 1238:2 1243:1 1245:1 1249:2 1264:7
-1 157:1 174:1 226:1 326:1 418:1 524:1 598:1 718:1 1182:1 1216:1 1224:2 1226:1 1236:1 1238:1 1243:1 1249:1 1251:1 1264:2 1266:39
-1 157:1 174:1 226:1 326:1 418:1 598:1 1182:1 1224:2 1226:1 1236:1 1238:1 1243:1 1249:1 1251:1 1264:2 1266:39
-1 157:1 418:2 598:2 625:1 1182:2 1224:6 1226:2 1238:2 1243:1 1245:1 1249:2 1264:6
-1 174:1 226:1 418:1 524:1 598:1 773:1 868:1 1182:1 1216:1 1223:1 1224:1 1226:1 1236:1 1238:1 1249:1 1251:1 1264:1
-1 139:1 174:1 226:1 418:1 524:1 574:1 598:1 625:1 628:1 645:1 705:1 715:1 738:1 748:1 1182:1 1206:1 1216:1 1224:2 1226:1 1230:1 1236:1 1237:1 1238:1 1245:1 1248:1 1249:1 1251:1 1259:1 1260:1 1264:2
-1 174:1 598:1 879:1 1182:1 1224:2 1226:1 1249:1 1251:1 1264:2
-1 255:1 418:1 598:1 895:1 1224:2 1226:1 1238:1 1264:2
-1 174:2 598:1 1224:2 1226:1 1251:2 1264:2
-1 157:1 226:1 418:1 524:1 598:1 748:1 1182:1 1206:1 1216:1 1224:3 1226:1 1236:1 1237:1 1238:1 1243:1 1249:1 1260:1 1264:3
-1 129:1 153:1 216:1 271:1 377:1 461:1 467:1 598:1 625:1 657:1 678:1 738:1 741:1 748:1 786:1 959:1 990:1 1099:1 1182:1 1224:1 1226:1 1237:1 1245:1 1249:1 1262:1 1264:1
-1 174:2 260:1 418:1 436:1 470:1 524:1 598:1 1190:1 1216:1 1224:2 1226:1 1238:1 1251:2 1264:2
-1 226:1 236:1 260:1 418:1 524:1 574:1 591:1 598:1 625:1 748:1 791:1 978:1 1166:1 1182:1 1188:1 1206:1 1216:1 1218:1 1222:1 1224:2 1226:1 1233:1 1236:1 1237:1 1238:1 1241:1 1245:1 1248:1 1249:1 1260:1 1264:2 1266:5
-1 174:1 226:1 418:1 598:1 1182:1 1224:3 1226:1 1236:1 1238:1 1249:1 1251:1 1264:3
-1 454:1 1219:1 1224:1 1264:1
-1 174:2 260:1 418:1 470:1 524:1 598:1 1190:1 1216:1 1224:2 1226:1 1238:1 1251:2 1264:2
-1 139:1 153:1 157:1 167:1 216:1 226:1 257:1 271:1 295:1 377:1 417:1 418:1 461:1 463:1 467:1 524:1 531:1 543:1 551:1 574:1 598:1 604:1 605:1 617:1 625:1 632:1 657:1 673:1 678:1 687:1 718:1 738:1 798:1 804:1 861:1 959:1 975:1 990:1 1099:1 1182:1 1216:1 1224:2 1226:1 1227:1 1228:1 1230:1 1236:1 1238:1 1240:1 1243:1 1245:1 1248:1 1249:1 1262:1 1264:2
-1 157:1 226:1 418:2 524:1 598:5 625:2 748:1 813:1 1182:2 1206:1 1208:1 1216:1 1224:6 1226:5 1236:1 1237:1 1238:2 1243:1 1245:2 1249:2 1260:1 1261:1 1264:6
-1 157:1 174:1 346:1 418:1 598:1 868:1 1223:1 1224:1 1226:1 1238:1 1243:1 1251:1 1264:1
-1 222:1 1224:3 1235:1 1264:3
-1 222:1 1224:2 1235:1 1264:2
-1 157:1 226:1 418:1 524:1 598:1 748:1 1182:1 1206:1 1216:1 1224:3 1226:1 1236:1 1237:1 1238:1 1243:1 1249:1 1260:1 1264:3
-1 139:1 174:1 448:1 598:1 625:1 738:1 748:1 1182:1 1224:2 1226:1 1230:1 1237:1 1245:1 1249:1 1251:1 1264:2
-1 454:1 1219:1 1224:1 1264:1
-1 174:1 254:1 418:1 598:1 856:1 902:1 1090:1 1220:1 1224:2 1226:1 1238:1 1251:1 1264:2
-1 174:1 598:1 1224:6 1226:1 1251:1 1264:6
-1 174:2 598:1 1224:2 1226:1 1251:2 1264:2
-1 174:1 598:1 1224:5 1226:1 1251:1 1264:5
-1 174:2 598:1 1224:3 1226:1 1251:2 1264:3
-1 174:2 418:1 598:1 791:1 1013:1 1182:1 1218:1 1224:4 1226:1 1238:1 1249:1 1251:2 1264:4
-1 174:2 598:1 791:1 1218:1 1224:4 1226:1 1251:2 1264:4
-1 174:1 506:1 508:1 598:1 1224:3 1226:1 1251:1 1264:3
-1 157:1 163:1 226:1 418:1 524:1 574:1 591:1 598:1 625:1 659:1 748:1 868:1 891:1 1182:1 1216:1 1222:1 1223:1 1224:2 1226:1 1236:1 1237:1 1238:1 1243:1 1245:1 1248:1 1249:1 1264:2
-1 157:1 226:1 418:1 524:1 598:1 625:1 748:1 868:1 1182:1 1206:1 1208:1 1216:1 1223:1 1224:5 1226:1 1236:1 1237:1 1238:1 1243:1 1245:1 1249:1 1260:1 1261:1 1264:5
-1 157:1 226:1 418:1 524:1 598:1 625:1 1182:1 1206:1 1216:1 1224:4 1226:1 1236:1 1238:1 1243:1 1245:1 1249:1 1260:1 1264:4
-1 157:1 226:1 418:1 524:1 591:1 598:1 625:1 748:1 868:1 958:1 1182:1 1206:1 1208:1 1216:1 1222:1 1223:1 1224:5 1226:1 1236:1 1237:1 1238:1 1239:1 1243:1 1245:1 1249:1 1260:1 1261:1 1264:5
-1 157:1 174:2 226:1 418:1 524:1 598:1 625:1 748:1 850:1 868:1 1182:1 1216:1 1223:1 1224:4 1226:1 1236:1 1237:1 1238:1 1243:1 1245:1 1249:1 1251:2 1264:4
-1 598:1 748:1 1224:2 1226:1 1237:1 1264:2
-1 230:1 370:1 421:1 598:1 613:1 725:1 782:1 923:1 1035:1 1048:1 1058:1 1224:1 1226:1 1264:1 1266:75
-1 139:1 145:1 153:1 174:1 180:1 276:1 279:1 293:1 331:1 344:1 361:1 377:1 460:1 465:1 467:1 475:1 544:1 592:1 614:1 625:1 657:1 673:1 678:1 679:1 684:1 705:1 707:1 718:1 738:1 774:1 775:1 798:1 916:1 1086:1 1197:1 1224:2 1230:1 1245:1 1251:1 1259:1 1264:2
-1 598:1 1224:2 1226:1 1264:2
-1 418:1 507:1 598:1 686:1 941:1 1224:3 1226:1 1238:1 1264:3
-1 157:1 226:1 418:1 524:1 598:1 748:1 1182:1 1206:1 1216:1 1224:2 1226:1 1236:1 1237:1 1238:1 1243:1 1249:1 1260:1 1264:2
-1 174:1 598:1 1224:1 1226:1 1251:1 1264:1
-1 222:1 1224:3 1235:1 1264:3
-1 157:1 418:1 524:1 598:1 625:1 659:1 748:1 868:1 891:1 1182:1 1216:1 1223:1 1224:2 1226:1 1237:1 1238:1 1243:1 1245:1 1249:1 1264:2
-1 418:1 598:1 605:1 621:1 748:1 897:1 1224:1 1226:1 1228:1 1237:1 1238:1 1264:1
-1 418:1 598:1 1224:3 1226:1 1238:1 1264:3
-1 139:1 153:1 174:1 344:1 364:1 377:1 418:1 467:1 493:1 598:1 625:1 657:1 673:1 678:1 679:1 718:1 791:1 927:1 955:1 958:1 963:1 1103:1 1157:1 1218:1 1224:2 1226:1 1230:1 1238:1 1239:1 1245:1 1251:1 1264:2
-1 236:1 418:1 598:1 1182:1 1224:2 1226:1 1238:1 1241:1 1249:1 1264:2
-1 598:1 1224:2 1226:1 1264:2
-1 174:2 598:1 1224:2 1226:1 1251:2 1264:2
-1 222:1 1224:3 1235:1 1264:3
-1 125:1 140:1 260:1 447:1 552:1 598:1 650:1 685:1 785:1 1224:2 1226:1 1264:2
-1 157:1 174:1 226:1 418:1 524:1 598:1 868:1 1182:1 1188:1 1216:1 1223:1 1224:4 1226:1 1236:1 1238:1 1243:1 1249:1 1251:1 1264:4
-1 157:1 226:1 418:1 524:1 598:1 748:1 1182:1 1206:1 1216:1 1224:3 1226:1 1236:1 1237:1 1238:1 1243:1 1249:1 1260:1 1264:3
-1 174:1 184:1 202:1 238:1 299:1 383:1 390:1 418:1 452:1 508:1 509:1 598:1 606:1 703:1 723:1 767:1 882:1 907:1 926:1 935:1 937:1 947:1 977:1 1046:1 1081:1 1162:1 1224:6 1226:1 1238:1 1251:1 1264:6
-1 174:1 184:1 202:1 238:1 299:1 390:1 418:1 452:1 508:1 509:1 598:1 606:1 703:1 723:1 882:1 907:1 926:1 937:1 947:1 977:1 1046:1 1081:1 1162:1 1224:6 1226:1 1238:1 1251:1 1264:6
-1 157:1 226:1 418:1 524:1 598:1 748:1 1182:1 1206:1 1216:1 1224:3 1226:1 1236:1 1237:1 1238:1 1243:1 1249:1 1260:1 1264:3
-1 157:1 418:2 598:2 625:1 1182:2 1224:7 1226:2 1238:2 1243:1 1245:1 1249:2 1264:7
-1 222:1 1224:4 1235:1 1264:4
-1 174:1 346:1 418:1 524:1 591:1 598:1 748:1 784:1 987:1 1216:1 1222:1 1224:4 1226:1 1237:1 1238:1 1251:1 1264:4
-1 157:1 226:1 418:1 524:1 598:1 748:1 1182:1 1206:1 1216:1 1224:3 1226:1 1236:1 1237:1 1238:1 1243:1 1249:1 1260:1 1264:3
-1 130:1 179:1 192:1 260:1 352:1 398:1 552:1 598:1 609:1 698:1 893:1 1190:1 1224:1 1226:1 1264:1
-1 174:2 598:1 1224:5 1226:1 1251:2 1264:5 1266:73
-1 157:1 236:1 260:1 418:1 524:1 591:1 598:1 1216:1 1222:1 1224:2 1226:1 1238:1 1241:1 1243:1 1264:2
-1 260:1 418:1 507:1 524:1 598:1 686:1 941:1 1120:1 1190:1 1216:1 1224:2 1226:1 1238:1 1264:2
-1 430:1 598:1 1224:2 1226:1 1264:2
-1 260:1 262:1 418:1 598:1 704:1 748:1 932:1 1190:1 1224:3 1226:1 1237:1 1238:1 1264:3
-1 174:1 598:1 1224:2 1226:1 1251:1 1264:2
-1 222:1 1224:3 1235:1 1264:3
-1 157:1 418:2 598:2 625:1 1182:2 1224:7 1226:2 1238:2 1243:1 1245:1 1249:2 1264:7
-1 330:1 1224:1 1264:1
-1 226:1 418:1 524:1 598:1 1182:1 1216:1 1224:3 1226:1 1236:1 1238:1 1249:1 1264:3
-1 157:1 226:1 371:1 418:1 524:1 598:1 868:1 1074:1 1092:1 1208:1 1216:1 1223:1 1224:1 1226:1 1236:1 1238:1 1243:1 1261:1 1264:1
-1 226:1 418:1 574:1 598:1 738:1 748:1 858:1 920:1 1182:1 1206:1 1221:1 1224:1 1226:1 1236:1 1237:1 1238:1 1248:1 1249:1 1258:1 1260:1 1264:1
-1 574:1 598:1 1224:1 1226:1 1248:1 1264:1
-1 226:1 418:1 574:1 598:1 748:1 1224:3 1226:1 1236:1 1237:1 1238:1 1248:1 1264:3
-1 454:1 1219:1 1224:1 1264:1
-1 157:1 226:2 290:1 418:2 524:1 591:1 598:4 625:2 868:1 1114:1 1182:2 1206:1 1216:1 1222:1 1223:1 1224:6 1226:4 1236:2 1238:2 1243:1 1245:2 1249:2 1260:1 1264:6
-1 153:1 174:1 247:1 375:1 377:1 411:1 418:1 460:1 467:1 598:1 625:1 657:1 673:1 678:1 679:1 684:1 718:1 730:1 775:1 791:1 927:1 955:1 958:1 963:1 1052:1 1106:1 1157:1 1182:1 1197:1 1218:1 1224:1 1226:1 1238:1 1239:1 1245:1 1249:1 1251:1 1264:1
-1 174:1 418:1 598:1 1224:5 1226:1 1238:1 1251:1 1264:5
-1 139:1 153:1 174:1 279:1 344:1 377:1 418:1 460:1 467:1 540:1 544:1 657:1 673:1 678:1 684:1 774:1 973:1 1099:1 1197:1 1224:1 1230:1 1238:1 1251:1 1264:1
-1 157:1 226:2 290:1 418:2 524:1 598:4 625:3 748:5 868:1 1114:1 1182:2 1206:1 1216:1 1223:1 1224:7 1226:4 1236:2 1237:5 1238:2 1243:1 1245:3 1249:2 1260:1 1264:7
-1 157:1 174:2 226:1 260:1 418:1 524:1 598:1 625:1 748:1 868:1 1078:1 1182:1 1216:1 1223:1 1224:2 1226:1 1236:1 1237:1 1238:1 1243:1 1245:1 1249:1 1251:2 1264:2
-1 139:1 153:1 174:1 377:1 418:1 467:1 598:1 627:1 657:1 678:1 858:1 1182:1 1196:1 1221:1 1224:1 1226:1 1230:1 1238:1 1249:1 1251:1 1264:1
-1 157:1 226:1 418:1 574:1 598:1 791:1 1182:1 1218:1 1224:2 1226:1 1236:1 1238:1 1243:1 1248:1 1249:1 1264:2
-1 222:1 1224:3 1235:1 1264:3
-1 157:1 179:1 226:1 260:1 262:1 418:1 524:1 552:1 591:1 598:1 895:1 917:1 1142:1 1190:1 1216:1 1222:1 1224:2 1226:1 1236:1 1238:1 1243:1 1264:2
-1 157:1 174:1 226:1 418:1 422:1 524:1 598:1 625:1 748:1 856:1 868:1 1182:1 1206:1 1216:1 1220:1 1223:1 1224:1 1226:1 1236:1 1237:1 1238:1 1243:1 1245:1 1249:1 1251:1 1260:1 1264:1
-1 174:1 268:1 278:1 594:1 598:1 1224:3 1226:1 1251:1 1264:3
-1 144:1 157:1 226:1 343:1 418:1 422:1 488:1 524:1 574:1 591:1 598:1 605:1 625:1 748:1 791:1 868:1 891:1 1182:1 1188:1 1206:1 1208:1 1216:1 1218:1 1222:1 1223:1 1224:4 1226:1 1228:1 1236:1 1237:1 1238:1 1243:1 1245:1 1248:1 1249:1 1260:1 1261:1 1264:4
-1 174:1 278:1 594:1 598:1 956:1 1078:1 1224:4 1226:1 1251:1 1264:4
-1 598:1 1224:1 1226:1 1264:1
-1 418:1 524:1 598:1 1216:1 1224:1 1226:1 1238:1 1264:1
-1 185:1 226:1 398:1 418:1 524:1 598:1 625:1 893:1 1182:1 1216:1 1224:1 1226:1 1236:1 1238:1 1245:1 1249:1 1264:1
-1 157:1 418:2 598:2 625:1 1182:2 1224:7 1226:2 1238:2 1243:1 1245:1 1249:2 1264:7
-1 119:1 226:1 365:1 371:1 418:1 524:1 543:1 574:1 598:1 605:1 619:1 625:1 748:1 1074:1 1152:1 1182:1 1188:1 1208:1 1216:1 1224:1 1225:1 1226:1 1227:1 1228:1 1236:1 1237:1 1238:1 1244:1 1245:1 1248:1 1249:1 1261:1 1264:1 1266:44
-1 226:1 371:1 418:1 524:1 574:1 598:1 619:1 625:1 738:1 748:1 1182:1 1216:1 1224:2 1226:1 1236:1 1237:1 1238:1 1245:1 1248:1 1249:1 1264:2 1266:1
-1 153:1 157:1 174:1 226:1 377:1 418:1 467:1 574:1 598:1 657:1 673:1 678:1 718:1 1182:1 1188:1 1224:2 1226:1 1236:1 1238:1 1243:1 1248:1 1249:1 1251:1 1264:2
-1 174:1 226:1 260:1 418:1 524:1 534:1 591:1 598:1 856:1 902:1 1182:1 1190:1 1216:1 1220:1 1222:1 1224:2 1226:1 1236:1 1238:1 1249:1 1251:1 1264:2 1266:92
-1 157:1 226:1 418:1 524:1 598:1 625:1 748:1 1206:1 1216:1 1224:5 1226:1 1236:1 1237:1 1238:1 1243:1 1245:1 1260:1 1264:5
-1 222:1 1224:4 1235:1 1264:4
-1 174:2 508:1 598:1 1224:3 1226:1 1251:2 1264:3
-1 174:2 508:1 598:1 1224:3 1226:1 1251:2 1264:3
-1 226:1 418:1 524:1 598:1 1182:1 1216:1 1224:2 1226:1 1236:1 1238:1 1249:1 1264:2
-1 141:1 171:1 174:2 278:1 594:1 598:1 860:1 1078:1 1224:2 1226:1 1251:2 1264:2
-1 174:1 506:1 508:1 598:1 935:1 1081:1 1224:3 1226:1 1251:1 1264:3 1266:6
-1 174:1 299:1 598:1 935:1 1224:3 1226:1 1251:1 1264:3
-1 157:1 418:2 524:1 598:6 625:3 748:1 868:1 1182:2 1206:1 1208:1 1216:1 1223:1 1224:6 1226:6 1237:1 1238:2 1243:1 1245:3 1249:2 1260:1 1261:1 1264:6
-1 174:1 515:1 598:1 608:1 836:1 1224:3 1226:1 1251:1 1264:3
-1 222:1 1224:3 1235:1 1264:3
-1 157:1 226:1 418:2 524:1 537:1 598:4 625:2 658:1 748:2 868:1 958:1 1097:1 1182:2 1206:1 1208:1 1216:1 1223:1 1224:5 1226:4 1236:1 1237:2 1238:2 1239:1 1243:1 1245:2 1249:2 1260:1 1261:1 1264:5
-1 222:1 1224:4 1235:1 1264:4
-1 157:1 226:1 418:1 524:1 598:1 768:1 895:1 917:1 1142:1 1182:1 1216:1 1224:2 1226:1 1236:1 1238:1 1243:1 1249:1 1264:2
-1 157:1 174:1 226:1 236:1 418:1 524:1 598:1 748:1 868:1 1182:1 1206:1 1216:1 1223:1 1224:4 1226:1 1236:1 1237:1 1238:1 1241:1 1243:1 1249:1 1251:1 1260:1 1264:4
-1 157:1 226:1 418:1 524:1 598:1 748:1 1182:1 1206:1 1216:1 1224:3 1226:1 1236:1 1237:1 1238:1 1243:1 1249:1 1260:1 1264:3
-1 598:1 1224:3 1226:1 1264:3
-1 157:1 226:1 236:1 418:1 524:1 591:1 598:1 748:1 868:1 891:1 1182:1 1216:1 1222:1 1223:1 1224:2 1226:1 1236:1 1237:1 1238:1 1241:1 1243:1 1249:1 1264:2
-1 598:1 1224:3 1226:1 1264:3 1266:1
-1 226:1 418:1 524:1 598:1 1182:1 1216:1 1224:2 1226:1 1236:1 1238:1 1249:1 1264:2
-1 139:1 174:1 598:1 1224:2 1226:1 1230:1 1251:1 1264:2
-1 598:1 1224:1 1226:1 1264:1
-1 222:1 1224:3 1235:1 1264:3
-1 139:1 157:1 174:1 226:1 247:1 253:1 343:1 346:1 418:1 524:1 574:1 591:1 598:1 605:1 625:1 720:1 748:1 809:1 857:1 1152:1 1182:1 1216:1 1222:1 1224:2 1225:1 1226:1 1228:1 1230:1 1236:1 1237:1 1238:1 1243:1 1245:1 1248:1 1249:1 1251:1 1264:2
-1 222:1 1224:3 1235:1 1264:3
-1 222:1 1224:3 1235:1 1264:3
-1 222:1 1224:3 1235:1 1264:3
-1 157:1 226:1 418:1 524:1 598:1 748:1 1182:1 1206:1 1216:1 1224:2 1226:1 1236:1 1237:1 1238:1 1243:1 1249:1 1260:1 1264:2
-1 174:1 598:1 1224:2 1226:1 1251:1 1264:2
-1 139:1 157:1 174:1 226:1 418:1 524:1 574:1 598:1 625:1 654:1 748:1 1182:1 1216:1 1224:2 1226:1 1230:1 1236:1 1237:1 1238:1 1243:1 1245:1 1248:1 1249:1 1251:1 1264:2
-1 371:1 598:1 1224:2 1226:1 1264:2
-1 272:1 598:1 748:1 1224:2 1226:1 1237:1 1264:2
-1 174:1 598:1 1182:1 1224:2 1226:1 1249:1 1251:1 1264:2
-1 157:1 174:2 226:1 418:1 524:1 598:1 868:1 1182:1 1216:1 1223:1 1224:3 1226:1 1236:1 1238:1 1243:1 1249:1 1251:2 1264:3
-1 157:1 174:1 418:1 598:1 1224:2 1226:1 1238:1 1243:1 1251:1 1264:2
-1 222:1 1224:4 1235:1 1264:4
-1 157:1 226:1 418:1 524:1 598:1 625:1 748:1 1182:1 1206:1 1216:1 1224:2 1226:1 1236:1 1237:1 1238:1 1243:1 1245:1 1249:1 1260:1 1264:2
-1 174:2 236:1 598:1 1224:3 1226:1 1241:1 1251:2 1264:3
-1 174:2 236:1 598:1 1224:3 1226:1 1241:1 1251:2 1264:3
-1 157:1 226:1 418:1 423:1 524:1 598:1 1182:1 1216:1 1224:3 1226:1 1236:1 1238:1 1243:1 1249:1 1264:3
-1 454:1 1219:1 1224:1 1264:1
-1 157:1 226:1 236:1 418:2 524:1 598:4 625:3 748:1 868:1 1182:2 1206:1 1216:1 1223:1 1224:6 1226:4 1236:1 1237:1 1238:2 1241:1 1243:1 1245:3 1249:2 1260:1 1264:6
-1 153:1 174:1 344:1 377:1 460:1 467:1 657:1 673:1 678:1 684:1 774:1 775:1 791:1 807:1 1052:1 1197:1 1218:1 1224:2 1251:1 1264:2
-1 174:1 598:1 952:1 1224:2 1226:1 1251:1 1264:2
-1 598:1 625:1 748:1 1224:1 1226:1 1237:1 1245:1 1264:1
-1 226:1 247:1 418:1 574:1 598:1 605:1 625:1 748:1 810:1 1182:1 1206:1 1224:1 1226:1 1228:1 1234:1 1236:1 1237:1 1238:1 1245:1 1248:1 1249:1 1260:1 1264:1
-1 157:1 226:1 418:1 524:1 574:1 598:1 625:1 748:1 868:1 891:1 1182:1 1216:1 1223:1 1224:2 1226:1 1236:1 1237:1 1238:1 1243:1 1245:1 1248:1 1249:1 1264:2
-1 226:1 418:1 598:1 1182:1 1224:1 1226:1 1236:1 1238:1 1249:1 1264:1
-1 418:1 524:1 574:1 598:1 625:1 1182:1 1216:1 1224:1 1226:1 1238:1 1245:1 1248:1 1249:1 1264:1
-1 222:1 1224:3 1235:1 1264:3
-1 418:1 524:1 598:1 1182:1 1216:1 1224:2 1226:1 1238:1 1249:1 1264:2 1266:2
-1 405:1 484:1 538:1 598:1 725:1 1224:3 1226:1 1264:3 1266:1
-1 174:1 598:1 736:1 1224:1 1226:1 1251:1 1264:1
-1 174:1 598:1 1224:1 1226:1 1251:1 1264:1
-1 174:1 226:1 598:1 718:1 1182:1 1224:1 1226:1 1236:1 1249:1 1251:1 1264:1
-1 418:1 598:1 1206:1 1224:5 1226:1 1238:1 1260:1 1264:5 1266:1
-1 598:1 1224:2 1226:1 1264:2
-1 118:1 139:1 153:1 174:1 279:1 328:1 344:1 377:1 460:1 467:1 540:1 657:1 673:1 678:1 684:1 774:1 775:1 834:1 973:1 1052:1 1197:1 1224:1 1230:1 1251:1 1264:1
-1 222:1 1224:3 1235:1 1264:3
-1 418:1 448:1 598:1 625:1 748:1 858:1 1182:1 1221:1 1224:1 1226:1 1237:1 1238:1 1245:1 1249:1 1264:1
-1 153:1 169:1 174:1 217:1 256:1 276:1 377:1 456:1 467:1 544:1 657:1 673:1 678:1 1224:1 1231:1 1251:1 1264:1
-1 153:1 174:1 279:1 377:1 467:1 544:1 657:1 673:1 678:1 718:1 1171:1 1224:2 1251:1 1264:2
-1 222:1 1224:3 1235:1 1264:3
-1 222:1 1224:2 1235:1 1264:2
-1 165:1 354:1 598:1 1172:1 1224:2 1226:1 1264:2
-1 157:1 226:1 418:1 524:1 598:1 625:1 659:1 748:1 868:1 891:1 1182:1 1216:1 1223:1 1224:2 1226:1 1236:1 1237:1 1238:1 1243:1 1245:1 1249:1 1264:2
-1 174:1 226:1 418:1 598:1 1182:1 1224:1 1226:1 1236:1 1238:1 1249:1 1251:1 1264:1
-1 174:1 226:1 362:1 395:1 418:1 499:1 574:1 598:1 625:1 705:1 748:1 881:1 920:1 948:1 1071:1 1182:1 1206:1 1224:1 1226:1 1229:1 1236:1 1237:1 1238:1 1245:1 1248:1 1249:1 1251:1 1253:1 1258:1 1259:1 1260:1 1264:1
-1 157:1 174:1 222:1 343:1 418:1 598:1 625:1 748:1 1224:4 1226:1 1235:1 1237:1 1238:1 1243:1 1245:1 1251:1 1264:4
-1 418:1 598:1 625:1 748:1 932:1 1182:1 1224:3 1226:1 1237:1 1238:1 1245:1 1249:1 1264:3
-1 598:1 625:1 748:1 895:1 1224:2 1226:1 1237:1 1245:1 1264:2
-1 174:1 331:1 362:1 418:1 499:1 598:1 620:1 625:1 738:1 748:1 1182:1 1224:2 1226:1 1237:1 1238:1 1245:1 1249:1 1251:1 1253:1 1264:2
-1 174:1 362:1 418:1 598:1 748:1 881:1 1224:2 1226:1 1229:1 1237:1 1238:1 1251:1 1264:2
-1 127:1 160:1 162:1 181:1 323:1 449:1 536:1 598:1 680:1 717:1 790:1 815:1 827:1 846:1 962:1 1051:1 1075:1 1121:1 1126:1 1150:1 1195:1 1224:2 1226:1 1264:2 1266:427
-1 174:1 226:1 418:1 574:1 598:1 625:1 718:1 1182:1 1224:1 1226:1 1236:1 1238:1 1245:1 1248:1 1249:1 1251:1 1264:1 1266:66
-1 174:1 362:1 589:1 598:1 687:1 706:1 1124:1 1182:1 1224:3 1226:1 1249:1 1251:1 1264:3
-1 157:1 174:1 418:1 446:1 524:1 598:1 868:1 1182:1 1206:1 1216:1 1223:1 1224:2 1226:1 1238:1 1243:1 1249:1 1251:1 1260:1 1264:2
-1 157:1 226:1 418:1 524:1 598:1 1172:1 1182:1 1216:1 1224:3 1226:1 1236:1 1238:1 1243:1 1249:1 1264:3
-1 174:1 226:1 418:1 584:1 598:1 625:1 637:1 694:1 748:1 873:1 1182:1 1224:2 1226:1 1236:1 1237:1 1238:1 1245:1 1249:1 1251:1 1264:2
-1 533:1 598:1 1224:2 1226:1 1264:2
-1 161:1 222:1 418:1 598:1 625:1 748:1 792:1 1182:1 1224:1 1226:1 1235:1 1237:1 1238:1 1245:1 1249:1 1264:1
-1 157:1 226:1 418:1 524:1 574:1 598:1 605:1 625:1 748:1 868:1 891:1 1182:1 1216:1 1223:1 1224:1 1226:1 1228:1 1236:1 1237:1 1238:1 1243:1 1245:1 1248:1 1249:1 1264:1
-1 130:1 192:1 260:1 352:1 398:1 552:1 598:1 609:1 893:1 1190:1 1224:1 1226:1 1264:1
-1 222:1 1224:3 1235:1 1264:3
-1 157:1 226:1 418:1 524:1 598:1 748:1 1182:1 1206:1 1216:1 1224:3 1226:1 1236:1 1237:1 1238:1 1243:1 1249:1 1260:1 1264:3
-1 157:1 174:1 226:1 378:1 418:1 574:1 598:1 625:1 748:1 1224:3 1226:1 1236:1 1237:1 1238:1 1243:1 1245:1 1248:1 1251:1 1264:3
-1 157:1 226:1 418:2 524:1 598:3 625:2 748:1 1182:2 1216:1 1224:6 1226:3 1236:1 1237:1 1238:2 1243:1 1245:2 1249:2 1264:6
-1 157:1 174:1 226:1 418:1 524:1 574:1 598:1 748:1 868:1 1182:1 1188:1 1216:1 1223:1 1224:1 1226:1 1236:1 1237:1 1238:1 1243:1 1248:1 1249:1 1251:1 1264:1
-1 222:1 1224:2 1235:1 1264:2
-1 134:1 139:1 144:1 145:1 153:1 174:1 186:1 193:1 226:1 256:1 279:1 344:1 361:1 375:1 377:1 418:1 425:1 460:1 467:1 540:1 544:1 574:1 598:1 614:1 625:1 626:1 657:1 673:1 678:1 679:1 684:1 699:1 718:1 774:1 775:1 794:1 798:1 818:1 973:1 976:1 1099:1 1154:1 1182:1 1197:1 1224:2 1226:1 1230:1 1236:1 1238:1 1245:1 1248:1 1249:1 1251:1 1264:2
-1 174:1 214:1 226:1 418:1 524:1 598:1 625:1 748:1 1182:1 1216:1 1224:2 1226:1 1236:1 1237:1 1238:1 1245:1 1249:1 1251:1 1264:2
-1 157:1 174:1 226:1 598:1 748:1 1182:1 1224:1 1226:1 1236:1 1237:1 1243:1 1249:1 1251:1 1264:1
-1 174:1 418:1 524:1 598:1 638:1 748:1 1182:1 1216:1 1224:1 1226:1 1237:1 1238:1 1249:1 1251:1 1264:1
-1 157:1 174:1 226:1 418:1 574:1 598:1 625:1 748:1 1182:1 1224:2 1226:1 1236:1 1237:1 1238:1 1243:1 1245:1 1248:1 1249:1 1251:1 1264:2
-1 153:1 157:1 174:1 226:1 331:1 365:1 377:1 418:1 467:1 524:1 543:1 574:1 598:1 625:1 657:1 673:1 678:1 684:1 705:1 718:1 748:1 818:1 1154:1 1182:1 1197:1 1216:1 1224:2 1226:1 1227:1 1236:1 1237:1 1238:1 1243:1 1244:1 1245:1 1248:1 1249:1 1251:1 1259:1 1264:2
-1 157:1 174:1 226:2 418:2 524:1 598:4 625:3 748:2 868:1 1182:2 1206:1 1208:1 1216:1 1223:1 1224:5 1226:4 1236:2 1237:2 1238:2 1243:1 1245:3 1249:2 1251:1 1260:1 1261:1 1264:5
-1 157:1 226:1 343:1 418:1 524:1 574:1 591:1 598:1 605:1 625:1 748:1 868:1 891:1 1182:1 1188:1 1208:1 1216:1 1222:1 1223:1 1224:1 1226:1 1228:1 1236:1 1237:1 1238:1 1243:1 1245:1 1248:1 1249:1 1261:1 1264:1
-1 157:1 226:1 418:2 524:1 598:5 625:2 748:1 868:1 972:1 1182:2 1206:1 1208:1 1216:1 1223:1 1224:6 1226:5 1236:1 1237:1 1238:2 1243:1 1245:2 1249:2 1260:1 1261:1 1264:6
-1 139:1 153:1 157:1 174:1 226:1 375:1 377:1 418:1 467:1 524:1 574:1 598:1 625:1 657:1 678:1 679:1 718:1 738:1 748:1 818:1 868:1 1154:1 1182:1 1188:1 1216:1 1223:1 1224:2 1226:1 1230:1 1236:1 1237:1 1238:1 1243:1 1245:1 1248:1 1249:1 1251:1 1264:2
-1 174:1 226:1 418:1 524:1 598:1 1182:1 1216:1 1224:1 1226:1 1236:1 1238:1 1249:1 1251:1 1264:1
-1 139:1 153:1 174:1 226:1 256:1 279:1 344:1 377:1 418:1 465:1 467:1 524:1 540:1 544:1 626:1 657:1 673:1 678:1 684:1 691:1 718:1 748:1 774:1 775:1 794:1 973:1 976:1 1099:1 1216:1 1224:2 1230:1 1236:1 1237:1 1238:1 1251:1 1264:2
-1 118:1 134:1 139:1 145:1 153:1 174:1 193:1 226:1 361:1 365:1 377:1 418:1 460:1 467:1 540:1 544:1 574:1 598:1 625:1 626:1 657:1 673:1 678:1 699:1 748:1 774:1 798:1 818:1 973:1 976:1 1086:1 1103:1 1154:1 1182:1 1197:1 1206:1 1224:2 1226:1 1230:1 1236:1 1237:1 1238:1 1244:1 1245:1 1248:1 1249:1 1251:1 1260:1 1264:2 1266:1
-1 174:1 226:1 418:1 598:1 748:1 773:1 1182:1 1224:1 1226:1 1236:1 1237:1 1238:1 1249:1 1251:1 1264:1
-1 222:1 1224:3 1235:1 1264:3
-1 139:1 153:1 169:1 216:1 217:1 256:1 271:1 344:1 377:1 418:1 448:1 460:1 467:1 540:1 598:1 625:1 657:1 678:1 684:1 718:1 738:1 741:1 818:1 889:1 973:1 976:1 990:1 1099:1 1154:1 1182:1 1224:2 1226:1 1230:1 1231:1 1238:1 1245:1 1249:1 1262:1 1264:2
-1 174:2 268:1 278:1 594:1 598:1 1224:2 1226:1 1251:2 1264:2
-1 141:1 174:1 268:1 278:1 598:1 1224:2 1226:1 1251:1 1264:2
-1 141:1 174:1 268:1 278:1 594:1 598:1 1224:2 1226:1 1251:1 1264:2
-1 174:2 486:1 598:1 1050:1 1224:5 1226:1 1251:2 1264:5
-1 157:1 174:1 418:1 524:1 598:1 748:1 1182:1 1188:1 1216:1 1224:1 1226:1 1237:1 1238:1 1243:1 1249:1 1251:1 1264:1
-1 174:2 232:1 299:1 383:1 508:1 598:1 703:1 935:1 1081:1 1224:2 1226:1 1251:2 1264:2 1266:347
-1 157:1 174:1 226:1 418:1 574:1 598:1 748:1 868:1 1182:1 1223:1 1224:1 1226:1 1236:1 1237:1 1238:1 1243:1 1248:1 1249:1 1251:1 1264:1
-1 157:1 174:1 226:1 418:1 524:1 598:1 748:1 868:1 1182:1 1188:1 1216:1 1223:1 1224:3 1226:1 1236:1 1237:1 1238:1 1243:1 1249:1 1251:1 1264:3
-1 157:1 418:2 598:2 625:1 1182:2 1224:7 1226:2 1238:2 1243:1 1245:1 1249:2 1264:7
-1 174:1 418:1 524:1 598:1 1216:1 1224:2 1226:1 1238:1 1251:1 1264:2
-1 174:1 222:1 226:1 418:1 574:1 598:1 748:1 1224:2 1226:1 1235:1 1236:1 1237:1 1238:1 1248:1 1251:1 1264:2
-1 157:1 174:1 226:1 448:1 598:1 603:1 1224:2 1226:1 1236:1 1243:1 1251:1 1264:2
-1 454:1 1219:1 1224:1 1264:1
-1 157:1 226:1 418:1 524:1 591:1 598:1 625:1 748:1 868:1 1182:1 1206:1 1216:1 1222:1 1223:1 1224:2 1226:1 1236:1 1237:1 1238:1 1243:1 1245:1 1249:1 1260:1 1264:2
-1 174:1 371:1 598:1 989:1 1224:2 1226:1 1251:1 1264:2
-1 174:1 260:1 418:1 524:1 598:1 856:1 902:1 1190:1 1216:1 1220:1 1224:2 1226:1 1238:1 1251:1 1264:2
-1 139:1 157:1 174:1 214:1 226:1 418:1 524:1 543:1 574:1 598:1 625:1 691:1 748:1 1182:1 1206:1 1216:1 1224:2 1226:1 1227:1 1230:1 1236:1 1237:1 1238:1 1243:1 1245:1 1248:1 1249:1 1251:1 1260:1 1264:2
-1 174:2 598:1 1224:2 1226:1 1251:2 1264:2
-1 130:1 179:1 192:1 260:1 352:1 398:1 552:1 598:1 609:1 698:1 893:1 1190:1 1224:2 1226:1 1264:2
-1 418:1 598:1 1224:2 1226:1 1238:1 1264:2
-1 144:1 153:1 174:1 216:1 226:1 342:1 361:1 377:1 418:1 467:1 574:1 598:1 625:1 657:1 673:1 678:1 684:1 738:1 748:1 1099:1 1188:1 1197:1 1224:1 1226:1 1236:1 1237:1 1238:1 1245:1 1248:1 1251:1 1264:1
-1 157:1 343:1 418:1 524:1 598:1 625:1 748:1 1206:1 1216:1 1224:2 1226:1 1237:1 1238:1 1243:1 1245:1 1260:1 1264:2
-1 157:1 226:1 343:1 418:1 524:1 574:1 598:1 625:1 748:1 868:1 1182:1 1216:1 1223:1 1224:3 1226:1 1236:1 1237:1 1238:1 1243:1 1245:1 1248:1 1249:1 1264:3
-1 139:1 153:1 174:1 191:1 193:1 279:1 361:1 377:1 425:1 460:1 467:1 540:1 544:1 626:1 657:1 673:1 678:1 684:1 699:1 794:1 818:1 973:1 976:1 1099:1 1197:1 1224:2 1230:1 1251:1 1264:2
-1 139:1 153:1 174:1 191:1 235:1 276:1 279:1 377:1 460:1 465:1 467:1 544:1 626:1 657:1 673:1 678:1 684:1 699:1 745:1 774:1 775:1 794:1 818:1 973:1 976:1 1099:1 1197:1 1224:2 1230:1 1251:1 1264:2
-1 157:1 226:1 418:1 524:1 598:1 748:1 868:1 1182:1 1206:1 1216:1 1223:1 1224:2 1226:1 1236:1 1237:1 1238:1 1243:1 1249:1 1260:1 1264:2
-1 222:1 1224:3 1235:1 1264:3
-1 222:1 1224:3 1235:1 1264:3
-1 222:1 1224:3 1235:1 1264:3
-1 418:1 524:1 598:1 1216:1 1224:3 1226:1 1238:1 1264:3
-1 226:1 418:1 524:1 598:1 1216:1 1224:2 1226:1 1236:1 1238:1 1264:2
-1 157:1 226:1 418:1 524:1 598:1 748:1 1182:1 1206:1 1216:1 1224:2 1226:1 1236:1 1237:1 1238:1 1243:1 1249:1 1260:1 1264:2
-1 157:1 226:1 418:1 524:1 598:1 748:1 1182:1 1206:1 1216:1 1224:3 1226:1 1236:1 1237:1 1238:1 1243:1 1249:1 1260:1 1264:3
-1 226:1 418:1 598:1 748:1 1182:1 1224:3 1226:1 1236:1 1237:1 1238:1 1249:1 1264:3
-1 222:1 1224:2 1235:1 1264:2
-1 598:1 1182:1 1224:1 1226:1 1249:1 1264:1
-1 157:1 418:1 524:1 598:1 1182:1 1206:1 1216:1 1224:2 1226:1 1238:1 1243:1 1249:1 1260:1 1264:2
-1 157:1 418:1 524:1 598:1 1182:1 1206:1 1216:1 1224:2 1226:1 1238:1 1243:1 1249:1 1260:1 1264:2
-1 157:1 226:1 418:1 524:1 598:1 625:1 738:1 748:1 1182:1 1206:1 1216:1 1224:2 1226:1 1236:1 1237:1 1238:1 1243:1 1245:1 1249:1 1260:1 1264:2
-1 157:1 226:1 418:1 524:1 598:1 748:1 1182:1 1206:1 1216:1 1224:2 1226:1 1236:1 1237:1 1238:1 1243:1 1249:1 1260:1 1264:2
-1 331:1 524:1 598:1 625:1 748:1 1182:1 1216:1 1224:3 1226:1 1237:1 1245:1 1249:1 1264:3
-1 174:2 236:1 598:1 1224:3 1226:1 1241:1 1251:2 1264:3
-1 222:1 1224:3 1235:1 1264:3
-1 222:1 1224:3 1235:1 1264:3
-1 157:1 418:2 598:2 625:1 1182:2 1224:7 1226:2 1238:2 1243:1 1245:1 1249:2 1264:7
-1 139:1 148:1 149:1 153:1 174:1 193:1 344:1 377:1 460:1 467:1 520:1 544:1 657:1 673:1 678:1 684:1 774:1 775:1 791:1 859:1 890:1 973:1 1015:1 1052:1 1197:1 1214:1 1218:1 1224:2 1230:1 1251:1 1264:2
-1 157:1 226:1 418:1 598:1 625:1 748:1 1182:1 1224:3 1226:1 1236:1 1237:1 1238:1 1243:1 1245:1 1249:1 1264:3
-1 157:1 226:1 236:1 418:2 524:1 598:4 625:2 1182:2 1206:1 1216:1 1224:6 1226:4 1236:1 1238:2 1241:1 1243:1 1245:2 1249:2 1260:1 1264:6
-1 157:1 226:1 418:1 524:1 598:1 625:1 748:1 1182:1 1206:1 1216:1 1224:2 1226:1 1236:1 1237:1 1238:1 1243:1 1245:1 1249:1 1260:1 1264:2
-1 139:1 174:1 226:1 418:1 574:1 591:1 598:1 625:1 748:1 773:1 791:1 807:1 1152:1 1182:1 1218:1 1222:1 1224:1 1225:1 1226:1 1230:1 1236:1 1237:1 1238:1 1245:1 1248:1 1249:1 1251:1 1264:1
-1 260:1 418:1 524:1 598:1 1216:1 1224:1 1226:1 1238:1 1264:1
-1 157:1 226:2 418:2 524:1 598:4 625:2 748:1 868:1 1182:2 1206:1 1216:1 1223:1 1224:6 1226:4 1236:2 1237:1 1238:2 1243:1 1245:2 1249:2 1260:1 1264:6
-1 157:1 418:2 524:1 598:4 625:2 868:1 1182:2 1206:1 1216:1 1223:1 1224:6 1226:4 1238:2 1243:1 1245:2 1249:2 1260:1 1264:6
-1 157:1 226:1 418:1 524:1 598:1 748:1 1182:1 1206:1 1216:1 1224:3 1226:1 1236:1 1237:1 1238:1 1243:1 1249:1 1260:1 1264:3
-1 598:1 1224:1 1226:1 1264:1
-1 418:1 524:1 598:1 1216:1 1224:3 1226:1 1238:1 1264:3
-1 157:1 226:1 418:1 524:1 598:1 748:1 1182:1 1206:1 1216:1 1224:3 1226:1 1236:1 1237:1 1238:1 1243:1 1249:1 1260:1 1264:3
-1 157:1 226:1 418:1 423:1 524:1 598:1 625:1 738:1 748:1 1182:1 1206:1 1216:1 1224:1 1226:1 1236:1 1237:1 1238:1 1243:1 1245:1 1249:1 1260:1 1264:1
-1 418:1 598:1 625:1 1224:4 1226:1 1238:1 1245:1 1264:4
-1 145:1 153:1 174:1 235:1 279:1 293:1 377:1 460:1 467:1 657:1 673:1 678:1 684:1 774:1 775:1 791:1 794:1 969:1 1052:1 1180:1 1186:1 1197:1 1218:1 1224:4 1251:1 1264:4
-1 174:1 226:1 418:1 524:1 574:1 598:1 1216:1 1224:3 1226:1 1236:1 1238:1 1248:1 1251:1 1264:3
-1 174:1 598:1 1224:2 1226:1 1251:1 1264:2
-1 157:1 226:2 418:2 524:1 598:5 625:3 748:1 868:1 920:5 958:1 1182:6 1206:1 1216:1 1223:1 1224:6 1226:5 1236:2 1237:1 1238:2 1239:1 1243:1 1245:3 1249:6 1258:5 1260:1 1264:6
-1 157:1 226:1 418:1 524:1 598:1 748:1 1182:1 1206:1 1216:1 1224:5 1226:1 1236:1 1237:1 1238:1 1243:1 1249:1 1260:1 1264:5
-1 153:1 157:1 174:1 216:1 361:1 377:1 418:1 467:1 543:1 574:1 598:1 625:1 657:1 673:1 678:1 718:1 798:1 1182:1 1224:1 1226:1 1227:1 1238:1 1243:1 1245:1 1248:1 1249:1 1251:1 1264:1
-1 157:1 418:2 524:1 591:1 598:4 625:1 748:1 868:1 1182:2 1206:1 1216:1 1222:1 1223:1 1224:6 1226:4 1237:1 1238:2 1243:1 1245:1 1249:2 1260:1 1264:6
-1 598:1 1172:1 1224:2 1226:1 1264:2
-1 598:1 1172:1 1224:2 1226:1 1264:2
-1 157:1 226:1 418:1 524:1 598:1 748:1 1182:1 1206:1 1216:1 1224:4 1226:1 1236:1 1237:1 1238:1 1243:1 1249:1 1260:1 1264:4
-1 418:1 598:1 1182:1 1224:3 1226:1 1238:1 1249:1 1264:3
-1 157:1 226:1 418:1 524:1 598:1 625:1 748:1 1182:1 1206:1 1216:1 1224:2 1226:1 1236:1 1237:1 1238:1 1243:1 1245:1 1249:1 1260:1 1264:2
-1 157:1 226:1 418:1 524:1 598:1 748:1 868:1 1182:1 1216:1 1223:1 1224:4 1226:1 1236:1 1237:1 1238:1 1243:1 1249:1 1264:4
-1 418:2 598:4 625:2 958:1 1182:1 1224:6 1226:4 1238:2 1239:1 1245:2 1249:1 1264:6
-1 157:1 418:2 598:2 625:1 1182:2 1224:7 1226:2 1238:2 1243:1 1245:1 1249:2 1264:7
-1 353:1 940:1 1224:2 1264:2
-1 353:1 940:1 1224:2 1264:2
-1 353:1 940:1 1224:2 1264:2
-1 157:1 226:1 418:1 524:1 598:1 748:1 791:1 868:1 1100:1 1182:1 1216:1 1218:1 1223:1 1224:4 1226:1 1236:1 1237:1 1238:1 1243:1 1249:1 1264:4
-1 174:1 248:1 253:1 418:1 524:1 591:1 598:1 856:1 902:1 1182:1 1216:1 1220:1 1222:1 1224:2 1226:1 1238:1 1249:1 1251:1 1264:2
-1 353:1 735:1 940:1 1224:2 1264:2
-1 157:1 418:1 598:1 1182:1 1224:1 1226:1 1238:1 1243:1 1249:1 1264:1
-1 174:1 418:1 598:1 791:1 1182:1 1218:1 1224:4 1226:1 1238:1 1249:1 1251:1 1264:4
-1 236:1 418:1 598:1 625:1 748:1 1224:1 1226:1 1237:1 1238:1 1241:1 1245:1 1264:1
-1 454:1 598:1 1219:1 1224:4 1226:1 1264:4
-1 157:1 418:2 598:2 625:1 1182:2 1224:7 1226:2 1238:2 1243:1 1245:1 1249:2 1264:7
-1 174:2 226:1 418:1 598:1 1182:1 1224:4 1226:1 1236:1 1238:1 1249:1 1251:2 1264:4
-1 226:1 418:1 524:1 598:1 1182:1 1216:1 1224:1 1226:1 1236:1 1238:1 1249:1 1264:1 1266:26
-1 157:1 418:2 598:2 625:1 1182:2 1224:7 1226:2 1238:2 1243:1 1245:1 1249:2 1264:7
-1 398:1 574:1 598:1 625:1 748:1 1182:1 1224:1 1226:1 1237:1 1245:1 1248:1 1249:1 1264:1
-1 157:1 226:1 418:1 524:1 598:1 625:1 659:1 748:1 868:1 891:1 1182:1 1216:1 1223:1 1224:2 1226:1 1236:1 1237:1 1238:1 1243:1 1245:1 1249:1 1264:2
-1 226:1 418:2 574:1 598:6 625:3 748:1 1182:1 1224:5 1226:6 1236:1 1237:1 1238:2 1245:3 1248:1 1249:1 1264:5
-1 123:1 139:1 157:1 174:1 226:1 418:1 524:1 543:1 574:1 598:1 605:1 625:1 748:1 773:1 809:1 902:1 1182:1 1216:1 1224:1 1226:1 1227:1 1228:1 1230:1 1236:1 1237:1 1238:1 1243:1 1245:1 1248:1 1249:1 1251:1 1264:1
-1 222:1 1224:3 1235:1 1264:3
-1 174:1 598:1 1224:3 1226:1 1251:1 1264:3
-1 174:2 598:1 1224:4 1226:1 1251:2 1264:4
-1 157:1 226:1 343:1 418:1 524:1 543:1 574:1 591:1 598:1 605:1 625:1 748:1 881:1 891:1 1182:1 1188:1 1208:1 1216:1 1222:1 1224:2 1226:1 1227:1 1228:1 1229:1 1236:1 1237:1 1238:1 1243:1 1245:1 1248:1 1249:1 1261:1 1264:2
-1 598:1 1224:2 1226:1 1264:2
-1 157:1 226:1 418:1 524:1 574:1 598:1 605:1 625:1 748:1 791:1 868:1 1182:1 1208:1 1216:1 1218:1 1223:1 1224:1 1226:1 1228:1 1236:1 1237:1 1238:1 1243:1 1245:1 1248:1 1249:1 1261:1 1264:1
-1 598:1 1182:1 1224:3 1226:1 1249:1 1264:3
-1 174:1 598:1 1182:1 1224:4 1226:1 1249:1 1251:1 1264:4
-1 418:1 447:1 524:1 598:1 748:1 1148:1 1182:1 1216:1 1224:3 1226:1 1237:1 1238:1 1249:1 1264:3
-1 222:1 1224:2 1235:1 1264:2
-1 598:1 791:1 1182:1 1218:1 1224:2 1226:1 1249:1 1264:2
-1 159:1 598:1 791:1 1182:1 1218:1 1224:3 1226:1 1249:1 1264:3
-1 157:1 226:1 418:1 524:1 591:1 598:1 748:1 868:1 1216:1 1222:1 1223:1 1224:4 1226:1 1236:1 1237:1 1238:1 1243:1 1264:4
-1 222:1 1224:4 1235:1 1264:4
-1 222:1 1224:2 1235:1 1264:2
-1 454:1 1219:1 1224:1 1264:1
-1 454:1 1219:1 1224:1 1264:1
-1 222:1 1224:4 1235:1 1264:4
-1 598:1 738:1 1224:2 1226:1 1264:2 1266:4
-1 454:1 1219:1 1224:1 1264:1
-1 157:1 226:1 418:2 524:1 598:4 625:2 958:1 1182:2 1188:1 1206:1 1216:1 1224:6 1226:4 1236:1 1238:2 1239:1 1243:1 1245:2 1249:2 1260:1 1264:6
-1 157:1 418:2 598:4 625:1 1182:3 1224:4 1226:4 1238:2 1243:1 1245:1 1249:3 1264:4
-1 157:1 418:2 598:4 625:1 1182:3 1224:4 1226:4 1238:2 1243:1 1245:1 1249:3 1264:4
-1 222:1 1224:2 1235:1 1264:2
-1 174:1 226:1 237:1 320:1 598:1 642:1 702:1 724:1 1224:7 1226:1 1236:1 1251:1 1264:7
-1 176:1 598:1 1224:3 1226:1 1252:1 1264:3
-1 157:1 226:2 236:1 418:2 524:1 574:1 591:1 598:4 625:3 748:1 868:1 891:1 1182:2 1206:1 1216:1 1222:1 1223:1 1224:6 1226:4 1236:2 1237:1 1238:2 1241:1 1243:1 1245:3 1248:1 1249:2 1260:1 1264:6
-1 157:1 226:1 418:1 524:1 598:1 625:1 748:1 868:1 891:1 1182:1 1216:1 1223:1 1224:2 1226:1 1236:1 1237:1 1238:1 1243:1 1245:1 1249:1 1264:2
-1 157:1 226:1 418:1 524:1 598:1 748:1 1182:1 1216:1 1224:2 1226:1 1236:1 1237:1 1238:1 1243:1 1249:1 1264:2
-1 598:1 1224:2 1226:1 1264:2
-1 157:1 226:1 418:1 524:1 574:1 598:1 625:1 868:1 1182:1 1216:1 1223:1 1224:1 1226:1 1236:1 1238:1 1243:1 1245:1 1248:1 1249:1 1264:1
-1 598:1 1172:1 1224:3 1226:1 1264:3
-1 226:1 418:2 598:4 625:2 1182:1 1224:6 1226:4 1236:1 1238:2 1245:2 1249:1 1264:6
-1 139:1 153:1 174:1 377:1 460:1 467:1 598:1 657:1 673:1 678:1 684:1 774:1 775:1 927:1 963:1 1052:1 1106:1 1182:1 1197:1 1224:2 1226:1 1230:1 1249:1 1251:1 1264:2
-1 418:1 524:1 598:1 1216:1 1224:3 1226:1 1238:1 1264:3 1266:2
-1 418:1 552:1 598:1 1191:1 1224:2 1226:1 1238:1 1264:2 1266:35
-1 598:1 1224:3 1226:1 1264:3
-1 454:1 1219:1 1224:1 1264:1
-1 157:1 226:1 418:1 524:1 598:1 748:1 1182:1 1206:1 1216:1 1224:3 1226:1 1236:1 1237:1 1238:1 1243:1 1249:1 1260:1 1264:3
-1 139:1 153:1 174:1 377:1 460:1 467:1 598:1 657:1 673:1 678:1 684:1 775:1 850:1 927:1 963:1 1052:1 1106:1 1157:1 1182:1 1197:1 1224:1 1226:1 1230:1 1249:1 1251:1 1264:1
-1 157:1 226:2 418:2 524:1 591:1 598:4 625:3 748:1 868:1 1182:2 1206:1 1216:1 1222:1 1223:1 1224:6 1226:4 1236:2 1237:1 1238:2 1243:1 1245:3 1249:2 1260:1 1264:6
-1 398:1 598:1 1076:1 1224:2 1226:1 1264:2
-1 139:1 174:1 598:1 718:1 1070:1 1182:1 1224:1 1226:1 1230:1 1249:1 1251:1 1264:1
-1 157:1 226:1 418:1 447:1 512:1 524:1 591:1 598:1 650:1 784:1 1182:1 1216:1 1222:1 1224:2 1226:1 1236:1 1238:1 1243:1 1249:1 1264:2
-1 174:1 226:1 418:1 591:1 598:1 1222:1 1224:2 1226:1 1236:1 1238:1 1251:1 1264:2
-1 222:1 1224:3 1235:1 1264:3
-1 418:1 524:1 598:1 1216:1 1224:2 1226:1 1238:1 1264:2
-1 139:1 174:1 479:1 490:1 598:1 1224:2 1226:1 1230:1 1251:1 1264:2
-1 166:1 174:1 274:1 520:1 598:1 791:1 1182:1 1214:1 1218:1 1224:2 1226:1 1249:1 1251:1 1264:2
-1 222:1 1224:4 1235:1 1264:4
-1 598:1 1224:4 1226:1 1264:4
-1 157:1 174:1 226:1 236:1 418:1 524:1 591:1 598:1 748:1 868:1 1182:1 1216:1 1222:1 1223:1 1224:2 1226:1 1236:1 1237:1 1238:1 1241:1 1243:1 1249:1 1251:1 1264:2
-1 153:1 174:1 279:1 377:1 461:1 467:1 551:1 625:1 657:1 673:1 678:1 684:1 718:1 775:1 798:1 959:1 1099:1 1224:1 1245:1 1251:1 1264:1
-1 222:1 1224:3 1235:1 1264:3
-1 222:1 1224:2 1235:1 1264:2
-1 226:1 247:1 418:1 574:1 591:1 598:1 625:1 748:1 858:1 1182:1 1206:1 1221:1 1222:1 1224:1 1226:1 1236:1 1237:1 1238:1 1245:1 1248:1 1249:1 1260:1 1264:1 1266:2
-1 226:1 418:1 598:1 1182:1 1224:3 1226:1 1236:1 1238:1 1249:1 1264:3
-1 454:1 1219:1 1224:1 1264:1
-1 454:1 1219:1 1224:1 1264:1
-1 153:1 174:1 226:1 377:1 467:1 657:1 673:1 678:1 684:1 718:1 774:1 1224:2 1236:1 1251:1 1264:2
-1 139:1 153:1 174:1 203:1 226:1 362:1 377:1 467:1 598:1 625:1 657:1 673:1 678:1 718:1 959:1 1182:1 1224:1 1226:1 1230:1 1236:1 1245:1 1249:1 1251:1 1264:1
-1 454:1 1219:1 1224:1 1264:1
-1 157:1 226:2 236:1 418:2 520:1 524:1 591:1 598:7 625:3 748:1 868:1 1182:2 1206:1 1214:1 1216:1 1222:1 1223:1 1224:6 1226:7 1236:2 1237:1 1238:2 1241:1 1243:1 1245:3 1249:2 1260:1 1264:6 1266:1
-1 157:1 176:1 226:1 418:1 524:1 598:1 625:1 748:1 868:1 1206:1 1216:1 1223:1 1224:4 1226:1 1236:1 1237:1 1238:1 1243:1 1245:1 1252:1 1260:1 1264:4
-1 222:1 1224:3 1235:1 1264:3
-1 174:1 418:1 598:1 1224:5 1226:1 1238:1 1251:1 1264:5
-1 157:1 226:2 418:2 524:1 598:5 625:3 748:2 868:1 1182:2 1206:1 1208:1 1216:1 1223:1 1224:6 1226:5 1236:2 1237:2 1238:2 1243:1 1245:3 1249:2 1260:1 1261:1 1264:6
-1 174:2 598:1 1224:2 1226:1 1251:2 1264:2
-1 157:1 226:1 418:1 524:1 591:1 598:1 625:1 659:1 748:1 868:1 891:1 1182:1 1216:1 1222:1 1223:1 1224:2 1226:1 1236:1 1237:1 1238:1 1243:1 1245:1 1249:1 1264:2
-1 418:1 524:1 598:1 868:1 1182:1 1216:1 1223:1 1224:1 1226:1 1238:1 1249:1 1264:1
-1 139:1 153:1 169:1 174:1 235:1 256:1 279:1 344:1 361:1 377:1 456:1 460:1 467:1 544:1 625:1 657:1 673:1 678:1 684:1 718:1 774:1 775:1 794:1 1099:1 1197:1 1224:2 1230:1 1245:1 1251:1 1264:2
-1 222:1 1224:3 1235:1 1264:3
-1 260:1 278:1 453:1 476:1 581:1 594:1 598:1 1182:1 1224:3 1226:1 1249:1 1264:3
-1 226:1 418:1 524:1 598:1 881:1 1174:1 1182:1 1216:1 1224:1 1226:1 1229:1 1236:1 1238:1 1249:1 1264:1
-1 157:1 226:1 418:1 524:1 598:1 748:1 1182:1 1206:1 1216:1 1224:3 1226:1 1236:1 1237:1 1238:1 1243:1 1249:1 1260:1 1264:3
-1 153:1 174:1 235:1 279:1 344:1 361:1 377:1 434:1 460:1 461:1 467:1 657:1 673:1 678:1 684:1 718:1 731:1 774:1 959:1 1130:1 1224:1 1251:1 1264:1
-1 153:1 174:1 235:1 279:1 293:1 304:1 344:1 361:1 365:1 377:1 460:1 465:1 467:1 544:1 578:1 657:1 673:1 678:1 679:1 684:1 718:1 734:1 774:1 775:1 794:1 798:1 859:1 1197:1 1224:2 1244:1 1251:1 1264:2
-1 153:1 174:1 226:1 344:1 377:1 418:1 467:1 551:1 598:1 657:1 673:1 678:1 691:1 718:1 959:1 1182:1 1224:2 1226:1 1236:1 1238:1 1249:1 1251:1 1264:2
-1 158:1 226:1 371:1 418:1 598:1 748:1 919:1 1074:1 1182:1 1224:2 1226:1 1236:1 1237:1 1238:1 1249:1 1264:2
-1 174:2 236:1 598:1 1224:3 1226:1 1241:1 1251:2 1264:3
-1 157:1 418:1 574:1 598:1 625:1 748:1 1182:1 1224:1 1226:1 1237:1 1238:1 1243:1 1245:1 1248:1 1249:1 1264:1
-1 130:1 179:1 192:1 260:1 352:1 398:1 552:1 598:1 609:1 698:1 893:1 1190:1 1224:1 1226:1 1264:1
-1 226:1 418:1 574:1 598:1 748:1 1182:1 1224:2 1226:1 1236:1 1237:1 1238:1 1248:1 1249:1 1264:2
-1 174:2 260:1 418:1 436:1 470:1 524:1 598:1 1190:1 1216:1 1224:2 1226:1 1238:1 1251:2 1264:2
-1 222:1 1224:3 1235:1 1264:3
-1 418:1 524:1 598:1 868:1 1182:1 1206:1 1216:1 1223:1 1224:1 1226:1 1238:1 1249:1 1260:1 1264:1
-1 157:1 226:1 418:1 520:1 524:1 574:1 591:1 598:1 605:1 625:1 738:1 748:1 791:1 810:1 881:1 1182:1 1208:1 1214:1 1216:1 1218:1 1222:1 1224:1 1226:1 1228:1 1229:1 1234:1 1236:1 1237:1 1238:1 1243:1 1245:1 1248:1 1249:1 1261:1 1264:1
-1 222:1 1224:3 1235:1 1264:3
-1 139:1 174:1 226:1 418:1 448:1 598:1 748:1 1182:1 1196:1 1224:3 1226:1 1230:1 1236:1 1237:1 1238:1 1249:1 1251:1 1264:3
-1 139:1 153:1 174:1 226:1 377:1 418:1 465:1 467:1 598:1 657:1 673:1 678:1 687:1 718:1 748:1 849:1 976:1 1130:1 1182:1 1224:1 1226:1 1230:1 1236:1 1237:1 1238:1 1249:1 1251:1 1264:1
-1 153:1 174:1 377:1 467:1 475:1 657:1 673:1 678:1 1084:1 1224:2 1251:1 1264:2
-1 153:1 174:1 279:1 377:1 461:1 465:1 467:1 551:1 626:1 657:1 673:1 678:1 684:1 718:1 743:1 775:1 786:1 798:1 847:1 976:1 1099:1 1197:1 1224:1 1251:1 1264:1 1266:2
-1 129:1 139:1 153:1 174:1 235:1 279:1 344:1 361:1 377:1 418:1 425:1 461:1 465:1 467:1 524:1 540:1 544:1 551:1 598:1 614:1 625:1 626:1 657:1 673:1 678:1 691:1 718:1 764:1 775:1 793:1 800:1 842:1 929:1 959:1 976:1 1099:1 1110:1 1182:1 1188:1 1197:1 1216:1 1224:3 1226:1 1230:1 1238:1 1245:1 1249:1 1251:1 1264:3
-1 139:1 153:1 174:1 279:1 361:1 377:1 418:1 461:1 467:1 524:1 544:1 551:1 598:1 614:1 657:1 673:1 678:1 684:1 691:1 718:1 804:1 959:1 1110:1 1216:1 1224:2 1226:1 1230:1 1238:1 1251:1 1264:2
-1 118:1 153:1 174:1 279:1 314:1 334:1 344:1 377:1 460:1 467:1 544:1 657:1 673:1 678:1 684:1 774:1 775:1 973:1 976:1 1052:1 1086:1 1103:1 1197:1 1224:2 1251:1 1264:2
-1 174:2 236:1 598:1 1224:3 1226:1 1241:1 1251:2 1264:3
-1 174:1 236:1 418:1 598:1 625:1 748:1 881:1 1182:1 1224:1 1226:1 1229:1 1237:1 1238:1 1241:1 1245:1 1249:1 1251:1 1264:1
-1 454:1 1219:1 1224:1 1264:1
-1 222:1 1224:3 1235:1 1264:3
-1 222:1 1224:3 1235:1 1264:3
-1 157:1 226:1 418:2 524:1 598:5 625:3 748:2 1182:2 1206:1 1216:1 1224:6 1226:5 1236:1 1237:2 1238:2 1243:1 1245:3 1249:2 1260:1 1264:6
-1 139:1 153:1 174:1 193:1 256:1 279:1 328:1 344:1 361:1 377:1 460:1 467:1 540:1 544:1 574:1 625:1 657:1 673:1 678:1 679:1 684:1 718:1 774:1 775:1 927:1 973:1 982:1 1002:1 1052:1 1197:1 1224:2 1230:1 1245:1 1248:1 1251:1 1264:2
-1 174:1 251:1 418:1 598:1 1224:2 1226:1 1238:1 1251:1 1264:2
-1 153:1 174:1 344:1 377:1 467:1 657:1 673:1 678:1 718:1 1224:2 1251:1 1264:2
-1 157:1 226:1 418:1 524:1 598:1 748:1 1182:1 1206:1 1216:1 1224:3 1226:1 1236:1 1237:1 1238:1 1243:1 1249:1 1260:1 1264:3
-1 157:1 226:1 418:1 524:1 598:1 748:1 868:1 1216:1 1223:1 1224:2 1226:1 1236:1 1237:1 1238:1 1243:1 1264:2
-1 174:1 393:1 598:1 1224:3 1226:1 1251:1 1264:3
-1 139:1 153:1 174:1 279:1 377:1 418:1 467:1 625:1 657:1 673:1 678:1 718:1 748:1 798:1 1224:1 1230:1 1237:1 1238:1 1245:1 1251:1 1264:1
-1 139:1 153:1 157:1 174:1 226:1 344:1 377:1 418:1 467:1 524:1 574:1 598:1 625:1 657:1 678:1 718:1 748:1 818:1 1099:1 1158:1 1182:1 1197:1 1216:1 1224:2 1226:1 1230:1 1236:1 1237:1 1238:1 1243:1 1245:1 1248:1 1249:1 1251:1 1264:2
-1 139:1 153:1 174:1 307:1 377:1 461:1 467:1 598:1 657:1 673:1 678:1 1182:1 1224:1 1226:1 1230:1 1249:1 1251:1 1264:1
-1 157:1 226:1 418:1 524:1 598:1 748:1 1182:1 1206:1 1216:1 1224:3 1226:1 1236:1 1237:1 1238:1 1243:1 1249:1 1260:1 1264:3
-1 139:1 145:1 231:1 279:1 328:1 377:1 380:1 439:1 467:1 544:1 583:1 626:1 656:1 657:1 665:1 689:1 700:1 738:1 794:1 931:1 1224:3 1230:1 1264:3 1266:4
-1 418:1 598:1 1224:1 1226:1 1238:1 1264:1
-1 157:1 418:2 598:4 625:1 1182:3 1224:4 1226:4 1238:2 1243:1 1245:1 1249:3 1264:4
-1 454:1 1219:1 1224:1 1264:1
-1 174:1 264:1 1224:2 1251:1 1264:2
-1 174:1 294:1 1224:2 1251:1 1264:2
-1 174:1 264:1 1224:2 1251:1 1264:2
-1 174:1 294:1 1224:2 1251:1 1264:2
-1 174:1 598:1 1224:3 1226:1 1251:1 1264:3
-1 226:1 418:1 524:1 598:1 748:1 1182:1 1216:1 1224:2 1226:1 1236:1 1237:1 1238:1 1249:1 1264:2
-1 454:1 1219:1 1224:1 1264:1
-1 174:1 418:1 598:1 1182:1 1224:3 1226:1 1238:1 1249:1 1251:1 1264:3
-1 598:1 1224:2 1226:1 1264:2
-1 598:1 1224:3 1226:1 1264:3
-1 222:1 1224:3 1235:1 1264:3
-1 418:1 598:1 1224:3 1226:1 1238:1 1264:3 1266:9
-1 226:1 418:1 524:1 591:1 598:1 791:1 807:1 1216:1 1218:1 1222:1 1224:2 1226:1 1236:1 1238:1 1264:2
-1 139:1 157:1 174:1 226:1 343:1 418:1 524:1 574:1 598:1 605:1 625:1 632:1 691:1 748:1 804:1 822:1 1182:1 1216:1 1224:2 1226:1 1228:1 1230:1 1236:1 1237:1 1238:1 1243:1 1245:1 1248:1 1249:1 1251:1 1264:2
-1 139:1 157:1 174:1 226:1 247:1 253:1 343:1 346:1 418:1 524:1 574:1 591:1 598:1 605:1 625:1 720:1 748:1 809:1 857:1 1152:1 1182:1 1216:1 1222:1 1224:2 1225:1 1226:1 1228:1 1230:1 1236:1 1237:1 1238:1 1243:1 1245:1 1248:1 1249:1 1251:1 1264:2
-1 174:2 598:1 1224:3 1226:1 1251:2 1264:3
-1 331:1 418:1 574:1 598:1 705:1 738:1 748:1 1182:1 1206:1 1224:2 1226:1 1237:1 1238:1 1248:1 1249:1 1259:1 1260:1 1264:2
-1 174:1 365:1 396:1 418:1 547:1 598:1 1224:1 1226:1 1238:1 1244:1 1251:1 1264:1
-1 174:2 418:1 598:1 1182:1 1224:3 1226:1 1238:1 1249:1 1251:2 1264:3
-1 598:1 1224:3 1226:1 1264:3
-1 174:1 226:1 418:1 501:1 524:1 598:1 670:1 868:1 1182:1 1216:1 1223:1 1224:2 1226:1 1236:1 1238:1 1249:1 1251:1 1264:2
-1 418:1 524:1 598:1 1206:1 1216:1 1224:2 1226:1 1238:1 1260:1 1264:2
-1 174:1 598:1 625:1 673:1 679:1 711:1 748:1 950:1 1154:1 1182:1 1197:1 1224:2 1226:1 1237:1 1245:1 1249:1 1251:1 1264:2
-1 222:1 1224:3 1235:1 1264:3
-1 157:1 226:1 418:2 524:1 598:5 625:3 748:1 868:1 1182:2 1206:1 1216:1 1223:1 1224:6 1226:5 1236:1 1237:1 1238:2 1243:1 1245:3 1249:2 1260:1 1264:6
-1 157:1 418:2 524:1 598:4 625:3 748:1 1182:2 1206:1 1216:1 1224:6 1226:4 1237:1 1238:2 1243:1 1245:3 1249:2 1260:1 1264:6
-1 174:2 236:1 552:1 598:1 1224:2 1226:1 1241:1 1251:2 1264:2
-1 222:1 1224:3 1235:1 1264:3
-1 157:1 158:1 226:1 418:1 524:1 574:1 598:1 625:1 748:1 868:1 920:1 1182:1 1206:1 1208:1 1216:1 1223:1 1224:2 1226:1 1236:1 1237:1 1238:1 1243:1 1245:1 1248:1 1249:1 1258:1 1260:1 1261:1 1264:2
-1 418:1 524:1 598:1 1101:1 1216:1 1224:1 1226:1 1238:1 1264:1
-1 157:1 226:1 260:1 343:1 418:1 524:1 574:1 591:1 598:1 605:1 625:1 748:1 868:1 891:1 1182:1 1188:1 1208:1 1216:1 1222:1 1223:1 1224:1 1226:1 1228:1 1236:1 1237:1 1238:1 1243:1 1245:1 1248:1 1249:1 1261:1 1264:1 1266:973
-1 157:1 226:1 260:1 343:1 418:1 524:1 574:1 591:1 598:1 605:1 625:1 748:1 868:1 891:1 1182:1 1188:1 1208:1 1216:1 1222:1 1223:1 1224:1 1226:1 1228:1 1236:1 1237:1 1238:1 1243:1 1245:1 1248:1 1249:1 1261:1 1264:1 1266:973
-1 222:1 1224:4 1235:1 1264:4
-1 139:1 174:1 331:1 574:1 598:1 625:1 705:1 748:1 750:1 818:1 853:1 1182:1 1196:1 1224:1 1226:1 1230:1 1237:1 1245:1 1248:1 1249:1 1251:1 1259:1 1264:1
-1 129:1 139:1 153:1 157:1 169:1 174:1 216:1 226:1 256:1 279:1 344:1 347:1 361:1 377:1 418:1 467:1 524:1 543:1 544:1 574:1 591:1 598:1 605:1 625:1 657:1 673:1 678:1 684:1 718:1 738:1 748:1 774:1 775:1 798:1 804:1 833:1 975:1 976:1 1099:1 1152:1 1216:1 1222:1 1224:1 1225:1 1226:1 1227:1 1228:1 1230:1 1236:1 1237:1 1238:1 1243:1 1245:1 1248:1 1251:1 1264:1
-1 222:1 1224:3 1235:1 1264:3
-1 598:1 1224:3 1226:1 1264:3
-1 139:1 364:1 598:1 963:1 1182:1 1224:1 1226:1 1230:1 1249:1 1264:1
-1 157:1 418:1 524:1 598:1 1182:1 1206:1 1216:1 1224:2 1226:1 1238:1 1243:1 1249:1 1260:1 1264:2
-1 157:1 418:2 598:2 625:1 1182:2 1224:7 1226:2 1238:2 1243:1 1245:1 1249:2 1264:7
-1 174:2 598:1 1224:4 1226:1 1251:2 1264:4
-1 157:1 226:1 418:1 524:1 591:1 598:1 625:1 748:1 1182:1 1206:1 1216:1 1222:1 1224:5 1226:1 1236:1 1237:1 1238:1 1243:1 1245:1 1249:1 1260:1 1264:5
-1 153:1 169:1 174:1 193:1 203:1 279:1 377:1 411:1 460:1 465:1 467:1 528:1 544:1 657:1 673:1 678:1 684:1 774:1 775:1 794:1 864:1 976:1 1099:1 1103:1 1197:1 1224:1 1251:1 1264:1
-1 157:1 174:1 226:1 418:1 524:1 598:1 856:1 1216:1 1220:1 1224:2 1226:1 1236:1 1238:1 1243:1 1251:1 1264:2
-1 153:1 174:1 344:1 377:1 461:1 467:1 598:1 625:1 657:1 673:1 678:1 718:1 959:1 1130:1 1182:1 1224:1 1226:1 1245:1 1249:1 1251:1 1264:1
-1 174:1 221:1 226:1 598:1 625:1 705:1 738:1 748:1 858:1 919:1 1130:1 1152:1 1175:1 1182:1 1221:1 1224:1 1225:1 1226:1 1236:1 1237:1 1245:1 1249:1 1251:1 1259:1 1264:1
-1 153:1 174:1 377:1 467:1 657:1 673:1 678:1 1145:1 1224:1 1251:1 1264:1
-1 174:2 552:1 598:1 1224:2 1226:1 1251:2 1264:2
-1 157:1 174:1 226:1 418:1 598:1 625:1 748:1 1182:1 1224:3 1226:1 1236:1 1237:1 1238:1 1243:1 1245:1 1249:1 1251:1 1264:3
-1 157:1 174:1 418:1 598:1 916:1 1182:1 1224:3 1226:1 1238:1 1243:1 1249:1 1251:1 1264:3
-1 222:1 1224:3 1235:1 1264:3
-1 222:1 1224:3 1235:1 1264:3
-1 222:1 1224:2 1235:1 1264:2
-1 222:1 1224:2 1235:1 1264:2
-1 226:1 598:1 1224:1 1226:1 1236:1 1264:1
-1 226:1 247:1 418:1 524:1 598:1 705:1 748:1 881:1 919:1 1216:1 1224:1 1226:1 1229:1 1236:1 1237:1 1238:1 1259:1 1264:1 1266:2
-1 157:1 418:2 524:1 595:1 598:4 625:2 868:1 1182:2 1216:1 1223:1 1224:6 1226:4 1238:2 1243:1 1245:2 1249:2 1264:6
-1 222:1 1224:4 1235:1 1264:4
-1 222:1 1224:2 1235:1 1264:2
-1 222:1 1224:2 1235:1 1264:2
-1 157:1 226:1 418:1 524:1 598:1 748:1 1182:1 1206:1 1216:1 1224:2 1226:1 1236:1 1237:1 1238:1 1243:1 1249:1 1260:1 1264:2
-1 222:1 1224:3 1235:1 1264:3
-1 157:1 226:1 418:1 524:1 598:1 868:1 1182:1 1216:1 1223:1 1224:1 1226:1 1236:1 1238:1 1243:1 1249:1 1264:1
-1 1224:1 1264:1
-1 174:2 591:1 598:1 748:1 791:1 1182:1 1218:1 1222:1 1224:3 1226:1 1237:1 1249:1 1251:2 1264:3
-1 222:1 1224:3 1235:1 1264:3
-1 598:1 1172:1 1224:2 1226:1 1264:2
-1 598:1 1050:1 1224:1 1226:1 1264:1
-1 141:1 174:2 268:1 278:1 594:1 598:1 1224:2 1226:1 1251:2 1264:2
-1 174:1 1224:3 1251:1 1264:3
-1 121:1 153:1 169:1 174:1 235:1 279:1 377:1 461:1 467:1 657:1 673:1 678:1 684:1 718:1 774:1 794:1 959:1 1047:1 1098:1 1099:1 1224:3 1251:1 1264:3
-1 157:1 236:1 418:1 524:1 591:1 598:1 625:1 868:1 1182:1 1216:1 1222:1 1223:1 1224:5 1226:1 1238:1 1241:1 1243:1 1245:1 1249:1 1264:5
-1 157:1 226:1 418:1 524:1 598:1 748:1 1182:1 1206:1 1216:1 1224:2 1226:1 1236:1 1237:1 1238:1 1243:1 1249:1 1260:1 1264:2
-1 157:1 226:1 418:1 524:1 591:1 598:1 625:1 748:1 1182:1 1206:1 1216:1 1222:1 1224:5 1226:1 1236:1 1237:1 1238:1 1243:1 1245:1 1249:1 1260:1 1264:5
-1 139:1 153:1 174:1 348:1 377:1 461:1 467:1 551:1 657:1 673:1 678:1 718:1 786:1 798:1 847:1 1224:1 1230:1 1251:1 1264:1 1266:3
-1 139:1 174:1 331:1 359:1 362:1 598:1 731:1 1124:1 1182:1 1224:3 1226:1 1230:1 1249:1 1251:1 1264:3
-1 174:1 359:1 461:1 551:1 598:1 748:1 786:1 847:1 959:1 1182:1 1224:2 1226:1 1237:1 1249:1 1251:1 1264:2
-1 174:1 226:1 598:1 748:1 880:1 1182:1 1224:1 1226:1 1236:1 1237:1 1249:1 1251:1 1264:1
-1 222:1 1224:2 1235:1 1264:2
-1 222:1 1224:2 1235:1 1264:2
-1 174:2 598:1 1224:2 1226:1 1251:2 1264:2
-1 174:2 598:1 1224:3 1226:1 1251:2 1264:3
-1 418:1 598:1 1224:5 1226:1 1238:1 1264:5
-1 222:1 1224:3 1235:1 1264:3
-1 174:2 598:1 1224:2 1226:1 1251:2 1264:2
-1 174:2 598:1 1224:2 1226:1 1251:2 1264:2
-1 174:2 598:1 1224:2 1226:1 1251:2 1264:2
-1 585:1 591:1 598:1 791:1 1218:1 1222:1 1224:2 1226:1 1264:2
-1 157:1 418:2 598:2 625:1 1182:2 1224:7 1226:2 1238:2 1243:1 1245:1 1249:2 1264:7
-1 454:1 591:1 1219:1 1222:1 1224:1 1264:1
-1 174:2 598:1 1224:2 1226:1 1251:2 1264:2
-1 157:1 226:1 418:1 524:1 574:1 591:1 598:1 625:1 748:1 868:1 1063:1 1182:1 1216:1 1222:1 1223:1 1224:4 1226:1 1236:1 1237:1 1238:1 1243:1 1245:1 1248:1 1249:1 1264:4
-1 174:1 418:1 524:1 591:1 598:1 868:1 1216:1 1222:1 1223:1 1224:4 1226:1 1238:1 1251:1 1264:4 1266:112
-1 174:2 598:1 1224:2 1226:1 1251:2 1264:2
-1 157:1 226:1 371:1 418:1 524:1 598:1 748:1 868:1 1074:1 1182:1 1216:1 1223:1 1224:1 1226:1 1236:1 1237:1 1238:1 1243:1 1249:1 1264:1
-1 174:2 598:1 1224:2 1226:1 1251:2 1264:2
-1 454:1 1219:1 1224:2 1264:2
-1 222:1 1224:3 1235:1 1264:3
-1 222:1 1224:2 1235:1 1264:2
-1 157:1 226:1 346:1 418:1 524:1 574:1 591:1 598:1 625:1 748:1 1182:1 1216:1 1222:1 1224:2 1226:1 1236:1 1237:1 1238:1 1243:1 1245:1 1248:1 1249:1 1264:2
-1 174:2 598:1 1224:2 1226:1 1251:2 1264:2
-1 174:2 598:1 1224:2 1226:1 1251:2 1264:2
-1 174:2 598:1 1224:2 1226:1 1251:2 1264:2
-1 174:2 598:1 1224:2 1226:1 1251:2 1264:2
-1 174:1 226:1 598:1 738:1 748:1 858:1 1182:1 1221:1 1224:1 1226:1 1236:1 1237:1 1249:1 1251:1 1264:1
-1 174:1 226:1 418:1 574:1 598:1 610:1 748:1 1182:1 1224:1 1226:1 1236:1 1237:1 1238:1 1248:1 1249:1 1251:1 1264:1
-1 174:1 300:1 598:1 1182:1 1224:2 1226:1 1249:1 1251:1 1264:2
-1 139:1 157:1 174:1 418:1 598:1 1182:1 1224:2 1226:1 1230:1 1238:1 1243:1 1249:1 1251:1 1264:2
-1 157:1 174:1 226:1 250:1 418:1 432:1 598:1 605:1 610:1 773:1 1182:1 1224:2 1226:1 1228:1 1236:1 1238:1 1243:1 1249:1 1251:1 1264:2 1266:62
-1 157:1 418:2 598:4 625:1 1182:3 1224:5 1226:4 1238:2 1243:1 1245:1 1249:3 1264:5
-1 139:1 157:1 174:1 226:1 247:1 253:1 343:1 346:1 418:1 524:1 574:1 591:1 598:1 605:1 625:1 720:1 748:1 809:1 857:1 1152:1 1182:1 1216:1 1222:1 1224:2 1225:1 1226:1 1228:1 1230:1 1236:1 1237:1 1238:1 1243:1 1245:1 1248:1 1249:1 1251:1 1264:2
-1 174:2 418:1 598:1 1224:2 1226:1 1238:1 1251:2 1264:2
-1 174:2 418:1 598:1 1224:2 1226:1 1238:1 1251:2 1264:2
-1 174:2 418:1 598:1 1046:1 1182:1 1224:4 1226:1 1238:1 1249:1 1251:2 1264:4
-1 454:1 1219:1 1224:1 1264:1
-1 222:1 1224:3 1235:1 1264:3
-1 226:1 418:1 598:1 1182:1 1224:2 1226:1 1236:1 1238:1 1249:1 1264:2
-1 157:1 174:1 226:1 418:1 524:1 534:1 598:1 856:1 1216:1 1220:1 1224:2 1226:1 1236:1 1238:1 1243:1 1251:1 1264:2
-1 157:1 226:1 418:1 524:1 598:1 748:1 1182:1 1206:1 1216:1 1224:3 1226:1 1236:1 1237:1 1238:1 1243:1 1249:1 1260:1 1264:3
-1 174:2 236:1 598:1 1224:3 1226:1 1241:1 1251:2 1264:3
-1 454:1 1219:1 1224:1 1264:1
-1 454:1 1219:1 1224:1 1264:1
-1 222:1 1224:2 1235:1 1264:2
-1 139:1 157:1 174:1 226:1 343:1 418:1 524:1 543:1 598:1 605:1 625:1 748:1 804:1 1182:1 1206:1 1208:1 1216:1 1224:1 1226:1 1227:1 1228:1 1230:1 1236:1 1237:1 1238:1 1243:1 1245:1 1249:1 1251:1 1260:1 1261:1 1264:1 1266:1
-1 153:1 174:1 256:1 377:1 461:1 467:1 657:1 673:1 678:1 959:1 1099:1 1224:3 1251:1 1264:3
-1 157:1 226:1 418:1 524:1 598:1 748:1 1182:1 1216:1 1224:3 1226:1 1236:1 1237:1 1238:1 1243:1 1249:1 1264:3
-1 157:1 226:1 418:1 524:1 598:1 748:1 1182:1 1216:1 1224:2 1226:1 1236:1 1237:1 1238:1 1243:1 1249:1 1264:2
-1 1224:1 1264:1
-1 157:1 174:1 226:1 418:1 524:1 598:1 748:1 868:1 1182:1 1216:1 1223:1 1224:2 1226:1 1236:1 1237:1 1238:1 1243:1 1249:1 1251:1 1264:2
-1 157:1 226:1 418:1 524:1 598:1 748:1 1182:1 1206:1 1216:1 1224:2 1226:1 1236:1 1237:1 1238:1 1243:1 1249:1 1260:1 1264:2
-1 174:2 598:1 1224:2 1226:1 1251:2 1264:2
-1 598:1 1172:1 1224:2 1226:1 1264:2
-1 222:1 1224:4 1235:1 1264:4
-1 598:1 1224:2 1226:1 1264:2
-1 174:2 219:227 275:15 354:1 598:1 738:1 1168:1 1224:2 1226:1 1251:2 1264:2
-1 174:2 598:1 1168:1 1224:2 1226:1 1251:2 1264:2
-1 157:1 226:1 418:1 524:1 598:1 748:1 1182:1 1206:1 1216:1 1224:3 1226:1 1236:1 1237:1 1238:1 1243:1 1249:1 1260:1 1264:3
-1 157:1 226:1 418:1 524:1 598:1 748:1 1182:1 1206:1 1216:1 1224:3 1226:1 1236:1 1237:1 1238:1 1243:1 1249:1 1260:1 1264:3
-1 139:1 174:1 389:1 418:1 524:1 543:1 544:1 574:1 598:1 748:1 773:1 1110:1 1216:1 1224:1 1226:1 1227:1 1230:1 1237:1 1238:1 1248:1 1251:1 1264:1
-1 418:1 524:1 598:1 725:1 748:1 1216:1 1224:1 1226:1 1237:1 1238:1 1264:1
-1 598:1 1172:1 1224:2 1226:1 1264:2
-1 153:1 174:1 226:1 279:1 377:1 418:1 467:1 544:1 598:1 657:1 673:1 678:1 684:1 718:1 775:1 1099:1 1182:1 1224:4 1226:1 1236:1 1238:1 1249:1 1251:1 1264:4
-1 418:1 598:1 625:1 1224:4 1226:1 1238:1 1245:1 1264:4
-1 153:1 169:1 174:1 204:1 377:1 460:1 467:1 657:1 673:1 678:1 679:1 684:1 718:1 774:1 775:1 1052:1 1197:1 1224:2 1251:1 1264:2
-1 447:1 598:1 650:1 661:1 1224:2 1226:1 1264:2
-1 222:1 1224:5 1235:1 1264:5
-1 174:1 226:1 418:1 598:1 791:1 868:1 1182:1 1218:1 1223:1 1224:4 1226:1 1236:1 1238:1 1249:1 1251:1 1264:4
-1 222:1 1224:3 1235:1 1264:3
-1 174:1 598:1 1224:6 1226:1 1251:1 1264:6
-1 595:1 598:1 1224:4 1226:1 1264:4 1266:3
-1 157:1 418:2 598:2 625:1 1182:2 1224:7 1226:2 1238:2 1243:1 1245:1 1249:2 1264:7
-1 157:1 226:1 343:1 418:1 524:1 591:1 598:1 625:1 748:1 868:1 1182:1 1216:1 1222:1 1223:1 1224:2 1226:1 1236:1 1237:1 1238:1 1243:1 1245:1 1249:1 1264:2
-1 418:1 591:1 598:1 748:1 1182:1 1222:1 1224:2 1226:1 1237:1 1238:1 1249:1 1264:2
-1 598:1 1224:1 1226:1 1264:1
-1 226:1 418:1 524:1 598:1 1182:1 1216:1 1224:2 1226:1 1236:1 1238:1 1249:1 1264:2
-1 226:1 418:1 524:1 598:1 1182:1 1216:1 1224:2 1226:1 1236:1 1238:1 1249:1 1264:2
-1 157:1 226:1 418:1 524:1 598:1 748:1 1182:1 1206:1 1216:1 1224:3 1226:1 1236:1 1237:1 1238:1 1243:1 1249:1 1260:1 1264:3
-1 157:1 226:1 418:2 524:1 591:1 598:4 605:1 625:3 748:2 868:1 1182:2 1206:1 1216:1 1222:1 1223:1 1224:6 1226:4 1228:1 1236:1 1237:2 1238:2 1243:1 1245:3 1249:2 1260:1 1264:6
-1 139:1 145:1 153:1 174:1 279:1 344:1 377:1 460:1 465:1 467:1 657:1 673:1 678:1 684:1 774:1 775:1 1052:1 1103:1 1197:1 1224:2 1230:1 1251:1 1264:2
-1 454:1 1219:1 1224:1 1264:1
-1 418:1 524:1 598:1 868:1 1182:1 1206:1 1216:1 1223:1 1224:1 1226:1 1238:1 1249:1 1260:1 1264:1
-1 130:1 179:1 192:1 260:1 352:1 398:1 552:1 598:1 609:1 698:1 893:1 1190:1 1224:2 1226:1 1264:2
-1 174:2 260:1 552:1 598:1 609:1 1190:1 1224:2 1226:1 1251:2 1264:2
-1 174:1 226:1 418:1 598:1 1182:1 1224:3 1226:1 1236:1 1238:1 1249:1 1251:1 1264:3
-1 157:1 418:2 524:1 598:5 625:2 1182:2 1206:1 1216:1 1224:6 1226:5 1238:2 1243:1 1245:2 1249:2 1260:1 1264:6
-1 157:1 418:2 524:1 591:1 598:4 625:2 868:1 1182:2 1216:1 1222:1 1223:1 1224:6 1226:4 1238:2 1243:1 1245:2 1249:2 1264:6
-1 598:1 1224:2 1226:1 1264:2
-1 157:1 226:1 418:1 524:1 598:1 748:1 1182:1 1206:1 1216:1 1224:3 1226:1 1236:1 1237:1 1238:1 1243:1 1249:1 1260:1 1264:3
-1 157:1 418:1 598:1 1224:3 1226:1 1238:1 1243:1 1264:3
-1 157:1 226:1 418:1 524:1 598:1 748:1 1182:1 1206:1 1216:1 1224:3 1226:1 1236:1 1237:1 1238:1 1243:1 1249:1 1260:1 1264:3
-1 157:1 226:1 418:1 524:1 598:1 748:1 1182:1 1206:1 1216:1 1224:3 1226:1 1236:1 1237:1 1238:1 1243:1 1249:1 1260:1 1264:3
-1 157:1 418:2 598:2 625:1 1182:2 1224:7 1226:2 1238:2 1243:1 1245:1 1249:2 1264:7
-1 394:1 598:1 1224:2 1226:1 1264:2
-1 157:1 226:1 418:1 524:1 598:1 748:1 1182:1 1206:1 1216:1 1224:3 1226:1 1236:1 1237:1 1238:1 1243:1 1249:1 1260:1 1264:3
-1 157:1 418:2 524:1 598:5 625:3 748:1 868:1 1182:2 1216:1 1223:1 1224:6 1226:5 1237:1 1238:2 1243:1 1245:3 1249:2 1264:6
-1 157:1 418:2 524:1 598:3 625:1 748:1 868:1 1182:2 1206:1 1216:1 1223:1 1224:6 1226:3 1237:1 1238:2 1243:1 1245:1 1249:2 1260:1 1264:6
-1 222:1 1224:3 1235:1 1264:3
-1 157:1 226:1 418:1 524:1 598:1 748:1 1182:1 1206:1 1216:1 1224:3 1226:1 1236:1 1237:1 1238:1 1243:1 1249:1 1260:1 1264:3
-1 174:1 226:1 418:1 598:1 659:1 748:1 856:1 1220:1 1224:2 1226:1 1236:1 1237:1 1238:1 1251:1 1264:2
-1 226:1 247:1 418:1 524:1 598:1 705:1 748:1 881:1 919:1 1216:1 1224:3 1226:1 1229:1 1236:1 1237:1 1238:1 1259:1 1264:3 1266:2
-1 454:1 1219:1 1224:1 1264:1
-1 222:1 1224:3 1235:1 1264:3
-1 222:1 1224:3 1235:1 1264:3
-1 174:2 598:1 1224:2 1226:1 1251:2 1264:2
-1 157:1 226:1 418:1 524:1 574:1 598:1 748:1 868:1 1216:1 1223:1 1224:2 1226:1 1236:1 1237:1 1238:1 1243:1 1248:1 1264:2
-1 174:1 598:1 1224:2 1226:1 1251:1 1264:2
-1 174:1 591:1 598:1 1222:1 1224:2 1226:1 1251:1 1264:2
-1 157:1 226:1 404:1 418:2 524:1 591:1 598:5 625:3 748:1 784:1 868:1 958:1 1182:2 1205:1 1206:1 1216:1 1222:1 1223:1 1224:6 1226:5 1236:1 1237:1 1238:2 1239:1 1243:1 1245:3 1249:2 1260:1 1264:6
-1 371:1 418:1 598:1 1224:2 1226:1 1238:1 1264:2
-1 153:1 164:1 174:1 331:1 377:1 467:1 598:1 625:1 657:1 678:1 679:1 705:1 738:1 748:1 927:1 1182:1 1224:2 1226:1 1237:1 1245:1 1249:1 1251:1 1259:1 1264:2
-1 174:2 598:1 1224:2 1226:1 1251:2 1264:2
-1 157:1 418:1 524:1 591:1 598:1 659:1 748:1 868:1 1182:1 1216:1 1222:1 1223:1 1224:2 1226:1 1237:1 1238:1 1243:1 1249:1 1264:2
-1 157:1 418:2 598:2 625:1 1182:2 1224:7 1226:2 1238:2 1243:1 1245:1 1249:2 1264:7
-1 598:1 1172:1 1224:3 1226:1 1264:3
-1 222:1 1224:4 1235:1 1264:4
-1 226:1 346:1 418:1 524:1 574:1 591:1 598:1 625:1 748:1 784:1 791:1 868:1 881:1 891:1 1182:1 1206:1 1216:1 1218:1 1222:1 1223:1 1224:1 1226:1 1229:1 1236:1 1237:1 1238:1 1245:1 1248:1 1249:1 1260:1 1264:1
-1 157:1 418:2 598:2 625:1 1182:2 1224:7 1226:2 1238:2 1243:1 1245:1 1249:2 1264:7
-1 174:2 226:1 260:1 418:1 524:1 591:1 598:1 748:1 791:1 1182:1 1216:1 1218:1 1222:1 1224:3 1226:1 1236:1 1237:1 1238:1 1249:1 1251:2 1264:3
-1 157:1 226:1 418:1 524:1 598:1 868:1 1182:1 1216:1 1223:1 1224:2 1226:1 1236:1 1238:1 1243:1 1249:1 1264:2
-1 454:1 1219:1 1224:1 1264:1
-1 598:1 1153:1 1224:2 1226:1 1264:2
-1 139:1 153:1 174:1 377:1 467:1 598:1 657:1 673:1 678:1 738:1 1182:1 1224:3 1226:1 1230:1 1249:1 1251:1 1264:3
-1 139:1 153:1 164:1 174:1 377:1 461:1 467:1 551:1 598:1 657:1 673:1 678:1 679:1 748:1 959:1 1182:1 1224:2 1226:1 1230:1 1237:1 1249:1 1251:1 1264:2
-1 157:1 226:1 418:2 524:1 598:4 625:3 748:1 868:1 1182:2 1206:1 1216:1 1223:1 1224:6 1226:4 1236:1 1237:1 1238:2 1243:1 1245:3 1249:2 1260:1 1264:6
-1 174:2 418:1 591:1 598:1 1066:1 1222:1 1224:2 1226:1 1238:1 1251:2 1264:2
-1 139:1 153:1 174:1 344:1 377:1 460:1 467:1 657:1 673:1 678:1 684:1 774:1 775:1 791:1 1052:1 1197:1 1218:1 1224:2 1230:1 1251:1 1264:2
-1 157:1 418:1 524:1 598:1 1182:1 1206:1 1216:1 1224:3 1226:1 1238:1 1243:1 1249:1 1260:1 1264:3
-1 157:1 174:1 343:1 418:1 492:1 524:1 598:1 625:1 748:1 868:1 1216:1 1223:1 1224:2 1226:1 1237:1 1238:1 1243:1 1245:1 1251:1 1264:2
-1 226:1 371:1 418:1 524:1 598:1 919:1 957:1 1036:1 1074:1 1208:1 1216:1 1224:2 1226:1 1236:1 1238:1 1261:1 1264:2 1266:69
-1 139:1 153:1 157:1 164:1 174:1 216:1 226:1 331:1 361:1 377:1 418:1 467:1 524:1 574:1 598:1 605:1 625:1 657:1 673:1 678:1 684:1 705:1 748:1 798:1 858:1 868:1 881:1 1099:1 1152:1 1182:1 1206:1 1216:1 1221:1 1223:1 1224:1 1225:1 1226:1 1228:1 1229:1 1230:1 1236:1 1237:1 1238:1 1243:1 1245:1 1248:1 1249:1 1251:1 1259:1 1260:1 1264:1
-1 139:1 153:1 164:1 174:1 216:1 226:1 331:1 361:1 375:1 377:1 418:1 467:1 524:1 574:1 598:1 605:1 625:1 657:1 673:1 678:1 679:1 684:1 705:1 748:1 798:1 858:1 1099:1 1152:1 1182:1 1216:1 1221:1 1224:1 1225:1 1226:1 1228:1 1230:1 1236:1 1237:1 1238:1 1245:1 1248:1 1249:1 1251:1 1259:1 1264:1
-1 222:1 1224:2 1235:1 1264:2
-1 174:1 548:1 598:1 1224:3 1226:1 1251:1 1264:3
-1 123:1 139:1 174:1 226:1 418:1 524:1 574:1 598:1 625:1 718:1 773:1 916:1 1182:1 1206:1 1216:1 1224:2 1226:1 1230:1 1236:1 1238:1 1245:1 1248:1 1249:1 1251:1 1260:1 1264:2 1266:10
-1 418:1 598:1 1155:1 1224:2 1226:1 1238:1 1264:2
-1 222:1 418:1 598:1 625:1 748:1 792:1 1182:1 1224:1 1226:1 1235:1 1237:1 1238:1 1245:1 1249:1 1264:1
-1 418:1 524:1 598:1 1155:1 1216:1 1224:2 1226:1 1238:1 1264:2
-1 139:1 153:1 174:1 279:1 344:1 377:1 460:1 467:1 544:1 598:1 600:1 657:1 673:1 678:1 679:1 718:1 774:1 775:1 794:1 973:1 1004:1 1099:1 1197:1 1224:2 1226:1 1230:1 1251:1 1264:2
-1 123:1 139:1 157:1 174:1 214:1 226:1 247:1 331:1 365:1 418:1 543:1 574:1 598:1 625:1 691:1 705:1 736:1 738:1 748:1 868:1 1110:1 1182:1 1223:1 1224:1 1226:1 1227:1 1230:1 1236:1 1237:1 1238:1 1243:1 1244:1 1245:1 1248:1 1249:1 1251:1 1259:1 1264:1
-1 418:1 598:1 1155:1 1224:2 1226:1 1238:1 1264:2
-1 174:1 598:1 718:1 1224:2 1226:1 1251:1 1264:2
-1 157:1 418:1 598:1 748:1 868:1 1223:1 1224:3 1226:1 1237:1 1238:1 1243:1 1264:3
-1 174:1 598:1 1051:1 1224:4 1226:1 1251:1 1264:4
-1 418:1 598:1 1224:2 1226:1 1238:1 1264:2
-1 188:1 265:5 450:21 598:1 1172:1 1224:3 1226:1 1264:3
-1 188:1 265:5 450:6 598:1 1172:1 1224:3 1226:1 1264:3
-1 174:1 251:1 418:1 598:1 1224:1 1226:1 1238:1 1251:1 1264:1
-1 174:1 598:1 633:1 1224:2 1226:1 1251:1 1264:2
-1 174:1 598:1 633:1 1224:2 1226:1 1251:1 1264:2
-1 157:1 226:1 418:1 524:1 598:1 748:1 1182:1 1206:1 1216:1 1224:2 1226:1 1236:1 1237:1 1238:1 1243:1 1249:1 1260:1 1264:2
-1 139:1 174:1 418:1 598:1 748:1 1182:1 1224:3 1226:1 1230:1 1237:1 1238:1 1249:1 1251:1 1264:3
-1 123:1 139:1 157:1 174:1 226:1 418:1 448:1 524:1 574:1 598:1 625:1 748:1 773:1 809:1 833:1 868:1 1182:1 1216:1 1223:1 1224:2 1226:1 1230:1 1236:1 1237:1 1238:1 1243:1 1245:1 1248:1 1249:1 1251:1 1264:2
-1 139:1 153:1 174:1 331:1 377:1 467:1 598:1 657:1 673:1 678:1 679:1 705:1 1182:1 1224:1 1226:1 1230:1 1249:1 1251:1 1259:1 1264:1
-1 1224:5 1264:5
-1 1224:1 1264:1
-1 139:1 153:1 157:1 174:1 226:1 279:1 344:1 377:1 418:1 460:1 467:1 505:1 540:1 544:1 574:1 598:1 614:1 625:1 626:1 657:1 673:1 678:1 705:1 718:1 721:1 775:1 826:1 976:1 1182:1 1197:1 1224:1 1226:1 1230:1 1236:1 1238:1 1243:1 1245:1 1248:1 1249:1 1251:1 1259:1 1264:1
-1 226:1 247:1 371:1 418:1 524:1 543:1 574:1 598:1 625:1 738:1 748:1 1182:1 1206:1 1216:1 1224:2 1226:1 1227:1 1236:1 1237:1 1238:1 1245:1 1248:1 1249:1 1260:1 1264:2 1266:1
-1 1224:1 1264:1
-1 139:1 153:1 157:1 172:1 174:1 193:1 226:1 377:1 418:1 460:1 461:1 467:1 505:1 524:1 544:1 551:1 574:1 591:1 598:1 625:1 657:1 673:1 678:1 718:1 738:1 748:1 773:1 774:1 868:1 959:1 976:1 1099:1 1182:1 1197:1 1216:1 1222:1 1223:1 1224:1 1226:1 1230:1 1236:1 1237:1 1238:1 1243:1 1245:1 1248:1 1249:1 1251:1 1264:1
-1 157:1 226:3 418:4 524:1 598:3 625:1 658:1 748:1 868:2 1182:2 1206:1 1208:4 1216:1 1223:2 1224:6 1226:3 1236:3 1237:1 1238:4 1243:1 1245:1 1249:2 1260:1 1261:4 1264:6
-1 343:1 371:1 418:1 524:1 598:1 625:1 738:1 748:1 1182:1 1208:1 1216:1 1224:1 1226:1 1237:1 1238:1 1245:1 1249:1 1261:1 1264:1
-1 139:1 157:1 174:1 226:1 418:1 524:1 543:1 574:1 598:1 625:1 705:1 738:1 748:1 791:1 858:1 868:1 927:1 1032:1 1182:1 1216:1 1218:1 1221:1 1223:1 1224:1 1226:1 1227:1 1230:1 1236:1 1237:1 1238:1 1243:1 1245:1 1248:1 1249:1 1251:1 1259:1 1264:1
-1 139:1 153:1 216:1 226:1 271:1 331:1 365:1 377:1 461:1 467:1 505:1 520:1 574:1 598:1 617:1 625:1 657:1 673:1 678:1 705:1 738:1 741:1 748:1 791:1 858:1 878:1 959:1 990:1 1012:1 1015:1 1099:1 1152:1 1164:1 1182:1 1206:1 1214:1 1218:1 1221:1 1224:1 1225:1 1226:1 1230:1 1236:1 1237:1 1240:1 1244:1 1245:1 1248:1 1249:1 1259:1 1260:1 1262:1 1264:1
-1 174:1 226:1 418:1 574:1 598:1 625:1 738:1 748:1 1182:1 1224:2 1226:1 1236:1 1237:1 1238:1 1245:1 1248:1 1249:1 1251:1 1264:2
-1 153:1 174:1 279:1 361:1 377:1 418:1 465:1 467:1 544:1 625:1 657:1 673:1 678:1 718:1 774:1 973:1 976:1 1099:1 1103:1 1197:1 1224:1 1238:1 1245:1 1251:1 1264:1
-1 139:1 157:1 174:1 226:1 247:1 324:1 418:1 520:1 524:1 574:1 591:1 598:1 625:1 705:1 715:1 736:1 738:1 748:1 750:1 791:1 868:1 881:1 920:1 1070:1 1182:1 1214:1 1216:1 1218:1 1222:1 1223:1 1224:2 1226:1 1229:1 1230:1 1236:1 1237:1 1238:1 1243:1 1245:1 1248:1 1249:1 1251:1 1258:1 1259:1 1264:2
-1 418:1 598:1 1182:1 1224:1 1226:1 1238:1 1249:1 1264:1
-1 174:2 496:1 573:1 598:1 634:1 752:1 1006:1 1224:2 1226:1 1251:2 1264:2
-1 139:1 153:1 174:1 344:1 377:1 411:1 418:1 460:1 467:1 540:1 544:1 598:1 625:1 657:1 673:1 678:1 679:1 718:1 719:1 774:1 775:1 927:1 973:1 1099:1 1115:1 1182:1 1197:1 1224:2 1226:1 1230:1 1238:1 1245:1 1249:1 1251:1 1264:2 1266:1
-1 157:1 226:1 418:1 524:1 598:1 748:1 1182:1 1206:1 1216:1 1224:2 1226:1 1236:1 1237:1 1238:1 1243:1 1249:1 1260:1 1264:2
-1 139:1 153:1 174:1 256:1 279:1 288:1 361:1 377:1 397:1 460:1 467:1 544:1 657:1 673:1 678:1 684:1 774:1 775:1 794:1 834:1 927:1 973:1 1086:1 1197:1 1224:3 1230:1 1251:1 1264:3
-1 139:1 153:1 174:1 293:1 344:1 377:1 418:1 465:1 466:1 467:1 524:1 544:1 657:1 673:1 678:1 684:1 699:1 718:1 774:1 794:1 1103:1 1188:1 1216:1 1224:3 1230:1 1238:1 1251:1 1264:3
-1 157:1 226:1 418:1 524:1 598:1 748:1 1182:1 1206:1 1216:1 1224:2 1226:1 1236:1 1237:1 1238:1 1243:1 1249:1 1260:1 1264:2
-1 371:1 598:1 876:1 1224:2 1226:1 1264:2 1266:2
-1 418:1 598:1 791:1 868:1 1182:1 1218:1 1223:1 1224:2 1226:1 1238:1 1249:1 1264:2
-1 157:1 226:1 418:1 524:1 598:1 748:1 1182:1 1216:1 1224:2 1226:1 1236:1 1237:1 1238:1 1243:1 1249:1 1264:2
-1 222:1 1224:3 1235:1 1264:3
-1 598:1 621:1 1224:2 1226:1 1264:2
-1 174:2 260:1 552:1 598:1 609:1 1134:1 1190:1 1224:2 1226:1 1251:2 1264:2
-1 157:1 226:2 418:2 524:1 591:1 598:3 625:1 748:1 1182:2 1216:1 1222:1 1224:6 1226:3 1236:2 1237:1 1238:2 1243:1 1245:1 1249:2 1264:6
-1 157:1 174:2 226:1 418:1 524:1 598:1 625:1 748:1 868:1 1182:1 1216:1 1223:1 1224:2 1226:1 1236:1 1237:1 1238:1 1243:1 1245:1 1249:1 1251:2 1264:2
-1 157:1 226:1 418:1 524:1 598:1 748:1 1182:1 1206:1 1216:1 1224:3 1226:1 1236:1 1237:1 1238:1 1243:1 1249:1 1260:1 1264:3
-1 174:1 226:1 418:1 598:1 1182:1 1224:4 1226:1 1236:1 1238:1 1249:1 1251:1 1264:4
-1 131:1 157:1 226:1 354:1 418:1 524:1 591:1 598:1 748:1 868:1 939:1 1172:2 1182:1 1216:1 1222:1 1223:1 1224:2 1226:1 1236:1 1237:1 1238:1 1243:1 1249:1 1264:2
-1 139:1 153:1 174:1 193:1 201:1 203:1 235:1 279:1 293:1 328:1 377:1 460:1 465:1 467:1 544:1 625:1 657:1 673:1 678:1 684:1 699:1 718:1 757:1 774:1 775:1 794:1 818:1 858:1 949:1 973:1 976:1 1099:1 1130:1 1221:1 1224:2 1230:1 1245:1 1251:1 1264:2
-1 153:1 174:1 193:1 201:1 203:1 279:1 293:1 344:1 377:1 460:1 461:1 465:1 467:1 544:1 657:1 673:1 678:1 684:1 699:1 718:1 774:1 775:1 794:1 818:1 949:1 959:1 976:1 1099:1 1130:1 1224:3 1251:1 1264:3
-1 598:1 1224:1 1226:1 1264:1
-1 174:2 598:1 1224:2 1226:1 1251:2 1264:2
-1 157:1 418:2 598:2 625:1 1182:2 1224:7 1226:2 1238:2 1243:1 1245:1 1249:2 1264:7
-1 157:1 174:1 226:1 418:1 524:1 591:1 598:1 856:1 1182:1 1216:1 1220:1 1222:1 1224:2 1226:1 1236:1 1238:1 1243:1 1249:1 1251:1 1264:2
-1 139:1 598:1 1182:1 1224:1 1226:1 1230:1 1249:1 1264:1
-1 174:1 418:1 591:1 598:1 748:1 856:1 1220:1 1222:1 1224:2 1226:1 1237:1 1238:1 1251:1 1264:2
-1 157:1 226:1 418:1 524:1 598:1 625:1 748:1 791:1 868:1 1206:1 1216:1 1218:1 1223:1 1224:5 1226:1 1236:1 1237:1 1238:1 1243:1 1245:1 1260:1 1264:5
-1 168:1 174:1 177:1 195:1 224:1 226:1 418:1 598:1 625:1 709:1 748:1 902:1 1224:2 1226:1 1236:1 1237:1 1238:1 1245:1 1251:1 1264:2
-1 157:1 418:1 524:1 598:1 1182:1 1216:1 1224:2 1226:1 1238:1 1243:1 1249:1 1264:2
-1 222:1 1224:3 1235:1 1264:3
-1 236:1 598:1 1182:1 1224:1 1226:1 1241:1 1249:1 1264:1
-1 174:2 226:1 418:1 598:1 1182:1 1224:4 1226:1 1236:1 1238:1 1249:1 1251:2 1264:4 1266:7
-1 179:1 371:1 418:1 552:1 591:1 598:1 791:1 1218:1 1222:1 1224:1 1226:1 1238:1 1264:1 1266:771
-1 157:1 174:1 226:1 236:1 418:1 524:1 534:1 598:1 651:1 856:1 1166:1 1182:1 1199:1 1216:1 1220:1 1224:4 1226:1 1233:1 1236:1 1238:1 1241:1 1243:1 1249:1 1251:1 1257:1 1264:4
-1 157:1 418:2 598:2 625:1 1182:2 1224:7 1226:2 1238:2 1243:1 1245:1 1249:2 1264:7
-1 236:1 418:1 598:1 1182:1 1224:1 1226:1 1238:1 1241:1 1249:1 1264:1
-1 236:1 418:1 598:1 1182:1 1224:3 1226:1 1238:1 1241:1 1249:1 1264:3
-1 236:1 598:1 1182:1 1224:1 1226:1 1241:1 1249:1 1264:1
-1 236:1 598:1 1182:1 1224:1 1226:1 1241:1 1249:1 1264:1
-1 236:1 598:1 1182:1 1224:1 1226:1 1241:1 1249:1 1264:1
-1 157:1 226:1 343:1 418:1 524:1 574:1 591:1 598:1 605:1 625:1 748:1 868:1 1182:1 1188:1 1206:1 1208:1 1216:1 1222:1 1223:1 1224:1 1226:1 1228:1 1236:1 1237:1 1238:1 1243:1 1245:1 1248:1 1249:1 1260:1 1261:1 1264:1
-1 157:1 226:1 418:1 524:1 598:1 748:1 1182:1 1206:1 1216:1 1224:2 1226:1 1236:1 1237:1 1238:1 1243:1 1249:1 1260:1 1264:2
-1 157:1 174:2 226:1 418:1 524:1 591:1 598:1 868:1 1216:1 1222:1 1223:1 1224:3 1226:1 1236:1 1238:1 1243:1 1251:2 1264:3
-1 371:1 418:1 598:1 625:1 748:1 1182:1 1224:1 1226:1 1237:1 1238:1 1245:1 1249:1 1264:1
-1 157:1 226:1 290:1 418:1 477:1 524:1 591:1 598:1 748:1 868:1 1114:1 1166:1 1182:1 1199:1 1211:1 1216:1 1222:1 1223:1 1224:2 1226:1 1233:1 1236:1 1237:1 1238:1 1243:1 1249:1 1257:1 1264:2 1266:2
-1 222:1 1224:3 1235:1 1264:3
-1 139:1 157:1 174:1 380:1 418:1 524:1 598:1 605:1 1216:1 1224:1 1226:1 1228:1 1230:1 1238:1 1243:1 1251:1 1264:1
-1 139:1 226:1 271:1 343:1 418:1 524:1 574:1 591:1 598:1 617:1 625:1 632:1 691:1 718:1 990:1 1182:1 1216:1 1222:1 1224:2 1226:1 1230:1 1236:1 1238:1 1240:1 1245:1 1248:1 1249:1 1262:1 1264:2
-1 157:1 226:1 418:1 524:1 598:1 1216:1 1224:3 1226:1 1236:1 1238:1 1243:1 1264:3
-1 141:1 174:1 278:1 594:1 598:1 1043:1 1059:1 1078:1 1224:4 1226:1 1251:1 1264:4
-1 174:1 418:1 598:1 1182:1 1224:5 1226:1 1238:1 1249:1 1251:1 1264:5
-1 139:1 174:1 418:1 520:1 598:1 791:1 807:1 1182:1 1214:1 1218:1 1224:2 1226:1 1230:1 1238:1 1249:1 1251:1 1264:2
-1 222:1 1224:3 1235:1 1264:3
-1 139:1 174:1 226:1 598:1 1182:1 1224:2 1226:1 1230:1 1236:1 1249:1 1251:1 1264:2
-1 174:2 237:1 278:1 301:1 462:1 594:1 598:1 1078:1 1224:3 1226:1 1251:2 1264:3
-1 174:1 226:1 418:1 598:1 1182:1 1224:3 1226:1 1236:1 1238:1 1249:1 1251:1 1264:3
-1 226:1 418:1 598:1 625:1 1224:2 1226:1 1236:1 1238:1 1245:1 1264:2
-1 226:1 418:1 448:1 574:1 591:1 598:1 625:1 748:1 895:1 917:1 1182:1 1222:1 1224:1 1226:1 1236:1 1237:1 1238:1 1245:1 1248:1 1249:1 1264:1
-1 157:1 226:1 418:1 491:1 520:1 524:1 574:1 598:1 605:1 625:1 738:1 748:1 791:1 895:1 917:1 1178:1 1182:1 1206:1 1214:1 1216:1 1218:1 1224:1 1226:1 1228:1 1236:1 1237:1 1238:1 1243:1 1245:1 1247:1 1248:1 1249:1 1260:1 1264:1 1266:20
-1 418:1 598:1 748:1 895:1 917:1 1182:1 1224:1 1226:1 1237:1 1238:1 1249:1 1264:1
-1 157:1 226:1 418:1 598:1 625:1 748:1 895:1 917:1 1178:1 1224:2 1226:1 1236:1 1237:1 1238:1 1243:1 1245:1 1264:2
-1 157:1 226:1 418:1 524:1 574:1 598:1 605:1 625:1 748:1 791:1 881:1 895:1 917:1 1142:1 1182:1 1206:1 1216:1 1218:1 1224:1 1226:1 1228:1 1229:1 1236:1 1237:1 1238:1 1243:1 1245:1 1248:1 1249:1 1260:1 1264:1 1266:326
-1 143:1 157:1 225:1 226:1 386:1 418:1 427:1 524:1 565:1 598:1 605:1 625:1 639:1 748:1 833:1 894:1 895:1 917:1 998:1 1182:1 1216:1 1224:1 1226:1 1228:1 1236:1 1237:1 1238:1 1243:1 1245:1 1249:1 1264:1
-1 222:1 1224:3 1235:1 1264:3
-1 222:1 1224:3 1235:1 1264:3
-1 139:1 153:1 174:1 193:1 235:1 335:1 344:1 364:1 377:1 420:1 460:1 467:1 544:1 657:1 673:1 678:1 684:1 707:1 733:1 774:1 775:1 794:1 845:1 859:1 936:1 951:1 963:1 971:1 973:1 982:1 1052:1 1084:1 1106:1 1157:1 1197:1 1224:1 1230:1 1251:1 1264:1
-1 157:1 174:1 418:1 598:1 791:1 856:1 920:1 958:1 1218:1 1220:1 1224:2 1226:1 1238:1 1239:1 1243:1 1251:1 1258:1 1264:2
-1 139:1 174:1 520:1 598:1 1182:1 1214:1 1224:2 1226:1 1230:1 1249:1 1251:1 1264:2
-1 174:1 448:1 598:1 748:1 1182:1 1224:2 1226:1 1237:1 1249:1 1251:1 1264:2
-1 139:1 153:1 174:1 377:1 467:1 598:1 657:1 673:1 678:1 718:1 738:1 976:1 1224:1 1226:1 1230:1 1251:1 1264:1
-1 157:1 236:1 418:2 524:1 598:3 625:1 748:1 1182:2 1216:1 1224:6 1226:3 1237:1 1238:2 1241:1 1243:1 1245:1 1249:2 1264:6
-1 139:1 153:1 169:1 174:1 279:1 377:1 467:1 576:1 625:1 626:1 657:1 673:1 678:1 684:1 718:1 738:1 949:1 973:1 1224:1 1230:1 1245:1 1251:1 1264:1
-1 139:1 153:1 174:1 235:1 279:1 344:1 364:1 377:1 460:1 467:1 520:1 544:1 657:1 673:1 678:1 684:1 774:1 775:1 794:1 958:1 963:1 971:1 982:1 1052:1 1086:1 1157:1 1197:1 1214:1 1224:2 1230:1 1239:1 1251:1 1264:2
-1 153:1 174:1 377:1 467:1 657:1 673:1 678:1 794:1 1224:3 1251:1 1264:3
-1 139:1 148:1 153:1 174:1 377:1 460:1 467:1 475:1 520:1 544:1 657:1 673:1 678:1 684:1 707:1 774:1 890:1 1197:1 1214:1 1224:2 1230:1 1251:1 1264:2
-1 157:1 418:2 598:2 625:1 1182:2 1224:7 1226:2 1238:2 1243:1 1245:1 1249:2 1264:7
-1 153:1 173:1 174:1 377:1 418:1 467:1 524:1 574:1 598:1 657:1 673:1 678:1 1216:1 1224:2 1226:1 1238:1 1248:1 1251:1 1264:2
-1 174:1 196:1 226:1 598:1 1182:1 1224:3 1226:1 1236:1 1249:1 1251:1 1264:3
-1 139:1 153:1 174:1 279:1 344:1 377:1 460:1 467:1 544:1 625:1 657:1 673:1 678:1 684:1 718:1 774:1 775:1 794:1 973:1 982:1 1052:1 1103:1 1197:1 1224:3 1230:1 1245:1 1251:1 1264:3 1266:23
-1 153:1 174:1 279:1 344:1 377:1 460:1 467:1 520:1 651:1 657:1 673:1 678:1 684:1 774:1 775:1 791:1 890:1 973:1 1004:1 1052:1 1197:1 1214:1 1218:1 1224:2 1251:1 1264:2
-1 157:1 226:1 418:1 524:1 598:1 868:1 1182:1 1216:1 1223:1 1224:2 1226:1 1236:1 1238:1 1243:1 1249:1 1264:2
-1 222:1 1224:4 1235:1 1264:4
-1 139:1 153:1 174:1 226:1 256:1 279:1 377:1 418:1 467:1 598:1 657:1 673:1 678:1 684:1 718:1 774:1 973:1 1224:2 1226:1 1230:1 1236:1 1238:1 1251:1 1264:2
-1 222:1 1224:3 1235:1 1264:3
-1 598:1 1224:3 1226:1 1264:3
-1 157:1 226:1 418:1 524:1 574:1 598:1 625:1 748:1 791:1 868:1 1114:1 1182:1 1216:1 1218:1 1223:1 1224:3 1226:1 1236:1 1237:1 1238:1 1243:1 1245:1 1248:1 1249:1 1264:3
-1 222:1 1224:2 1235:1 1264:2
-1 174:2 598:1 791:1 1218:1 1224:2 1226:1 1251:2 1264:2
-1 174:2 598:1 791:1 1218:1 1224:2 1226:1 1251:2 1264:2
-1 418:1 598:1 791:1 1182:1 1218:1 1224:2 1226:1 1238:1 1249:1 1264:2
-1 222:1 1224:3 1235:1 1264:3
-1 139:1 391:1 563:1 598:1 789:1 990:1 1128:1 1129:1 1215:1 1217:1 1224:4 1226:1 1230:1 1242:1 1255:1 1256:1 1262:1 1264:4
-1 418:1 524:1 598:1 1216:1 1224:3 1226:1 1238:1 1264:3
-1 418:1 598:1 1224:1 1226:1 1238:1 1264:1
-1 153:1 164:1 174:1 256:1 279:1 331:1 361:1 377:1 418:1 460:1 467:1 544:1 598:1 625:1 655:1 657:1 673:1 678:1 679:1 684:1 705:1 748:1 1084:1 1099:1 1182:1 1224:1 1226:1 1237:1 1238:1 1245:1 1249:1 1251:1 1259:1 1264:1 1266:9
-1 139:1 174:1 418:1 598:1 730:1 738:1 791:1 963:1 1106:1 1182:1 1218:1 1224:1 1226:1 1230:1 1238:1 1249:1 1251:1 1264:1
-1 157:1 226:1 418:1 491:1 524:1 574:1 598:1 625:1 748:1 895:1 917:1 1178:1 1182:1 1206:1 1216:1 1224:1 1226:1 1236:1 1237:1 1238:1 1243:1 1245:1 1247:1 1248:1 1249:1 1260:1 1264:1
-1 157:1 226:1 418:1 423:1 524:1 591:1 598:1 625:1 748:1 868:1 958:1 1182:1 1206:1 1216:1 1222:1 1223:1 1224:5 1226:1 1236:1 1237:1 1238:1 1239:1 1243:1 1245:1 1249:1 1260:1 1264:5
-1 418:1 507:1 591:1 598:1 686:1 744:1 843:1 941:1 1222:1 1224:2 1226:1 1238:1 1264:2
-1 157:1 226:1 418:1 524:1 598:1 748:1 1182:1 1206:1 1216:1 1224:3 1226:1 1236:1 1237:1 1238:1 1243:1 1249:1 1260:1 1264:3
-1 226:1 233:1 299:1 383:1 418:1 508:1 509:1 598:1 703:1 926:1 933:1 935:1 1081:1 1182:1 1224:4 1226:1 1236:1 1238:1 1249:1 1264:4
-1 139:1 157:1 174:1 226:1 418:1 524:1 574:1 598:1 625:1 748:1 868:1 1182:1 1206:1 1216:1 1223:1 1224:3 1226:1 1230:1 1236:1 1237:1 1238:1 1243:1 1245:1 1248:1 1249:1 1251:1 1260:1 1264:3
-1 119:1 157:1 158:1 226:1 331:1 418:1 524:1 574:1 598:1 705:1 748:1 868:1 1182:1 1216:1 1223:1 1224:1 1226:1 1236:1 1237:1 1238:1 1243:1 1248:1 1249:1 1259:1 1264:1
-1 139:1 153:1 157:1 172:1 174:1 226:1 377:1 418:1 461:1 467:1 499:1 505:1 524:1 551:1 574:1 598:1 625:1 657:1 673:1 678:1 684:1 718:1 868:1 959:1 1099:1 1182:1 1197:1 1216:1 1223:1 1224:2 1226:1 1230:1 1236:1 1238:1 1243:1 1245:1 1248:1 1249:1 1251:1 1253:1 1264:2
-1 418:1 524:1 598:1 868:1 1182:1 1206:1 1216:1 1223:1 1224:2 1226:1 1238:1 1249:1 1260:1 1264:2
-1 157:1 226:1 418:1 524:1 574:1 598:1 868:1 1182:1 1216:1 1223:1 1224:2 1226:1 1236:1 1238:1 1243:1 1248:1 1249:1 1264:2
-1 157:1 418:2 524:1 598:4 625:2 771:1 1182:2 1206:1 1216:1 1224:6 1226:4 1238:2 1243:1 1245:2 1249:2 1260:1 1264:6
-1 157:1 226:1 418:1 524:1 598:1 748:1 1182:1 1216:1 1224:2 1226:1 1236:1 1237:1 1238:1 1243:1 1249:1 1264:2
-1 174:1 598:1 1055:1 1224:3 1226:1 1251:1 1264:3
-1 157:1 226:1 418:1 524:1 598:1 748:1 1182:1 1206:1 1216:1 1224:2 1226:1 1236:1 1237:1 1238:1 1243:1 1249:1 1260:1 1264:2
-1 139:1 153:1 174:1 235:1 344:1 377:1 467:1 544:1 657:1 673:1 678:1 684:1 774:1 775:1 791:1 794:1 807:1 1015:1 1218:1 1224:3 1230:1 1251:1 1264:3
-1 222:1 1224:3 1235:1 1264:3
-1 454:1 1219:1 1224:1 1264:1
-1 174:1 418:1 524:1 598:1 1216:1 1224:2 1226:1 1238:1 1251:1 1264:2
-1 222:1 1224:3 1235:1 1264:3
-1 222:1 1224:3 1235:1 1264:3
-1 222:1 1224:3 1235:1 1264:3
-1 222:1 1224:3 1235:1 1264:3
-1 222:1 1224:3 1235:1 1264:3
-1 222:1 1224:3 1235:1 1264:3
-1 222:1 1224:3 1235:1 1264:3
-1 174:2 598:1 952:1 1224:2 1226:1 1251:2 1264:2
-1 157:1 418:1 574:1 598:1 919:1 1182:1 1224:1 1226:1 1238:1 1243:1 1248:1 1249:1 1264:1
-1 174:1 418:1 598:1 1224:5 1226:1 1238:1 1251:1 1264:5
-1 222:1 1224:3 1235:1 1264:3
-1 157:1 174:1 226:1 236:1 418:1 524:1 598:1 625:1 748:1 791:1 868:1 1182:1 1216:1 1218:1 1223:1 1224:4 1226:1 1236:1 1237:1 1238:1 1241:1 1243:1 1245:1 1249:1 1251:1 1264:4
-1 174:1 418:1 598:1 1224:3 1226:1 1238:1 1251:1 1264:3
-1 174:1 418:1 598:1 1182:1 1224:2 1226:1 1238:1 1249:1 1251:1 1264:2
-1 158:1 226:1 247:1 598:1 748:1 919:1 1182:1 1206:1 1224:1 1226:1 1236:1 1237:1 1249:1 1260:1 1264:1
-1 391:1 563:1 598:1 789:1 990:1 1128:1 1129:1 1215:1 1217:1 1224:2 1226:1 1242:1 1255:1 1256:1 1262:1 1264:2
-1 222:1 1224:4 1235:1 1264:4
-1 222:1 1224:2 1235:1 1264:2
-1 598:1 1224:4 1226:1 1264:4
-1 598:1 1224:2 1226:1 1264:2
-1 290:1 418:1 477:1 591:1 598:1 1159:1 1211:1 1222:1 1224:2 1226:1 1238:1 1264:2
-1 1224:1 1264:1
-1 284:1 374:1 391:1 563:1 598:1 617:1 748:1 789:1 835:1 883:1 990:1 1128:1 1129:1 1182:1 1215:1 1217:1 1224:3 1226:1 1232:1 1237:1 1240:1 1242:1 1249:1 1250:1 1255:1 1256:1 1262:1 1264:3
-1 139:1 144:1 153:1 174:1 193:1 221:1 227:1 256:1 276:1 279:1 328:1 344:1 377:1 460:1 465:1 467:1 544:1 625:1 626:1 657:1 673:1 678:1 684:1 705:1 718:1 757:1 764:1 774:1 775:1 794:1 910:1 976:1 1004:1 1099:1 1130:1 1154:1 1175:1 1203:1 1224:2 1230:1 1245:1 1251:1 1259:1 1264:2
-1 153:1 174:1 193:1 279:1 344:1 377:1 465:1 467:1 544:1 631:1 657:1 673:1 678:1 684:1 699:1 718:1 775:1 976:1 1099:1 1175:1 1203:1 1224:1 1251:1 1264:1
-1 157:1 226:1 418:1 524:1 591:1 598:1 868:1 1182:1 1206:1 1216:1 1222:1 1223:1 1224:2 1226:1 1236:1 1238:1 1243:1 1249:1 1260:1 1264:2
-1 157:1 226:1 418:1 524:1 591:1 598:1 868:1 1182:1 1206:1 1216:1 1222:1 1223:1 1224:2 1226:1 1236:1 1238:1 1243:1 1249:1 1260:1 1264:2
-1 292:1 940:1 1133:1 1224:2 1264:2
-1 292:1 940:1 1133:1 1224:2 1264:2
-1 226:1 574:1 598:1 625:1 748:1 881:1 1182:1 1224:2 1226:1 1229:1 1236:1 1237:1 1245:1 1248:1 1249:1 1264:2
-1 139:1 157:1 214:1 226:1 247:1 331:1 365:1 418:1 524:1 574:1 598:1 605:1 625:1 705:1 736:1 748:1 791:1 1182:1 1206:1 1216:1 1218:1 1224:2 1226:1 1228:1 1230:1 1236:1 1237:1 1238:1 1243:1 1244:1 1245:1 1248:1 1249:1 1259:1 1260:1 1264:2
-1 371:1 418:1 524:1 574:1 598:1 748:1 1109:1 1182:1 1216:1 1224:1 1226:1 1237:1 1238:1 1248:1 1249:1 1264:1
-1 371:1 418:1 598:1 1224:1 1226:1 1238:1 1264:1
-1 157:1 418:2 598:2 625:1 1182:2 1224:7 1226:2 1238:2 1243:1 1245:1 1249:2 1264:7
-1 134:1 139:1 153:1 169:1 174:1 256:1 279:1 293:1 298:1 344:1 377:1 420:1 460:1 465:1 467:1 544:1 625:1 657:1 673:1 678:1 684:1 718:1 774:1 976:1 1093:1 1197:1 1224:2 1230:1 1245:1 1251:1 1264:2
-1 174:1 226:1 331:1 574:1 598:1 705:1 748:1 1182:1 1224:2 1226:1 1236:1 1237:1 1248:1 1249:1 1251:1 1259:1 1264:2
-1 174:1 598:1 1224:6 1226:1 1251:1 1264:6
-1 132:1 174:1 226:1 299:1 310:1 508:1 509:1 598:1 607:1 702:1 1224:5 1226:1 1236:1 1251:1 1264:5 1266:150
-1 174:1 237:1 598:1 702:1 1224:6 1226:1 1251:1 1264:6
-1 155:1 174:1 598:1 1224:6 1226:1 1251:1 1264:6
-1 132:1 155:1 174:1 299:1 310:1 508:1 509:1 598:1 607:1 702:1 1081:1 1224:5 1226:1 1251:1 1264:5 1266:52
-1 157:1 226:1 418:1 524:1 598:1 748:1 1182:1 1206:1 1216:1 1224:3 1226:1 1236:1 1237:1 1238:1 1243:1 1249:1 1260:1 1264:3
-1 174:2 236:1 598:1 1224:3 1226:1 1241:1 1251:2 1264:3
-1 130:1 179:1 192:1 260:1 352:1 356:1 398:1 552:1 567:1 598:1 609:1 664:1 698:1 893:1 1190:1 1224:1 1226:1 1264:1
-1 137:1 174:2 260:1 283:1 508:1 560:1 598:1 713:1 726:1 844:1 942:1 977:1 1041:1 1163:2 1190:1 1224:2 1226:1 1251:2 1264:2
-1 157:1 226:1 418:1 524:1 598:1 748:1 1182:1 1206:1 1216:1 1224:3 1226:1 1236:1 1237:1 1238:1 1243:1 1249:1 1260:1 1264:3
-1 139:1 174:1 418:1 574:1 598:1 791:1 927:1 955:1 958:1 963:1 1157:1 1182:1 1206:1 1218:1 1224:2 1226:1 1230:1 1238:1 1239:1 1248:1 1249:1 1251:1 1260:1 1264:2
-1 130:1 174:1 240:1 381:1 418:1 436:1 524:1 591:1 598:1 1216:1 1222:1 1224:2 1226:1 1238:1 1251:1 1264:2
-1 260:1 418:2 552:1 598:4 625:2 1182:1 1224:5 1226:4 1238:2 1245:2 1249:1 1264:5
-1 157:1 260:2 418:2 524:1 598:3 625:1 748:1 1182:2 1216:1 1224:6 1226:3 1237:1 1238:2 1243:1 1245:1 1249:2 1264:6
-1 222:1 1224:4 1235:1 1264:4
-1 222:1 1224:3 1235:1 1264:3
-1 174:2 179:1 511:1 552:1 598:1 1027:1 1224:2 1226:1 1251:2 1264:2
-1 141:1 174:2 268:1 278:1 594:1 598:1 1224:3 1226:1 1251:2 1264:3
-1 157:1 418:2 524:1 591:1 598:4 625:2 868:1 958:1 1182:2 1206:1 1216:1 1222:1 1223:1 1224:6 1226:4 1238:2 1239:1 1243:1 1245:2 1249:2 1260:1 1264:6
-1 330:1 1224:1 1264:1
-1 174:1 236:1 444:1 598:1 974:1 1224:3 1226:1 1241:1 1251:1 1264:3
-1 157:1 226:1 418:1 524:1 591:1 598:1 625:1 748:1 868:1 1182:1 1206:1 1216:1 1222:1 1223:1 1224:5 1226:1 1236:1 1237:1 1238:1 1243:1 1245:1 1249:1 1260:1 1264:5
-1 222:1 1224:3 1235:1 1264:3
-1 157:1 226:1 418:1 524:1 598:1 748:1 1182:1 1206:1 1216:1 1224:3 1226:1 1236:1 1237:1 1238:1 1243:1 1249:1 1260:1 1264:3
-1 157:1 418:2 598:2 625:1 1182:2 1224:7 1226:2 1238:2 1243:1 1245:1 1249:2 1264:7
-1 153:1 157:1 174:1 226:1 344:1 377:1 418:1 467:1 574:1 598:1 657:1 673:1 678:1 718:1 929:1 1224:4 1226:1 1236:1 1238:1 1243:1 1248:1 1251:1 1264:4
-1 174:1 226:1 418:1 524:1 598:1 625:1 748:1 1216:1 1224:1 1226:1 1236:1 1237:1 1238:1 1245:1 1251:1 1264:1
-1 430:1 598:1 1224:2 1226:1 1264:2
-1 153:1 174:1 377:1 418:1 467:1 524:1 574:1 598:1 657:1 673:1 678:1 718:1 748:1 1216:1 1224:3 1226:1 1237:1 1238:1 1248:1 1251:1 1264:3
-1 222:1 1224:4 1235:1 1264:4
-1 398:1 598:1 1076:1 1224:2 1226:1 1264:2
-1 157:1 226:2 418:2 524:1 591:1 598:5 625:3 748:1 1182:2 1206:1 1216:1 1222:1 1224:6 1226:5 1236:2 1237:1 1238:2 1243:1 1245:3 1249:2 1260:1 1264:6
-1 174:1 226:1 418:1 598:1 1182:1 1224:3 1226:1 1236:1 1238:1 1249:1 1251:1 1264:3 1266:1
-1 418:1 598:1 791:1 1218:1 1224:4 1226:1 1238:1 1264:4
-1 222:1 1224:3 1235:1 1264:3
-1 157:1 174:2 226:1 236:1 418:1 524:1 598:1 748:1 868:1 1182:1 1216:1 1223:1 1224:2 1226:1 1236:1 1237:1 1238:1 1241:1 1243:1 1249:1 1251:2 1264:2
-1 157:1 226:1 418:1 524:1 598:1 748:1 1182:1 1206:1 1216:1 1224:3 1226:1 1236:1 1237:1 1238:1 1243:1 1249:1 1260:1 1264:3
-1 139:1 174:1 183:1 226:1 343:1 418:1 524:1 591:1 598:1 605:1 625:1 691:1 748:1 804:1 1110:1 1182:1 1192:1 1216:1 1222:1 1224:1 1226:1 1228:1 1230:1 1236:1 1237:1 1238:1 1245:1 1249:1 1251:1 1264:1
-1 222:1 1224:2 1235:1 1264:2
-1 157:1 226:1 418:1 524:1 598:1 748:1 1182:1 1206:1 1216:1 1224:3 1226:1 1236:1 1237:1 1238:1 1243:1 1249:1 1260:1 1264:3
-1 174:1 418:1 598:1 997:1 1224:2 1226:1 1238:1 1251:1 1264:2
-1 418:1 524:1 591:1 598:1 1206:1 1216:1 1222:1 1224:2 1226:1 1238:1 1260:1 1264:2
-1 292:1 940:1 1224:2 1264:2
-1 1224:1 1264:1
-1 222:1 1224:4 1235:1 1264:4
-1 371:1 418:1 524:1 598:1 748:1 919:1 1074:1 1182:1 1188:1 1206:1 1216:1 1224:3 1226:1 1237:1 1238:1 1249:1 1260:1 1264:3 1266:123
-1 226:1 371:1 403:1 418:1 598:1 615:1 625:1 705:1 748:1 791:1 888:1 945:1 1074:1 1088:1 1182:1 1218:1 1224:1 1226:1 1236:1 1237:1 1238:1 1245:1 1249:1 1259:1 1264:1 1266:2
-1 222:1 1224:2 1235:1 1264:2
-1 598:1 1224:2 1226:1 1264:2
-1 157:1 226:2 418:2 524:1 598:4 625:3 748:1 868:1 1182:2 1206:1 1216:1 1223:1 1224:6 1226:4 1236:2 1237:1 1238:2 1243:1 1245:3 1249:2 1260:1 1264:6
-1 139:1 174:1 226:1 273:1 399:1 418:1 524:1 574:1 598:1 738:1 1182:1 1216:1 1224:1 1226:1 1230:1 1236:1 1238:1 1248:1 1249:1 1251:1 1264:1
-1 157:1 226:1 418:1 524:1 574:1 598:1 625:1 748:1 784:1 791:1 868:1 891:1 1182:1 1206:1 1216:1 1218:1 1223:1 1224:4 1226:1 1236:1 1237:1 1238:1 1243:1 1245:1 1248:1 1249:1 1260:1 1264:4
-1 153:1 174:1 203:1 377:1 467:1 598:1 657:1 673:1 678:1 748:1 1182:1 1224:1 1226:1 1237:1 1249:1 1251:1 1264:1
-1 174:1 331:1 418:1 598:1 705:1 809:1 1182:1 1196:1 1224:1 1226:1 1238:1 1249:1 1251:1 1259:1 1264:1
-1 157:1 226:1 418:1 524:1 598:1 625:1 748:1 868:1 1182:1 1206:1 1216:1 1223:1 1224:5 1226:1 1236:1 1237:1 1238:1 1243:1 1245:1 1249:1 1260:1 1264:5
-1 418:2 598:4 625:2 1182:1 1224:6 1226:4 1238:2 1245:2 1249:1 1264:6
-1 157:1 418:2 598:2 625:1 1182:2 1224:7 1226:2 1238:2 1243:1 1245:1 1249:2 1264:7
-1 226:1 418:1 524:1 598:1 868:1 1182:1 1216:1 1223:1 1224:2 1226:1 1236:1 1238:1 1249:1 1264:2
-1 157:1 226:1 418:1 524:1 598:1 868:1 1182:1 1216:1 1223:1 1224:1 1226:1 1236:1 1238:1 1243:1 1249:1 1264:1
-1 222:1 1224:3 1235:1 1264:3
-1 226:1 418:1 598:1 625:1 1224:1 1226:1 1236:1 1238:1 1245:1 1264:1
-1 174:1 299:1 506:1 508:1 598:1 1081:1 1224:3 1226:1 1251:1 1264:3
-1 174:2 418:1 598:1 850:1 1182:1 1224:5 1226:1 1238:1 1249:1 1251:2 1264:5
-1 128:1 226:1 418:1 524:1 574:1 598:1 625:1 748:1 868:1 891:1 1182:1 1216:1 1223:1 1224:4 1226:1 1236:1 1237:1 1238:1 1245:1 1248:1 1249:1 1264:4
-1 157:1 418:2 524:1 598:6 625:3 748:1 868:1 1182:2 1206:1 1208:1 1216:1 1223:1 1224:6 1226:6 1237:1 1238:2 1243:1 1245:3 1249:2 1260:1 1261:1 1264:6
-1 157:1 226:1 418:2 524:1 598:4 625:2 748:1 868:1 1182:2 1206:1 1216:1 1223:1 1224:6 1226:4 1236:1 1237:1 1238:2 1243:1 1245:2 1249:2 1260:1 1264:6
-1 157:1 226:1 418:1 524:1 598:1 748:1 1182:1 1206:1 1216:1 1224:3 1226:1 1236:1 1237:1 1238:1 1243:1 1249:1 1260:1 1264:3
-1 157:1 418:2 524:1 598:3 625:1 748:1 1182:2 1216:1 1224:6 1226:3 1237:1 1238:2 1243:1 1245:1 1249:2 1264:6
-1 222:1 1224:3 1235:1 1264:3
-1 157:1 418:2 598:4 625:2 1182:3 1224:4 1226:4 1238:2 1243:1 1245:2 1249:3 1264:4
-1 598:1 1224:2 1226:1 1264:2
-1 153:1 174:1 226:1 235:1 279:1 377:1 418:1 467:1 543:1 574:1 598:1 657:1 673:1 678:1 684:1 691:1 718:1 774:1 775:1 1099:1 1224:3 1226:1 1227:1 1236:1 1238:1 1248:1 1251:1 1264:3
-1 418:1 598:1 1224:2 1226:1 1238:1 1264:2
-1 157:1 174:1 226:1 418:1 524:1 598:1 856:1 902:1 1182:1 1216:1 1220:1 1224:2 1226:1 1236:1 1238:1 1243:1 1249:1 1251:1 1264:2 1266:1
-1 139:1 153:1 174:1 344:1 377:1 460:1 467:1 520:1 657:1 673:1 678:1 684:1 774:1 775:1 791:1 1052:1 1197:1 1214:1 1218:1 1224:1 1230:1 1251:1 1264:1
-1 157:1 226:1 418:1 524:1 598:1 748:1 1182:1 1206:1 1216:1 1224:2 1226:1 1236:1 1237:1 1238:1 1243:1 1249:1 1260:1 1264:2
-1 598:1 1224:3 1226:1 1264:3
-1 418:1 598:1 625:1 748:1 1182:1 1224:1 1226:1 1237:1 1238:1 1245:1 1249:1 1264:1
-1 139:1 174:1 226:1 360:1 418:1 598:1 1182:1 1224:2 1226:1 1230:1 1236:1 1238:1 1249:1 1251:1 1264:2
-1 166:1 418:1 598:1 791:1 1218:1 1224:2 1226:1 1238:1 1264:2
-1 139:1 153:1 174:1 377:1 461:1 467:1 598:1 657:1 678:1 718:1 959:1 1011:1 1182:1 1224:3 1226:1 1230:1 1249:1 1251:1 1264:3
-1 157:1 226:1 331:1 418:1 520:1 524:1 574:1 591:1 598:1 625:1 736:1 738:1 748:1 791:1 810:1 850:1 1152:1 1182:1 1206:1 1208:1 1214:1 1216:1 1218:1 1222:1 1224:2 1225:1 1226:1 1234:1 1236:1 1237:1 1238:1 1243:1 1245:1 1248:1 1249:1 1260:1 1261:1 1264:2
-1 174:2 226:1 418:1 598:1 1182:1 1224:4 1226:1 1236:1 1238:1 1249:1 1251:2 1264:4 1266:7
-1 157:1 418:2 598:4 625:1 1182:3 1224:4 1226:4 1238:2 1243:1 1245:1 1249:3 1264:4
-1 157:1 418:2 598:2 625:1 1182:2 1224:7 1226:2 1238:2 1243:1 1245:1 1249:2 1264:7
-1 174:1 226:1 574:1 598:1 625:1 718:1 1224:2 1226:1 1236:1 1245:1 1248:1 1251:1 1264:2
-1 122:1 174:1 241:1 418:1 500:1 598:1 702:1 738:1 759:1 761:1 921:1 1046:1 1168:1 1224:5 1226:1 1238:1 1251:1 1264:5
-1 157:1 418:2 598:4 625:1 1182:3 1224:4 1226:4 1238:2 1243:1 1245:1 1249:3 1264:4
-1 157:1 418:2 598:2 625:1 1182:2 1224:7 1226:2 1238:2 1243:1 1245:1 1249:2 1264:7
-1 598:1 1224:4 1226:1 1264:4
-1 139:1 174:1 226:1 418:1 574:1 598:1 773:1 1182:1 1224:1 1226:1 1230:1 1236:1 1238:1 1248:1 1249:1 1251:1 1264:1
-1 157:1 418:2 598:4 625:2 1182:3 1224:4 1226:4 1238:2 1243:1 1245:2 1249:3 1264:4
-1 598:1 1224:2 1226:1 1264:2
-1 157:1 174:1 226:1 336:1 401:1 418:1 444:1 524:1 598:1 748:1 791:1 868:1 941:1 974:1 1182:1 1216:1 1218:1 1223:1 1224:2 1226:1 1236:1 1237:1 1238:1 1243:1 1249:1 1251:1 1264:2
-1 157:1 226:1 418:1 520:1 524:1 574:1 598:1 625:1 748:1 791:1 868:1 1015:1 1182:1 1214:1 1216:1 1218:1 1223:1 1224:1 1226:1 1236:1 1237:1 1238:1 1243:1 1245:1 1248:1 1249:1 1264:1
-1 157:1 174:1 226:1 236:1 418:1 520:1 524:1 598:1 748:1 868:1 881:1 902:1 1182:1 1214:1 1216:1 1223:1 1224:4 1226:1 1229:1 1236:1 1237:1 1238:1 1241:1 1243:1 1249:1 1251:1 1264:4
-1 598:1 621:1 771:1 897:1 1224:1 1226:1 1264:1
-1 123:1 139:1 174:1 226:1 418:1 524:1 574:1 598:1 625:1 715:1 748:1 927:1 1182:1 1216:1 1224:3 1226:1 1230:1 1236:1 1237:1 1238:1 1245:1 1248:1 1249:1 1251:1 1264:3
-1 174:1 495:1 598:1 1224:5 1226:1 1251:1 1264:5
-1 174:1 178:1 1224:4 1251:1 1264:4
-1 222:1 1224:2 1235:1 1264:2
-1 157:1 226:1 418:1 524:1 598:1 748:1 1182:1 1206:1 1216:1 1224:3 1226:1 1236:1 1237:1 1238:1 1243:1 1249:1 1260:1 1264:3
-1 222:1 1224:3 1235:1 1264:3
-1 157:1 226:1 418:2 524:1 598:5 625:3 748:1 868:1 881:1 1182:2 1216:1 1223:1 1224:6 1226:5 1229:1 1236:1 1237:1 1238:2 1243:1 1245:3 1249:2 1264:6
-1 153:1 174:1 226:1 344:1 377:1 418:1 448:1 467:1 574:1 598:1 625:1 657:1 673:1 678:1 691:1 692:1 718:1 809:1 825:1 959:1 1182:1 1224:3 1226:1 1236:1 1238:1 1245:1 1248:1 1249:1 1251:1 1264:3
-1 418:1 524:1 598:1 1216:1 1224:3 1226:1 1238:1 1264:3
-1 157:1 226:1 418:1 524:1 598:1 802:1 1182:1 1216:1 1224:3 1226:1 1236:1 1238:1 1243:1 1249:1 1264:3
-1 222:1 1224:3 1235:1 1264:3
-1 226:1 331:1 418:1 574:1 598:1 705:1 748:1 1182:1 1224:1 1226:1 1236:1 1237:1 1238:1 1248:1 1249:1 1259:1 1264:1
-1 454:1 1219:1 1224:1 1264:1
-1 157:1 226:1 371:1 385:1 418:1 524:1 591:1 598:1 605:1 625:1 748:1 791:1 1074:1 1095:1 1182:1 1206:1 1216:1 1218:1 1222:1 1224:1 1226:1 1228:1 1236:1 1237:1 1238:1 1243:1 1245:1 1249:1 1260:1 1264:1 1266:379
-1 157:1 226:1 418:1 524:1 574:1 598:1 605:1 625:1 748:1 895:1 917:1 1142:1 1182:1 1206:1 1216:1 1224:1 1226:1 1228:1 1236:1 1237:1 1238:1 1243:1 1245:1 1248:1 1249:1 1260:1 1264:1
-1 157:1 226:1 418:1 524:1 574:1 598:1 605:1 625:1 748:1 895:1 917:1 1142:1 1182:1 1206:1 1216:1 1224:1 1226:1 1228:1 1236:1 1237:1 1238:1 1243:1 1245:1 1248:1 1249:1 1260:1 1264:1
-1 371:1 598:1 791:1 876:1 1182:1 1218:1 1224:1 1226:1 1249:1 1264:1
-1 157:1 418:2 524:1 598:5 625:2 1156:1 1182:2 1206:1 1216:1 1224:6 1226:5 1238:2 1243:1 1245:2 1249:2 1260:1 1264:6
-1 222:1 598:1 1050:1 1156:1 1224:2 1226:1 1235:1 1264:2
-1 222:1 1224:3 1235:1 1264:3
-1 222:1 1224:3 1235:1 1264:3
-1 157:1 226:1 418:1 524:1 598:1 625:1 748:1 1182:1 1206:1 1216:1 1224:5 1226:1 1236:1 1237:1 1238:1 1243:1 1245:1 1249:1 1260:1 1264:5
-1 146:1 153:1 174:1 279:1 377:1 461:1 467:1 551:1 574:1 657:1 673:1 678:1 718:1 798:1 959:1 1224:2 1248:1 1251:1 1264:2
-1 157:1 418:2 598:2 625:1 1182:2 1224:7 1226:2 1238:2 1243:1 1245:1 1249:2 1264:7
-1 174:1 598:1 1224:6 1226:1 1251:1 1264:6
-1 174:1 598:1 1224:6 1226:1 1251:1 1264:6
-1 174:1 226:1 418:1 598:1 896:1 1182:1 1224:5 1226:1 1236:1 1238:1 1249:1 1251:1 1264:5
-1 139:1 153:1 174:1 344:1 377:1 460:1 467:1 520:1 544:1 657:1 673:1 678:1 684:1 774:1 775:1 791:1 1052:1 1197:1 1214:1 1218:1 1224:1 1230:1 1251:1 1264:1
-1 226:1 346:1 418:1 524:1 591:1 598:1 784:1 987:1 1216:1 1222:1 1224:1 1226:1 1236:1 1238:1 1264:1
-1 174:1 598:1 1224:2 1226:1 1251:1 1264:2
-1 157:1 418:2 524:1 598:5 625:2 1182:2 1206:1 1216:1 1224:6 1226:5 1238:2 1243:1 1245:2 1249:2 1260:1 1264:6
-1 598:1 1224:2 1226:1 1264:2 1266:21
-1 598:1 1224:2 1226:1 1264:2
-1 222:1 1224:2 1235:1 1264:2
-1 134:1 145:1 153:1 216:1 256:1 271:1 377:1 418:1 460:1 467:1 544:1 598:1 657:1 678:1 684:1 990:1 1099:1 1182:1 1224:1 1226:1 1238:1 1249:1 1262:1 1264:1
-1 139:1 153:1 174:1 279:1 377:1 461:1 467:1 551:1 626:1 657:1 673:1 678:1 684:1 718:1 775:1 798:1 959:1 976:1 1099:1 1197:1 1224:1 1230:1 1251:1 1264:1
-1 157:1 226:1 418:1 524:1 598:1 748:1 1182:1 1206:1 1216:1 1224:3 1226:1 1236:1 1237:1 1238:1 1243:1 1249:1 1260:1 1264:3
-1 133:1 174:2 226:1 232:1 252:1 299:1 383:1 506:1 508:1 509:1 598:1 646:1 703:1 903:1 926:1 933:1 935:1 980:1 1081:1 1182:1 1224:2 1226:1 1236:1 1249:1 1251:2 1264:2 1266:299
-1 157:1 226:1 418:1 524:1 598:1 748:1 1182:1 1206:1 1216:1 1224:3 1226:1 1236:1 1237:1 1238:1 1243:1 1249:1 1260:1 1264:3
-1 174:1 598:1 1224:2 1226:1 1251:1 1264:2
-1 454:1 1219:1 1224:1 1264:1
-1 222:1 1224:3 1235:1 1264:3
-1 185:1 226:1 290:1 398:1 418:1 524:1 591:1 598:1 868:1 1114:1 1166:1 1182:1 1216:1 1222:1 1223:1 1224:1 1226:1 1233:1 1236:1 1238:1 1249:1 1264:1
-1 595:1 598:1 1224:4 1226:1 1264:4 1266:3
-1 222:1 1224:3 1235:1 1264:3
-1 157:1 226:1 418:1 524:1 598:1 748:1 1182:1 1206:1 1216:1 1224:2 1226:1 1236:1 1237:1 1238:1 1243:1 1249:1 1260:1 1264:2
-1 174:1 381:1 418:1 524:1 598:1 868:1 1216:1 1223:1 1224:2 1226:1 1238:1 1251:1 1264:2
-1 174:1 226:1 418:1 524:1 591:1 598:1 625:1 658:1 748:1 791:1 868:1 1182:1 1188:1 1216:1 1218:1 1222:1 1223:1 1224:4 1226:1 1236:1 1237:1 1238:1 1245:1 1249:1 1251:1 1264:4
-1 598:1 1172:1 1224:3 1226:1 1264:3
-1 418:1 598:1 1182:1 1224:2 1226:1 1238:1 1249:1 1264:2
-1 157:1 418:2 524:1 598:1 625:2 868:1 1182:2 1206:1 1216:1 1223:1 1224:11 1226:1 1238:2 1243:1 1245:2 1249:2 1260:1 1264:11
-1 391:1 563:1 598:1 617:1 789:1 883:1 944:1 990:1 1128:1 1129:1 1182:1 1215:1 1217:1 1224:4 1226:1 1232:1 1240:1 1242:1 1249:1 1255:1 1256:1 1262:1 1264:4 1266:36
-1 418:1 524:1 598:1 1101:1 1216:1 1224:1 1226:1 1238:1 1264:1
-1 454:1 1219:1 1224:1 1264:1
-1 598:1 1224:1 1226:1 1264:1
-1 157:1 418:1 524:1 598:1 748:1 895:1 1182:1 1216:1 1224:2 1226:1 1237:1 1238:1 1243:1 1249:1 1264:2
-1 157:1 174:2 418:1 598:1 625:1 748:1 868:1 1223:1 1224:3 1226:1 1237:1 1238:1 1243:1 1245:1 1251:2 1264:3
-1 598:1 1224:1 1226:1 1264:1
-1 157:1 418:2 598:4 625:1 1182:3 1224:5 1226:4 1238:2 1243:1 1245:1 1249:3 1264:5
-1 139:1 174:1 418:1 448:1 598:1 603:1 738:1 958:1 1182:1 1224:1 1226:1 1230:1 1238:1 1239:1 1249:1 1251:1 1264:1
-1 134:1 139:1 145:1 153:1 174:1 193:1 235:1 279:1 344:1 361:1 365:1 377:1 420:1 460:1 465:1 467:1 540:1 544:1 657:1 673:1 678:1 679:1 684:1 707:1 733:1 734:1 774:1 775:1 834:1 973:1 994:1 1052:1 1086:1 1099:1 1186:1 1193:1 1197:1 1224:2 1230:1 1244:1 1251:1 1264:2
-1 222:1 1224:3 1235:1 1264:3
-1 222:1 1224:3 1235:1 1264:3
-1 157:1 418:2 598:4 625:1 1182:3 1224:4 1226:4 1238:2 1243:1 1245:1 1249:3 1264:4
-1 598:1 791:1 1218:1 1224:2 1226:1 1264:2
-1 159:1 552:1 598:1 1224:3 1226:1 1264:3
-1 222:1 1224:3 1235:1 1264:3
-1 157:1 226:1 418:1 524:1 598:1 748:1 1182:1 1206:1 1216:1 1224:4 1226:1 1236:1 1237:1 1238:1 1243:1 1249:1 1260:1 1264:4
-1 139:1 1224:2 1230:1 1264:2
-1 157:1 226:1 418:1 423:1 524:1 598:1 1182:1 1216:1 1224:3 1226:1 1236:1 1238:1 1243:1 1249:1 1264:3
-1 157:1 226:1 418:1 524:1 598:1 748:1 1182:1 1206:1 1216:1 1224:2 1226:1 1236:1 1237:1 1238:1 1243:1 1249:1 1260:1 1264:2
-1 157:1 226:1 418:1 524:1 598:1 791:1 868:1 958:1 1182:1 1216:1 1218:1 1223:1 1224:1 1226:1 1236:1 1238:1 1239:1 1243:1 1249:1 1264:1
-1 174:1 598:1 1224:5 1226:1 1251:1 1264:5
-1 129:1 139:1 153:1 174:1 193:1 209:1 279:1 328:1 361:1 377:1 460:1 467:1 544:1 657:1 673:1 678:1 684:1 738:1 774:1 775:1 818:1 833:1 834:1 859:1 973:1 975:1 976:1 1052:1 1086:1 1103:1 1197:1 1224:2 1230:1 1251:1 1264:2
-1 371:1 598:1 1146:1 1224:2 1226:1 1264:2 1266:1
-1 123:1 174:1 222:1 418:1 598:1 625:1 748:1 1182:1 1224:1 1226:1 1235:1 1237:1 1238:1 1245:1 1249:1 1251:1 1264:1
-1 222:1 1224:2 1235:1 1264:2
-1 157:1 226:1 236:1 418:1 524:1 598:1 738:1 748:1 868:1 932:1 1182:1 1216:1 1223:1 1224:3 1226:1 1236:1 1237:1 1238:1 1241:1 1243:1 1249:1 1264:3
-1 157:1 226:1 418:1 524:1 598:1 748:1 868:1 895:1 1182:1 1216:1 1223:1 1224:2 1226:1 1236:1 1237:1 1238:1 1243:1 1249:1 1264:2
-1 157:1 418:2 598:2 625:1 1182:2 1224:7 1226:2 1238:2 1243:1 1245:1 1249:2 1264:7
-1 598:1 1224:1 1226:1 1264:1
-1 598:1 1224:2 1226:1 1264:2
-1 1224:1 1264:1
-1 139:1 174:1 222:1 226:1 418:1 499:1 574:1 598:1 625:1 748:1 818:1 881:1 1182:1 1206:1 1224:2 1226:1 1229:1 1230:1 1235:1 1236:1 1237:1 1238:1 1245:1 1248:1 1249:1 1251:1 1253:1 1260:1 1264:2
-1 153:1 157:1 174:1 226:1 344:1 377:1 418:1 467:1 524:1 574:1 591:1 598:1 605:1 625:1 657:1 678:1 718:1 833:1 868:1 927:1 975:1 1182:1 1216:1 1222:1 1223:1 1224:1 1226:1 1228:1 1236:1 1238:1 1243:1 1245:1 1248:1 1249:1 1251:1 1264:1
-1 153:1 157:1 174:1 226:1 377:1 418:1 467:1 574:1 598:1 657:1 673:1 678:1 718:1 1224:2 1226:1 1236:1 1238:1 1243:1 1248:1 1251:1 1264:2
-1 290:1 346:1 418:1 457:1 524:1 598:1 748:1 784:1 987:1 1216:1 1224:2 1226:1 1237:1 1238:1 1264:2
-1 139:1 174:1 365:1 366:1 418:1 574:1 598:1 625:1 693:1 748:1 791:1 920:1 1122:1 1182:1 1206:1 1218:1 1224:1 1226:1 1230:1 1237:1 1238:1 1244:1 1245:1 1248:1 1249:1 1251:1 1258:1 1260:1 1264:1 1266:5
-1 139:1 174:1 418:1 598:1 625:1 748:1 1182:1 1224:2 1226:1 1230:1 1237:1 1238:1 1245:1 1249:1 1251:1 1264:2 1266:5
-1 139:1 157:1 174:1 226:1 418:1 574:1 598:1 625:1 748:1 868:1 1182:1 1223:1 1224:2 1226:1 1230:1 1236:1 1237:1 1238:1 1243:1 1245:1 1248:1 1249:1 1251:1 1264:2 1266:5
-1 174:2 598:1 1224:2 1226:1 1251:2 1264:2
-1 153:1 174:1 256:1 377:1 461:1 467:1 657:1 673:1 678:1 959:1 1099:1 1224:3 1251:1 1264:3
-1 174:1 418:1 598:1 625:1 748:1 1182:1 1224:3 1226:1 1237:1 1238:1 1245:1 1249:1 1251:1 1264:3
-1 174:1 418:1 598:1 625:1 748:1 1182:1 1224:3 1226:1 1237:1 1238:1 1245:1 1249:1 1251:1 1264:3
-1 139:1 174:1 479:1 598:1 1182:1 1224:2 1226:1 1230:1 1249:1 1251:1 1264:2
-1 139:1 144:1 174:1 189:1 418:1 598:1 625:1 718:1 763:1 833:1 1182:1 1224:1 1226:1 1230:1 1238:1 1245:1 1249:1 1251:1 1264:1
-1 139:1 174:1 418:1 598:1 718:1 1182:1 1224:1 1226:1 1230:1 1238:1 1249:1 1251:1 1264:1
-1 174:1 418:1 524:1 598:1 1182:1 1216:1 1224:2 1226:1 1238:1 1249:1 1251:1 1264:2
-1 157:1 418:1 524:1 598:1 605:1 649:1 676:1 895:1 1042:1 1178:1 1216:1 1224:1 1226:1 1228:1 1238:1 1243:1 1264:1
-1 226:1 418:1 524:1 533:1 574:1 598:1 748:1 810:1 868:1 1182:1 1206:1 1216:1 1223:1 1224:1 1226:1 1234:1 1236:1 1237:1 1238:1 1248:1 1249:1 1260:1 1264:1
-1 157:1 226:1 418:1 448:1 524:1 574:1 598:1 625:1 705:1 715:1 736:1 748:1 791:1 810:1 868:1 958:1 1182:1 1206:1 1216:1 1218:1 1223:1 1224:1 1226:1 1234:1 1236:1 1237:1 1238:1 1239:1 1243:1 1245:1 1248:1 1249:1 1259:1 1260:1 1264:1
-1 157:1 226:1 418:1 524:1 574:1 598:1 625:1 748:1 791:1 868:1 965:1 1182:1 1206:1 1216:1 1218:1 1223:1 1224:1 1226:1 1236:1 1237:1 1238:1 1243:1 1245:1 1248:1 1249:1 1260:1 1264:1
-1 157:1 226:1 418:1 524:1 574:1 598:1 625:1 748:1 868:1 891:1 1182:1 1216:1 1223:1 1224:1 1226:1 1236:1 1237:1 1238:1 1243:1 1245:1 1248:1 1249:1 1264:1
-1 174:1 226:1 418:1 448:1 598:1 856:1 1220:1 1224:2 1226:1 1236:1 1238:1 1251:1 1264:2
-1 157:1 226:1 418:2 524:1 598:4 625:2 1182:2 1206:1 1216:1 1224:6 1226:4 1236:1 1238:2 1243:1 1245:2 1249:2 1260:1 1264:6
-1 174:1 278:1 594:1 598:1 1043:1 1224:2 1226:1 1251:1 1264:2
-1 141:1 174:2 278:1 594:1 598:1 1043:1 1182:1 1224:2 1226:1 1249:1 1251:2 1264:2
-1 157:1 418:2 524:1 591:1 598:4 625:2 1182:2 1216:1 1222:1 1224:6 1226:4 1238:2 1243:1 1245:2 1249:2 1264:6
-1 157:1 418:2 524:1 598:5 625:2 868:1 1182:2 1206:1 1216:1 1223:1 1224:7 1226:5 1238:2 1243:1 1245:2 1249:2 1260:1 1264:7
-1 454:1 1219:1 1224:1 1264:1
-1 130:1 192:1 260:1 262:1 588:1 598:1 762:1 777:1 1190:1 1224:3 1226:1 1264:3
-1 153:1 157:1 174:1 226:1 344:1 377:1 418:1 467:1 598:1 657:1 678:1 748:1 858:1 1182:1 1221:1 1224:2 1226:1 1236:1 1237:1 1238:1 1243:1 1249:1 1251:1 1264:2
-1 257:1 284:1 374:1 391:1 563:1 590:1 598:1 617:1 789:1 835:1 883:1 990:1 1128:1 1129:1 1215:1 1217:1 1224:3 1226:1 1232:1 1240:1 1242:1 1250:1 1255:1 1256:1 1262:1 1264:3
-1 222:1 1224:3 1235:1 1264:3
-1 153:1 174:1 279:1 312:1 377:1 467:1 544:1 657:1 673:1 678:1 684:1 775:1 976:1 1099:1 1130:1 1224:1 1251:1 1264:1
-1 153:1 174:1 203:1 279:1 344:1 377:1 460:1 467:1 544:1 657:1 673:1 678:1 684:1 718:1 774:1 775:1 794:1 818:1 976:1 1099:1 1130:1 1151:1 1224:2 1251:1 1264:2
-1 153:1 169:1 174:1 198:1 203:1 217:1 226:1 227:1 279:1 293:1 296:1 312:1 377:1 418:1 443:1 455:1 460:1 461:1 465:1 467:1 505:1 524:1 525:1 527:1 544:1 551:1 614:1 625:1 626:1 630:1 657:1 673:1 678:1 684:1 691:1 718:1 748:1 764:1 765:1 775:1 787:1 791:1 796:1 798:1 804:1 854:1 864:1 884:1 959:1 976:1 1089:1 1099:1 1197:1 1216:1 1218:1 1224:2 1231:1 1236:1 1237:1 1238:1 1245:1 1251:1 1264:2
-1 454:1 1219:1 1224:1 1264:1
-1 236:1 598:1 1224:2 1226:1 1241:1 1264:2
-1 226:1 418:1 574:1 598:1 625:1 738:1 748:1 1182:1 1224:1 1226:1 1236:1 1237:1 1238:1 1245:1 1248:1 1249:1 1264:1
-1 418:1 598:1 1182:1 1224:2 1226:1 1238:1 1249:1 1264:2
-1 157:1 226:1 418:2 524:1 598:4 625:3 748:1 868:1 1182:2 1206:1 1216:1 1223:1 1224:6 1226:4 1236:1 1237:1 1238:2 1243:1 1245:3 1249:2 1260:1 1264:6
-1 157:1 226:1 418:1 524:1 598:1 748:1 1182:1 1206:1 1216:1 1224:3 1226:1 1236:1 1237:1 1238:1 1243:1 1249:1 1260:1 1264:3
-1 598:1 1172:1 1224:4 1226:1 1264:4
-1 598:1 868:1 920:1 958:1 1182:1 1206:1 1223:1 1224:1 1226:1 1239:1 1249:1 1258:1 1260:1 1264:1
-1 598:1 791:1 868:1 920:1 958:1 1182:1 1206:1 1218:1 1223:1 1224:1 1226:1 1239:1 1249:1 1258:1 1260:1 1264:1
-1 226:1 418:1 598:1 605:1 748:1 1182:1 1224:1 1226:1 1228:1 1236:1 1237:1 1238:1 1249:1 1264:1
-1 533:1 598:1 625:1 748:1 791:1 868:1 920:1 958:1 1182:1 1206:1 1218:1 1223:1 1224:1 1226:1 1237:1 1239:1 1245:1 1249:1 1258:1 1260:1 1264:1
-1 598:1 868:1 958:1 1182:1 1206:1 1223:1 1224:1 1226:1 1239:1 1249:1 1260:1 1264:1
-1 598:1 868:1 920:1 1182:1 1206:1 1223:1 1224:1 1226:1 1249:1 1258:1 1260:1 1264:1
-1 418:1 524:1 598:1 791:1 868:1 920:1 958:1 1182:1 1206:1 1216:1 1218:1 1223:1 1224:1 1226:1 1238:1 1239:1 1249:1 1258:1 1260:1 1264:1
-1 454:1 1219:1 1224:1 1264:1
-1 598:1 868:1 920:1 958:1 1182:1 1206:1 1223:1 1224:1 1226:1 1239:1 1249:1 1258:1 1260:1 1264:1
-1 520:1 591:1 598:1 625:1 748:1 791:1 868:1 1182:1 1206:1 1214:1 1218:1 1222:1 1223:1 1224:1 1226:1 1237:1 1245:1 1249:1 1260:1 1264:1
-1 598:1 1224:2 1226:1 1264:2
-1 139:1 144:1 157:1 174:1 226:1 418:1 524:1 574:1 598:1 625:1 748:1 964:1 1182:1 1206:1 1216:1 1224:2 1226:1 1230:1 1236:1 1237:1 1238:1 1243:1 1245:1 1248:1 1249:1 1251:1 1260:1 1264:2
-1 598:1 868:1 920:1 958:1 1182:1 1206:1 1223:1 1224:1 1226:1 1239:1 1249:1 1258:1 1260:1 1264:1
-1 418:1 524:1 598:1 791:1 868:1 920:1 958:1 1182:1 1206:1 1216:1 1218:1 1223:1 1224:1 1226:1 1238:1 1239:1 1249:1 1258:1 1260:1 1264:1
-1 598:1 791:1 868:1 958:1 1182:1 1206:1 1218:1 1223:1 1224:1 1226:1 1239:1 1249:1 1260:1 1264:1
-1 226:1 398:1 598:1 605:1 625:1 748:1 893:1 1182:1 1224:1 1226:1 1228:1 1236:1 1237:1 1245:1 1249:1 1264:1
-1 412:1 418:1 598:1 621:1 1224:1 1226:1 1238:1 1264:1
-1 139:1 174:1 418:1 598:1 1182:1 1224:1 1226:1 1230:1 1238:1 1249:1 1251:1 1264:1
-1 598:1 621:1 748:1 1182:1 1224:2 1226:1 1237:1 1249:1 1264:2
-1 1224:1 1264:1
-1 222:1 1224:3 1235:1 1264:3
-1 139:1 157:1 174:1 226:1 247:1 253:1 343:1 346:1 418:1 524:1 574:1 591:1 598:1 605:1 625:1 720:1 748:1 809:1 857:1 1152:1 1182:1 1216:1 1222:1 1224:2 1225:1 1226:1 1228:1 1230:1 1236:1 1237:1 1238:1 1243:1 1245:1 1248:1 1249:1 1251:1 1264:2
-1 222:1 1224:4 1235:1 1264:4
-1 222:1 1224:2 1235:1 1264:2
-1 598:1 1224:2 1226:1 1264:2
-1 157:1 226:1 418:1 524:1 591:1 598:1 748:1 868:1 1182:1 1188:1 1216:1 1222:1 1223:1 1224:2 1226:1 1236:1 1237:1 1238:1 1243:1 1249:1 1264:2
-1 157:1 418:1 598:1 868:1 1182:1 1223:1 1224:2 1226:1 1238:1 1243:1 1249:1 1264:2
-1 157:1 226:1 418:1 524:1 591:1 598:1 748:1 868:1 1182:1 1188:1 1216:1 1222:1 1223:1 1224:2 1226:1 1236:1 1237:1 1238:1 1243:1 1249:1 1264:2
-1 157:1 226:1 418:1 524:1 598:1 748:1 868:1 1182:1 1216:1 1223:1 1224:3 1226:1 1236:1 1237:1 1238:1 1243:1 1249:1 1264:3
-1 174:1 324:1 418:1 598:1 705:1 738:1 1182:1 1224:2 1226:1 1238:1 1249:1 1251:1 1259:1 1264:2
-1 139:1 157:1 174:1 175:1 226:1 341:1 345:1 418:1 446:1 448:1 571:1 574:1 598:1 625:1 738:1 748:1 916:1 1182:1 1224:1 1226:1 1230:1 1236:1 1237:1 1238:1 1243:1 1245:1 1248:1 1249:1 1251:1 1264:1
-1 139:1 174:1 418:1 574:1 598:1 748:1 1182:1 1224:1 1226:1 1230:1 1237:1 1238:1 1248:1 1249:1 1251:1 1264:1
-1 157:1 226:1 418:1 524:1 598:1 748:1 1182:1 1206:1 1216:1 1224:3 1226:1 1236:1 1237:1 1238:1 1243:1 1249:1 1260:1 1264:3
-1 398:1 418:1 598:1 912:1 1224:2 1226:1 1238:1 1264:2
-1 157:1 174:1 226:1 418:1 524:1 566:1 591:1 598:1 625:1 748:1 868:1 1182:1 1216:1 1222:1 1223:1 1224:4 1226:1 1236:1 1237:1 1238:1 1243:1 1245:1 1249:1 1251:1 1264:4
-1 260:1 262:1 591:1 598:1 1190:1 1222:1 1224:2 1226:1 1264:2
-1 226:1 418:1 524:1 598:1 625:1 738:1 748:1 1182:1 1216:1 1224:2 1226:1 1236:1 1237:1 1238:1 1245:1 1249:1 1264:2
-1 136:1 598:1 621:1 1224:2 1226:1 1264:2
-1 255:1 598:1 895:1 1224:3 1226:1 1264:3
-1 174:1 418:1 598:1 920:1 1224:2 1226:1 1238:1 1251:1 1258:1 1264:2
-1 158:1 226:1 418:1 524:1 591:1 598:1 625:1 705:1 748:1 791:1 807:1 833:1 1182:1 1188:1 1216:1 1218:1 1222:1 1224:3 1226:1 1236:1 1237:1 1238:1 1245:1 1249:1 1259:1 1264:3 1266:74
-1 157:1 174:2 226:1 418:1 524:1 598:1 625:1 748:1 868:1 1182:1 1216:1 1223:1 1224:3 1226:1 1236:1 1237:1 1238:1 1243:1 1245:1 1249:1 1251:2 1264:3
-1 174:1 226:1 260:1 418:1 524:1 591:1 598:1 644:1 856:1 1060:1 1182:1 1216:1 1220:1 1222:1 1224:2 1226:1 1236:1 1238:1 1249:1 1251:1 1264:2
-1 139:1 174:1 251:1 418:1 598:1 924:1 1182:1 1224:2 1226:1 1230:1 1238:1 1249:1 1251:1 1264:2
-1 174:2 384:1 429:1 464:1 591:1 598:1 992:1 1222:1 1224:4 1226:1 1251:2 1264:4
-1 157:1 226:1 418:1 423:1 524:1 598:1 625:1 738:1 748:1 1182:1 1206:1 1216:1 1224:2 1226:1 1236:1 1237:1 1238:1 1243:1 1245:1 1249:1 1260:1 1264:2
-1 236:1 598:1 1224:2 1226:1 1241:1 1264:2
-1 116:1 121:1 159:1 226:1 320:1 413:1 598:1 642:1 724:1 748:1 886:1 1113:1 1224:1 1226:1 1236:1 1237:1 1264:1
-1 174:1 598:1 1182:1 1224:4 1226:1 1249:1 1251:1 1264:4
-1 157:1 418:2 598:4 625:1 1182:3 1224:5 1226:4 1238:2 1243:1 1245:1 1249:3 1264:5
-1 157:1 226:1 418:1 524:1 598:1 625:1 659:1 748:1 868:1 891:1 1182:1 1216:1 1223:1 1224:2 1226:1 1236:1 1237:1 1238:1 1243:1 1245:1 1249:1 1264:2
-1 174:1 226:1 237:1 320:1 351:1 598:1 642:1 702:1 724:1 1224:5 1226:1 1236:1 1251:1 1264:5
-1 226:1 257:1 260:1 374:1 391:1 418:1 435:1 524:1 563:1 591:1 598:1 617:1 625:1 746:1 748:1 789:1 791:1 835:1 883:1 990:1 1128:1 1129:1 1182:1 1188:1 1215:1 1216:1 1217:1 1218:1 1222:1 1224:4 1226:1 1232:1 1236:1 1237:1 1238:1 1240:1 1242:1 1245:1 1249:1 1250:1 1255:1 1256:1 1262:1 1264:4
-1 236:1 418:1 591:1 598:1 1222:1 1224:2 1226:1 1238:1 1241:1 1264:2
-1 418:1 524:1 591:1 598:1 748:1 791:1 1182:1 1216:1 1218:1 1222:1 1224:1 1226:1 1237:1 1238:1 1249:1 1264:1
-1 174:1 237:1 278:1 594:1 598:1 702:1 1224:8 1226:1 1251:1 1264:8
-1 174:1 237:1 278:1 594:1 598:1 702:1 1224:7 1226:1 1251:1 1264:7
-1 174:1 237:1 278:1 594:1 598:1 702:1 1224:7 1226:1 1251:1 1264:7
-1 174:1 237:1 278:1 594:1 598:1 702:1 1224:8 1226:1 1251:1 1264:8
-1 174:1 418:1 558:1 598:1 1224:2 1226:1 1238:1 1251:1 1264:2
-1 157:1 418:2 524:1 598:3 625:1 1182:2 1216:1 1224:6 1226:3 1238:2 1243:1 1245:1 1249:2 1264:6
-1 124:1 146:1 153:1 174:1 227:1 235:1 256:1 258:1 279:1 321:1 337:1 344:1 377:1 417:1 424:1 451:1 461:1 463:1 467:1 478:1 541:1 544:1 551:1 575:1 577:1 602:1 605:1 625:1 626:1 657:1 673:1 678:1 687:1 699:1 705:1 718:1 766:1 797:1 834:1 861:1 864:1 885:1 934:1 959:1 973:1 976:1 988:1 1014:1 1033:1 1141:1 1197:1 1224:1 1228:1 1245:1 1251:1 1259:1 1264:1
-1 157:1 226:1 418:1 524:1 598:1 748:1 1182:1 1206:1 1216:1 1224:2 1226:1 1236:1 1237:1 1238:1 1243:1 1249:1 1260:1 1264:2
-1 139:1 174:1 251:1 418:1 598:1 924:1 1224:2 1226:1 1230:1 1238:1 1251:1 1264:2
-1 174:1 251:1 418:1 598:1 924:1 1224:1 1226:1 1238:1 1251:1 1264:1
-1 157:1 226:1 418:1 524:1 598:1 748:1 1182:1 1206:1 1216:1 1224:3 1226:1 1236:1 1237:1 1238:1 1243:1 1249:1 1260:1 1264:3
-1 157:1 226:1 418:2 524:1 598:5 625:3 748:1 868:1 1182:2 1206:1 1216:1 1223:1 1224:6 1226:5 1236:1 1237:1 1238:2 1243:1 1245:3 1249:2 1260:1 1264:6
-1 174:2 598:1 791:1 1218:1 1224:4 1226:1 1251:2 1264:4 1266:352
-1 157:1 226:1 418:1 524:1 591:1 598:1 748:1 868:1 1182:1 1216:1 1222:1 1223:1 1224:2 1226:1 1236:1 1237:1 1238:1 1243:1 1249:1 1264:2
-1 222:1 1224:4 1235:1 1264:4
-1 174:2 226:1 247:1 418:1 520:1 524:1 598:1 705:1 791:1 1182:1 1214:1 1216:1 1218:1 1224:4 1226:1 1236:1 1238:1 1249:1 1251:2 1259:1 1264:4 1266:9616
-1 157:1 226:2 418:2 446:2 524:1 591:1 598:5 625:3 628:1 748:2 868:1 1182:2 1206:1 1216:1 1222:1 1223:1 1224:6 1226:5 1236:2 1237:2 1238:2 1243:1 1245:3 1249:2 1260:1 1264:6
-1 166:1 174:2 598:1 791:1 1218:1 1224:4 1226:1 1251:2 1264:4 1266:354
-1 174:2 598:1 791:1 1218:1 1224:4 1226:1 1251:2 1264:4 1266:419
-1 157:1 226:1 346:1 387:1 418:1 520:1 524:1 574:1 591:1 598:1 605:1 625:1 738:1 748:1 791:1 810:1 868:1 881:1 895:1 917:1 954:1 995:1 996:1 1182:1 1188:1 1208:1 1214:1 1216:1 1218:1 1222:1 1223:1 1224:1 1226:1 1228:1 1229:1 1234:1 1236:1 1237:1 1238:1 1243:1 1245:1 1248:1 1249:1 1261:1 1264:1 1266:24
-1 222:1 1224:3 1235:1 1264:3
-1 222:1 1224:2 1235:1 1264:2
-1 157:1 226:1 418:1 524:1 598:1 625:1 748:1 868:1 1182:1 1206:1 1216:1 1223:1 1224:1 1226:1 1236:1 1237:1 1238:1 1243:1 1245:1 1249:1 1260:1 1264:1
-1 117:1 157:1 418:2 524:1 598:4 625:2 1182:2 1206:1 1216:1 1224:6 1226:4 1238:2 1243:1 1245:2 1249:2 1260:1 1264:6
-1 226:1 418:1 598:1 1182:1 1224:2 1226:1 1236:1 1238:1 1249:1 1264:2
-1 139:1 174:1 280:1 572:1 598:1 791:1 1182:1 1218:1 1224:3 1226:1 1230:1 1246:1 1249:1 1251:1 1264:3
-1 174:1 226:1 418:1 572:1 598:1 1182:1 1224:2 1226:1 1236:1 1238:1 1246:1 1249:1 1251:1 1264:2
-1 174:1 226:1 418:1 574:1 598:1 625:1 705:1 718:1 963:1 971:1 1152:1 1182:1 1224:2 1225:1 1226:1 1236:1 1238:1 1245:1 1248:1 1249:1 1251:1 1259:1 1264:2
-1 139:1 174:1 418:1 539:1 598:1 738:1 1182:1 1224:2 1226:1 1230:1 1238:1 1249:1 1251:1 1264:2
-1 598:1 1224:1 1226:1 1264:1
-1 598:1 791:1 1218:1 1224:1 1226:1 1264:1
-1 236:1 598:1 1182:1 1224:2 1226:1 1241:1 1249:1 1264:2
-1 454:1 1219:1 1224:1 1264:1
-1 174:1 598:1 1224:3 1226:1 1251:1 1264:3
-1 139:1 174:1 226:1 251:1 418:1 448:1 461:1 524:1 598:1 705:1 738:1 748:1 804:1 958:1 959:1 1152:1 1182:1 1216:1 1224:1 1225:1 1226:1 1230:1 1236:1 1237:1 1238:1 1239:1 1249:1 1251:1 1259:1 1264:1
-1 139:1 174:1 251:1 418:1 598:1 1152:1 1182:1 1224:2 1225:1 1226:1 1230:1 1238:1 1249:1 1251:1 1264:2
-1 139:1 174:1 251:1 418:1 598:1 625:1 718:1 748:1 791:1 927:1 1182:1 1218:1 1224:2 1226:1 1230:1 1237:1 1238:1 1245:1 1249:1 1251:1 1264:2
-1 139:1 174:1 226:1 418:1 598:1 625:1 718:1 748:1 818:1 1182:1 1224:2 1226:1 1230:1 1236:1 1237:1 1238:1 1245:1 1249:1 1251:1 1264:2
-1 139:1 174:1 226:1 251:1 598:1 625:1 738:1 748:1 818:1 1182:1 1224:2 1226:1 1230:1 1236:1 1237:1 1245:1 1249:1 1251:1 1264:2
-1 174:1 418:1 574:1 598:1 705:1 1182:1 1224:1 1226:1 1238:1 1248:1 1249:1 1251:1 1259:1 1264:1
-1 139:1 153:1 169:1 203:1 216:1 235:1 271:1 279:1 344:1 361:1 377:1 460:1 467:1 544:1 578:1 614:1 657:1 673:1 678:1 679:1 684:1 707:1 794:1 826:1 834:1 973:1 976:1 990:1 1004:1 1052:1 1084:1 1099:1 1224:3 1230:1 1262:1 1264:3
-1 139:1 153:1 174:1 377:1 418:1 467:1 598:1 625:1 657:1 678:1 718:1 1062:1 1099:1 1182:1 1224:1 1226:1 1230:1 1238:1 1245:1 1249:1 1251:1 1264:1
-1 591:1 598:1 1222:1 1224:2 1226:1 1264:2
-1 174:1 418:1 598:1 687:1 804:1 1152:1 1182:1 1224:2 1225:1 1226:1 1238:1 1249:1 1251:1 1264:2
-1 157:1 226:1 418:1 524:1 598:1 605:1 625:1 705:1 738:1 748:1 1182:1 1206:1 1216:1 1224:1 1226:1 1228:1 1236:1 1237:1 1238:1 1243:1 1245:1 1249:1 1259:1 1260:1 1264:1
-1 598:1 1172:1 1224:2 1226:1 1264:2
-1 226:1 418:1 598:1 621:1 897:1 1182:1 1224:1 1226:1 1236:1 1238:1 1249:1 1264:1
-1 222:1 1224:4 1235:1 1264:4
-1 139:1 174:1 418:1 598:1 738:1 1176:1 1182:1 1224:1 1226:1 1230:1 1238:1 1249:1 1251:1 1264:1
-1 157:1 418:1 598:1 1182:1 1224:2 1226:1 1238:1 1243:1 1249:1 1264:2
-1 157:1 158:1 226:1 418:1 524:1 574:1 598:1 625:1 738:1 748:1 753:1 868:1 958:1 1182:1 1216:1 1223:1 1224:2 1226:1 1236:1 1237:1 1238:1 1239:1 1243:1 1245:1 1248:1 1249:1 1264:2
-1 157:1 158:1 226:1 418:1 524:1 598:1 625:1 738:1 748:1 868:1 958:1 1182:1 1216:1 1223:1 1224:2 1226:1 1236:1 1237:1 1238:1 1239:1 1243:1 1245:1 1249:1 1264:2
-1 134:1 139:1 145:1 153:1 157:1 169:1 174:1 226:1 279:1 344:1 377:1 418:1 460:1 465:1 467:1 540:1 544:1 574:1 625:1 657:1 673:1 678:1 707:1 718:1 774:1 775:1 826:1 916:1 949:1 973:1 1176:1 1224:3 1230:1 1236:1 1238:1 1243:1 1245:1 1248:1 1251:1 1264:3
-1 153:1 174:1 279:1 377:1 461:1 467:1 551:1 598:1 657:1 673:1 678:1 684:1 718:1 748:1 775:1 786:1 794:1 798:1 847:1 959:1 976:1 1099:1 1197:1 1224:2 1226:1 1237:1 1251:1 1264:2
-1 157:1 226:1 418:1 422:1 524:1 574:1 591:1 598:1 605:1 625:1 748:1 881:1 895:1 917:1 1034:1 1142:1 1182:1 1206:1 1208:1 1216:1 1222:1 1224:2 1226:1 1228:1 1229:1 1236:1 1237:1 1238:1 1243:1 1245:1 1248:1 1249:1 1260:1 1261:1 1264:2
-1 418:1 598:1 824:1 868:1 1223:1 1224:4 1226:1 1238:1 1264:4
-1 222:1 1224:3 1235:1 1264:3
-1 174:1 479:1 490:1 598:1 1224:2 1226:1 1251:1 1264:2
-1 139:1 157:1 174:1 217:1 365:1 418:1 448:1 481:1 543:1 574:1 598:1 625:1 736:1 738:1 748:1 1176:1 1182:1 1206:1 1224:1 1226:1 1227:1 1230:1 1231:1 1237:1 1238:1 1243:1 1244:1 1245:1 1248:1 1249:1 1251:1 1260:1 1264:1 1266:66
-1 222:1 1224:3 1235:1 1264:3
-1 418:2 598:3 625:1 1182:1 1224:6 1226:3 1238:2 1245:1 1249:1 1264:6
-1 222:1 1224:2 1235:1 1264:2
-1 418:1 524:1 598:1 868:1 1182:1 1206:1 1216:1 1223:1 1224:1 1226:1 1238:1 1249:1 1260:1 1264:1
-1 139:1 157:1 174:1 226:1 388:1 418:1 479:1 524:1 543:1 574:1 580:1 598:1 620:1 748:1 818:1 868:1 1182:1 1216:1 1223:1 1224:2 1226:1 1227:1 1230:1 1236:1 1237:1 1238:1 1243:1 1248:1 1249:1 1251:1 1264:2
-1 174:1 203:1 226:1 598:1 1224:2 1226:1 1236:1 1251:1 1264:2
-1 139:1 153:1 174:1 279:1 344:1 377:1 411:1 460:1 467:1 493:1 544:1 657:1 673:1 678:1 684:1 734:1 774:1 775:1 791:1 834:1 973:1 1052:1 1086:1 1099:1 1103:1 1197:1 1218:1 1224:2 1230:1 1251:1 1264:2
-1 157:1 418:2 598:2 625:1 1182:2 1224:7 1226:2 1238:2 1243:1 1245:1 1249:2 1264:7
-1 418:1 524:1 598:1 868:1 1182:1 1216:1 1223:1 1224:1 1226:1 1238:1 1249:1 1264:1
-1 139:1 174:1 598:1 1182:1 1224:1 1226:1 1230:1 1249:1 1251:1 1264:1
-1 418:1 524:1 598:1 1216:1 1224:1 1226:1 1238:1 1264:1
-1 153:1 174:1 377:1 467:1 498:1 657:1 673:1 678:1 684:1 775:1 1099:1 1224:1 1251:1 1264:1
-1 174:1 418:1 598:1 709:1 748:1 902:1 1224:2 1226:1 1237:1 1238:1 1251:1 1264:2
-1 157:1 226:1 418:2 524:1 598:4 625:2 868:1 1182:2 1216:1 1223:1 1224:6 1226:4 1236:1 1238:2 1243:1 1245:2 1249:2 1264:6
-1 418:1 524:1 598:1 868:1 1182:1 1216:1 1223:1 1224:1 1226:1 1238:1 1249:1 1264:1
-1 598:1 623:1 791:1 1218:1 1224:2 1226:1 1264:2
-1 222:1 1224:2 1235:1 1264:2
-1 222:1 1224:3 1235:1 1264:3
-1 598:1 623:1 1224:3 1226:1 1264:3
-1 174:1 740:1 1224:2 1251:1 1264:2
-1 139:1 153:1 157:1 174:1 226:1 324:1 377:1 418:1 467:1 598:1 657:1 667:1 673:1 678:1 684:1 705:1 718:1 738:1 845:1 868:1 958:1 1022:1 1182:1 1223:1 1224:1 1226:1 1230:1 1236:1 1238:1 1239:1 1243:1 1249:1 1251:1 1259:1 1264:1
-1 226:1 418:1 598:1 791:1 1218:1 1224:2 1226:1 1236:1 1238:1 1264:2
-1 153:1 174:1 193:1 256:1 279:1 344:1 377:1 460:1 467:1 533:1 544:1 657:1 673:1 678:1 679:1 684:1 718:1 734:1 738:1 774:1 775:1 982:1 1052:1 1197:1 1224:2 1251:1 1264:2
-1 139:1 174:1 214:1 418:1 598:1 625:1 718:1 1176:1 1182:1 1206:1 1224:1 1226:1 1230:1 1238:1 1245:1 1249:1 1251:1 1260:1 1264:1
-1 153:1 174:1 279:1 344:1 377:1 460:1 461:1 467:1 551:1 614:1 657:1 673:1 678:1 684:1 718:1 775:1 776:1 794:1 798:1 818:1 959:1 976:1 1099:1 1130:1 1197:1 1224:2 1251:1 1264:2
-1 153:1 174:1 279:1 377:1 461:1 465:1 467:1 551:1 657:1 673:1 678:1 684:1 718:1 775:1 798:1 847:1 976:1 1099:1 1130:1 1224:1 1251:1 1264:1 1266:2
-1 222:1 1224:3 1235:1 1264:3
-1 157:1 226:1 418:2 524:1 598:5 625:3 748:1 868:1 1182:2 1206:1 1216:1 1223:1 1224:6 1226:5 1236:1 1237:1 1238:2 1243:1 1245:3 1249:2 1260:1 1264:6
-1 157:1 418:2 524:1 598:5 625:3 748:1 868:1 1182:2 1206:1 1216:1 1223:1 1224:6 1226:5 1237:1 1238:2 1243:1 1245:3 1249:2 1260:1 1264:6
-1 153:1 174:1 279:1 377:1 467:1 657:1 673:1 678:1 976:1 1224:2 1251:1 1264:2
-1 174:2 260:1 418:1 470:1 524:1 598:1 1190:1 1216:1 1224:2 1226:1 1238:1 1251:2 1264:2
-1 139:1 153:1 174:1 377:1 428:1 467:1 598:1 657:1 673:1 678:1 679:1 733:1 1182:1 1224:3 1226:1 1230:1 1249:1 1251:1 1264:3
-1 139:1 174:1 479:1 598:1 1224:2 1226:1 1230:1 1251:1 1264:2
-1 598:1 791:1 1218:1 1224:2 1226:1 1264:2
-1 418:1 598:1 868:1 1223:1 1224:4 1226:1 1238:1 1264:4
-1 222:1 1224:3 1235:1 1264:3
-1 418:2 448:1 598:3 625:1 750:1 1182:1 1224:6 1226:3 1238:2 1245:1 1249:1 1264:6
-1 174:1 226:1 598:1 1224:1 1226:1 1236:1 1251:1 1264:1
-1 174:1 418:1 558:1 598:1 1224:2 1226:1 1238:1 1251:1 1264:2
-1 174:1 226:1 598:1 718:1 1224:3 1226:1 1236:1 1251:1 1264:3
-1 157:1 226:1 418:1 524:1 598:1 748:1 1182:1 1206:1 1216:1 1224:2 1226:1 1236:1 1237:1 1238:1 1243:1 1249:1 1260:1 1264:2
-1 174:1 418:1 598:1 1182:1 1224:2 1226:1 1238:1 1249:1 1251:1 1264:2
-1 157:1 226:1 418:1 524:1 598:1 748:1 1182:1 1206:1 1216:1 1224:3 1226:1 1236:1 1237:1 1238:1 1243:1 1249:1 1260:1 1264:3
-1 226:1 418:1 524:1 598:1 748:1 1216:1 1224:1 1226:1 1236:1 1237:1 1238:1 1264:1
-1 174:1 418:1 598:1 997:1 1224:2 1226:1 1238:1 1251:1 1264:2
-1 174:1 237:1 320:1 598:1 642:1 702:1 724:1 1224:6 1226:1 1251:1 1264:6
-1 174:2 598:1 1182:1 1224:5 1226:1 1249:1 1251:2 1264:5 1266:275
-1 174:2 598:1 791:1 1182:1 1218:1 1224:5 1226:1 1249:1 1251:2 1264:5 1266:424
-1 174:2 598:1 791:1 1182:1 1218:1 1224:5 1226:1 1249:1 1251:2 1264:5 1266:305
-1 145:1 153:1 169:1 174:1 180:1 256:1 276:1 279:1 325:1 331:1 344:1 361:1 377:1 460:1 467:1 544:1 657:1 673:1 678:1 684:1 705:1 718:1 774:1 831:1 1224:2 1251:1 1259:1 1264:2
-1 145:1 153:1 169:1 174:1 180:1 256:1 276:1 279:1 325:1 331:1 344:1 361:1 377:1 460:1 467:1 544:1 657:1 673:1 678:1 684:1 705:1 718:1 774:1 831:1 1224:2 1251:1 1259:1 1264:2
-1 153:1 169:1 174:1 180:1 276:1 279:1 325:1 344:1 361:1 377:1 467:1 540:1 657:1 673:1 678:1 684:1 718:1 973:1 1224:2 1251:1 1264:2
-1 153:1 169:1 174:1 180:1 276:1 279:1 325:1 344:1 361:1 377:1 467:1 540:1 657:1 673:1 678:1 684:1 718:1 973:1 1224:2 1251:1 1264:2
-1 139:1 174:1 598:1 1182:1 1224:2 1226:1 1230:1 1249:1 1251:1 1264:2
-1 157:1 226:1 418:1 448:1 524:1 574:1 598:1 625:1 748:1 833:1 868:1 1182:1 1208:1 1216:1 1223:1 1224:1 1226:1 1236:1 1237:1 1238:1 1243:1 1245:1 1248:1 1249:1 1261:1 1264:1
-1 598:1 1224:1 1226:1 1264:1
-1 598:1 1224:1 1226:1 1264:1
-1 598:1 1224:1 1226:1 1264:1
-1 398:1 598:1 1076:1 1224:2 1226:1 1264:2
-1 174:1 564:1 598:1 1224:4 1226:1 1251:1 1264:4
-1 139:1 153:1 169:1 216:1 217:1 256:1 271:1 344:1 377:1 418:1 448:1 460:1 467:1 540:1 598:1 625:1 657:1 678:1 684:1 718:1 738:1 741:1 818:1 889:1 973:1 990:1 1099:1 1154:1 1182:1 1224:1 1226:1 1230:1 1231:1 1238:1 1245:1 1249:1 1262:1 1264:1
-1 371:1 497:1 598:1 791:1 1218:1 1224:1 1226:1 1264:1
-1 454:1 1219:1 1224:1 1264:1
-1 139:1 174:1 418:1 598:1 791:1 961:1 1182:1 1218:1 1224:1 1226:1 1230:1 1238:1 1249:1 1251:1 1264:1
-1 598:1 1224:3 1226:1 1264:3
-1 157:1 226:1 418:1 524:1 598:1 625:1 748:1 868:1 958:1 1182:1 1206:1 1216:1 1223:1 1224:1 1226:1 1236:1 1237:1 1238:1 1239:1 1243:1 1245:1 1249:1 1260:1 1264:1
-1 174:1 598:1 1224:6 1226:1 1251:1 1264:6
-1 598:1 1224:3 1226:1 1264:3
-1 139:1 153:1 174:1 344:1 377:1 467:1 520:1 657:1 673:1 678:1 684:1 775:1 791:1 890:1 973:1 1052:1 1197:1 1214:1 1218:1 1224:2 1230:1 1251:1 1264:2
-1 157:1 418:1 524:1 598:1 1216:1 1224:3 1226:1 1238:1 1243:1 1264:3
-1 166:1 274:1 414:1 418:1 598:1 791:1 1182:1 1218:1 1224:1 1226:1 1238:1 1249:1 1264:1
-1 139:1 174:1 598:1 705:1 715:1 736:1 738:1 927:1 1182:1 1224:1 1226:1 1230:1 1249:1 1251:1 1259:1 1264:1
-1 141:1 174:2 268:1 278:1 594:1 598:1 1224:2 1226:1 1251:2 1264:2
-1 153:1 174:1 216:1 279:1 344:1 361:1 377:1 411:1 467:1 544:1 625:1 657:1 673:1 678:1 684:1 718:1 775:1 794:1 798:1 1099:1 1103:1 1197:1 1224:3 1245:1 1251:1 1264:3
-1 222:1 1224:3 1235:1 1264:3
-1 236:1 418:1 598:1 1182:1 1224:2 1226:1 1238:1 1241:1 1249:1 1264:2
-1 157:1 174:1 418:1 598:1 1224:2 1226:1 1238:1 1243:1 1251:1 1264:2
-1 139:1 157:1 174:1 226:1 376:1 418:1 524:1 598:1 748:1 754:1 1182:1 1216:1 1224:3 1226:1 1230:1 1236:1 1237:1 1238:1 1243:1 1249:1 1251:1 1264:3
-1 598:1 1172:2 1224:2 1226:1 1264:2
-1 226:1 418:1 448:1 524:1 574:1 598:1 603:1 625:1 748:1 868:1 891:1 1182:1 1206:1 1216:1 1223:1 1224:1 1226:1 1236:1 1237:1 1238:1 1245:1 1248:1 1249:1 1260:1 1264:1
-1 174:2 598:1 701:13 791:1 1218:1 1224:5 1226:1 1251:2 1264:5
-1 418:1 524:1 598:1 868:1 1182:1 1206:1 1216:1 1223:1 1224:1 1226:1 1238:1 1249:1 1260:1 1264:1
-1 174:1 226:1 331:1 418:1 448:1 524:1 574:1 598:1 705:1 748:1 868:1 881:1 1182:1 1216:1 1223:1 1224:4 1226:1 1229:1 1236:1 1237:1 1238:1 1248:1 1249:1 1251:1 1259:1 1264:4
-1 174:1 226:1 418:1 598:1 705:1 715:1 927:1 963:1 1182:1 1224:2 1226:1 1236:1 1238:1 1249:1 1251:1 1259:1 1264:2
-1 222:1 1224:3 1235:1 1264:3
-1 139:1 153:1 174:1 226:1 377:1 411:1 418:1 460:1 467:1 574:1 598:1 657:1 673:1 678:1 774:1 1197:1 1224:2 1226:1 1230:1 1236:1 1238:1 1248:1 1251:1 1264:2
-1 139:1 145:1 153:1 157:1 174:1 226:1 377:1 411:1 418:1 460:1 461:1 467:1 524:1 544:1 574:1 598:1 657:1 673:1 678:1 684:1 718:1 748:1 775:1 818:1 949:1 959:1 976:1 1099:1 1182:1 1197:1 1216:1 1224:1 1226:1 1230:1 1236:1 1237:1 1238:1 1243:1 1248:1 1249:1 1251:1 1264:1
-1 174:1 381:1 418:1 524:1 598:1 868:1 1216:1 1223:1 1224:2 1226:1 1238:1 1251:1 1264:2
-1 226:1 418:1 598:3 1182:1 1224:6 1226:3 1236:1 1238:1 1249:1 1264:6
-1 129:1 153:1 216:1 235:1 271:1 279:1 377:1 425:1 461:1 467:1 544:1 551:1 614:1 657:1 673:1 678:1 684:1 718:1 738:1 959:1 973:1 990:1 1099:1 1224:3 1262:1 1264:3
-1 174:1 251:1 418:1 598:1 1224:2 1226:1 1238:1 1251:1 1264:2
-1 236:1 319:1 598:1 1224:1 1226:1 1241:1 1264:1
-1 598:1 1224:3 1226:1 1264:3
-1 222:1 1224:3 1235:1 1264:3
-1 222:1 1224:3 1235:1 1264:3
-1 174:1 598:1 1224:4 1226:1 1251:1 1264:4
-1 174:1 828:1 1224:2 1251:1 1264:2
-1 141:1 171:1 174:2 260:1 278:1 594:1 598:1 860:1 1224:6 1226:1 1251:2 1264:6
-1 174:1 598:1 1182:1 1224:2 1226:1 1249:1 1251:1 1264:2
-1 174:1 534:1 1091:1 1224:2 1251:1 1264:2
-1 222:1 1224:4 1235:1 1264:4
-1 157:1 174:1 226:2 418:2 422:1 524:2 591:1 598:5 625:3 748:2 868:1 881:1 958:1 1182:2 1188:1 1206:1 1216:2 1222:1 1223:1 1224:6 1226:5 1229:1 1236:2 1237:2 1238:2 1239:1 1243:1 1245:3 1249:2 1251:1 1260:1 1264:6
-1 222:1 1224:3 1235:1 1264:3
-1 222:1 1224:3 1235:1 1264:3
-1 222:1 1224:3 1235:1 1264:3
-1 222:1 1224:3 1235:1 1264:3
-1 222:1 1224:2 1235:1 1264:2
-1 222:1 1224:2 1235:1 1264:2
-1 157:1 418:2 598:2 625:1 1182:2 1224:6 1226:2 1238:2 1243:1 1245:1 1249:2 1264:6
-1 222:1 1224:2 1235:1 1264:2
-1 222:1 1224:4 1235:1 1264:4
-1 222:1 1224:2 1235:1 1264:2
-1 157:1 226:1 418:1 524:1 598:1 625:1 748:1 1182:1 1206:1 1216:1 1224:5 1226:1 1236:1 1237:1 1238:1 1243:1 1245:1 1249:1 1260:1 1264:5
-1 157:1 226:1 418:1 524:1 598:1 625:1 748:1 1182:1 1206:1 1216:1 1224:5 1226:1 1236:1 1237:1 1238:1 1243:1 1245:1 1249:1 1260:1 1264:5
-1 371:1 418:1 431:1 524:1 530:1 598:1 769:1 1182:1 1216:1 1224:2 1226:1 1238:1 1249:1 1264:2
-1 418:1 598:1 625:1 748:1 895:1 925:1 999:1 1053:1 1224:1 1226:1 1237:1 1238:1 1245:1 1264:1 1266:1
-1 130:1 179:1 192:1 260:1 352:1 398:1 552:1 598:1 609:1 698:1 893:1 1190:1 1224:1 1226:1 1264:1
-1 226:1 257:1 391:1 418:1 563:1 574:1 598:1 617:1 789:1 795:1 810:1 883:1 990:1 1118:1 1128:1 1129:1 1182:1 1215:1 1217:1 1224:3 1226:1 1232:1 1234:1 1236:1 1238:1 1240:1 1242:1 1248:1 1249:1 1255:1 1256:1 1262:1 1264:3
-1 157:1 226:1 371:1 418:1 524:1 598:1 748:1 868:1 1074:1 1182:1 1216:1 1223:1 1224:1 1226:1 1236:1 1237:1 1238:1 1243:1 1249:1 1264:1
-1 139:1 153:1 174:1 193:1 279:1 344:1 377:1 411:1 460:1 465:1 467:1 493:1 544:1 625:1 657:1 673:1 678:1 679:1 684:1 718:1 774:1 775:1 794:1 859:1 973:1 1002:1 1052:1 1103:1 1197:1 1224:3 1230:1 1245:1 1251:1 1264:3
-1 157:1 226:1 418:1 524:1 543:1 598:1 868:1 1182:1 1208:1 1216:1 1223:1 1224:3 1226:1 1227:1 1236:1 1238:1 1243:1 1249:1 1261:1 1264:3 1266:123
-1 139:1 153:1 174:1 204:1 235:1 279:1 344:1 377:1 418:1 460:1 467:1 475:1 510:1 598:1 614:1 625:1 657:1 673:1 678:1 707:1 718:1 748:1 775:1 973:1 1084:1 1197:1 1224:1 1226:1 1230:1 1237:1 1238:1 1245:1 1251:1 1264:1
-1 157:1 226:2 355:1 418:3 523:1 524:1 598:4 605:1 625:3 748:1 904:1 1067:1 1182:2 1206:1 1209:1 1216:1 1224:4 1226:4 1228:1 1236:2 1237:1 1238:3 1243:1 1245:3 1249:2 1260:1 1264:4 1266:1
-1 157:1 418:2 524:1 598:4 625:3 748:1 1182:2 1206:1 1216:1 1224:6 1226:4 1237:1 1238:2 1243:1 1245:3 1249:2 1260:1 1264:6
-1 157:1 226:1 236:1 418:2 524:1 591:1 598:4 625:3 748:1 1182:2 1206:1 1216:1 1222:1 1224:6 1226:4 1236:1 1237:1 1238:2 1241:1 1243:1 1245:3 1249:2 1260:1 1264:6
-1 226:1 418:1 430:1 447:1 524:1 598:1 605:1 650:1 981:1 1007:1 1182:1 1216:1 1224:4 1226:1 1228:1 1236:1 1238:1 1249:1 1264:4
-1 157:1 418:2 524:1 591:1 598:4 625:3 748:1 868:1 1182:2 1206:1 1216:1 1222:1 1223:1 1224:6 1226:4 1237:1 1238:2 1243:1 1245:3 1249:2 1260:1 1264:6
-1 222:1 1224:2 1235:1 1264:2
-1 139:1 174:1 226:1 418:1 598:1 1011:1 1182:1 1224:2 1226:1 1230:1 1236:1 1238:1 1249:1 1251:1 1264:2
-1 174:1 418:1 598:1 625:1 718:1 738:1 1182:1 1224:1 1226:1 1238:1 1245:1 1249:1 1251:1 1264:1
-1 134:1 139:1 145:1 153:1 157:1 169:1 174:1 193:1 214:1 216:1 226:1 256:1 279:1 344:1 376:1 377:1 418:1 460:1 465:1 467:1 481:1 524:1 540:1 543:1 544:1 574:1 575:1 614:1 625:1 657:1 673:1 678:1 684:1 705:1 707:1 718:1 733:1 748:1 774:1 775:1 798:1 826:1 834:1 859:1 916:1 927:1 949:1 958:1 973:1 1002:1 1152:1 1176:1 1216:1 1224:1 1225:1 1227:1 1230:1 1236:1 1237:1 1238:1 1239:1 1243:1 1245:1 1248:1 1251:1 1259:1 1264:1
-1 418:1 524:1 598:1 824:1 1216:1 1224:3 1226:1 1238:1 1264:3
-1 418:1 524:1 598:1 868:1 1182:1 1206:1 1216:1 1223:1 1224:1 1226:1 1238:1 1249:1 1260:1 1264:1
-1 139:1 174:1 598:1 748:1 1182:1 1224:1 1226:1 1230:1 1237:1 1249:1 1251:1 1264:1
-1 340:1 371:1 598:1 1224:1 1226:1 1264:1
-1 371:1 598:1 905:1 1224:1 1226:1 1264:1
-1 157:1 418:2 598:2 625:1 1182:2 1224:7 1226:2 1238:2 1243:1 1245:1 1249:2 1264:7
-1 598:1 1172:1 1224:3 1226:1 1264:3
-1 153:1 174:1 193:1 235:1 279:1 286:1 328:1 344:1 361:1 377:1 411:1 439:1 460:1 467:1 544:1 614:1 625:1 657:1 673:1 678:1 684:1 718:1 774:1 775:1 794:1 834:1 859:1 973:1 976:1 1002:1 1099:1 1103:1 1197:1 1224:3 1245:1 1251:1 1264:3
-1 139:1 145:1 153:1 174:1 193:1 203:1 227:1 235:1 256:1 279:1 286:1 296:1 344:1 361:1 377:1 402:1 411:1 460:1 465:1 467:1 475:1 493:1 544:1 614:1 625:1 626:1 657:1 673:1 678:1 684:1 699:1 707:1 718:1 734:1 764:1 774:1 775:1 794:1 798:1 826:1 859:1 929:1 976:1 1002:1 1084:1 1099:1 1103:1 1139:1 1197:1 1224:1 1230:1 1245:1 1251:1 1264:1
-1 222:1 1224:5 1235:1 1264:5
-1 153:1 174:1 193:1 235:1 256:1 279:1 286:1 328:1 344:1 361:1 377:1 411:1 439:1 460:1 465:1 467:1 540:1 544:1 614:1 625:1 657:1 673:1 678:1 684:1 718:1 774:1 775:1 794:1 834:1 859:1 929:1 970:1 973:1 976:1 1002:1 1099:1 1103:1 1139:1 1197:1 1224:3 1245:1 1251:1 1264:3
-1 120:1 129:1 139:1 144:1 153:1 174:1 227:1 256:1 279:1 282:1 307:1 377:1 460:1 461:1 465:1 467:1 544:1 551:1 626:1 657:1 669:1 673:1 678:1 684:1 718:1 738:1 764:1 770:1 774:1 775:1 794:1 797:1 798:1 833:1 847:1 859:1 864:1 959:1 976:1 1015:1 1099:1 1130:1 1197:1 1224:2 1230:1 1251:1 1264:2 1266:2
-1 153:1 174:1 203:1 235:1 279:1 344:1 377:1 460:1 467:1 657:1 673:1 678:1 684:1 774:1 775:1 794:1 973:1 1037:1 1052:1 1224:3 1251:1 1264:3
-1 139:1 174:1 364:1 418:1 598:1 858:1 1182:1 1221:1 1224:2 1226:1 1230:1 1238:1 1249:1 1251:1 1264:2
-1 153:1 174:1 279:1 377:1 461:1 467:1 551:1 598:1 657:1 673:1 678:1 684:1 748:1 775:1 798:1 847:1 1099:1 1197:1 1224:1 1226:1 1237:1 1251:1 1264:1 1266:2
-1 222:1 1224:2 1235:1 1264:2
-1 157:1 418:2 598:4 625:2 1182:3 1224:6 1226:4 1238:2 1243:1 1245:2 1249:3 1264:6
-1 174:2 598:1 612:1 902:1 1224:2 1226:1 1251:2 1264:2
-1 418:1 447:1 598:1 650:1 1138:1 1224:2 1226:1 1238:1 1264:2
-1 176:1 598:1 1224:3 1226:1 1252:1 1264:3
-1 190:1 418:1 598:1 1182:1 1224:3 1226:1 1238:1 1249:1 1264:3
-1 174:2 226:1 418:1 524:1 591:1 598:1 625:1 748:1 791:1 868:1 1182:1 1188:1 1216:1 1218:1 1222:1 1223:1 1224:2 1226:1 1236:1 1237:1 1238:1 1245:1 1249:1 1251:2 1264:2 1266:2
-1 157:1 174:1 226:1 418:3 524:1 598:4 625:3 748:1 868:1 1182:2 1206:1 1216:1 1223:1 1224:5 1226:4 1236:1 1237:1 1238:3 1243:1 1245:3 1249:2 1251:1 1260:1 1264:5
-1 598:1 791:1 1218:1 1224:2 1226:1 1264:2
-1 217:1 271:1 418:1 598:1 625:1 705:1 736:1 741:1 748:1 858:1 990:1 1182:1 1221:1 1224:1 1226:1 1231:1 1237:1 1238:1 1245:1 1249:1 1259:1 1262:1 1264:1
-1 139:1 144:1 217:1 226:1 271:1 598:1 617:1 705:1 736:1 738:1 741:1 748:1 990:1 1182:1 1224:1 1226:1 1230:1 1231:1 1236:1 1237:1 1240:1 1249:1 1259:1 1262:1 1264:1
-1 139:1 145:1 153:1 174:1 203:1 279:1 344:1 377:1 460:1 461:1 465:1 467:1 475:1 513:1 540:1 544:1 551:1 626:1 657:1 673:1 678:1 679:1 684:1 699:1 707:1 718:1 775:1 826:1 959:1 973:1 976:1 1004:1 1084:1 1099:1 1197:1 1224:1 1230:1 1251:1 1264:1
-1 418:1 598:1 625:1 1224:4 1226:1 1238:1 1245:1 1264:4
-1 222:1 1224:3 1235:1 1264:3
-1 222:1 1224:2 1235:1 1264:2
-1 222:1 1224:3 1235:1 1264:3
-1 222:1 1224:2 1235:1 1264:2
-1 222:1 1224:3 1235:1 1264:3
-1 130:1 179:1 192:1 260:1 352:1 398:1 552:1 598:1 609:1 698:1 893:1 1190:1 1224:1 1226:1 1264:1
-1 598:1 895:1 1224:2 1226:1 1264:2
-1 222:1 1224:3 1235:1 1264:3
-1 398:1 598:1 1076:1 1224:2 1226:1 1264:2
-1 263:1 418:1 598:1 625:1 748:1 1182:1 1206:1 1224:1 1226:1 1237:1 1238:1 1245:1 1249:1 1260:1 1264:1
-1 139:1 145:1 153:1 235:1 279:1 344:1 377:1 460:1 467:1 518:1 544:1 614:1 626:1 657:1 673:1 678:1 679:1 684:1 689:1 700:1 733:1 738:1 774:1 775:1 794:1 973:1 976:1 1052:1 1181:1 1197:1 1224:1 1230:1 1264:1
-1 174:1 418:1 574:1 598:1 625:1 691:1 748:1 1110:1 1182:1 1224:2 1226:1 1237:1 1238:1 1245:1 1248:1 1249:1 1251:1 1264:2
-1 157:1 418:1 524:1 574:1 598:1 625:1 920:1 958:1 1182:1 1216:1 1224:2 1226:1 1238:1 1239:1 1243:1 1245:1 1248:1 1249:1 1258:1 1264:2
-1 174:1 418:1 524:1 598:1 1216:1 1224:2 1226:1 1238:1 1251:1 1264:2
-1 139:1 174:1 226:1 343:1 418:1 543:1 574:1 598:1 625:1 691:1 748:1 783:1 1182:1 1224:2 1226:1 1227:1 1230:1 1236:1 1237:1 1238:1 1245:1 1248:1 1249:1 1251:1 1264:2
-1 157:1 418:1 524:1 598:1 625:1 659:1 748:1 868:1 891:1 1182:1 1216:1 1223:1 1224:2 1226:1 1237:1 1238:1 1243:1 1245:1 1249:1 1264:2
-1 174:2 418:1 598:1 1224:3 1226:1 1238:1 1251:2 1264:3
-1 139:1 153:1 174:1 344:1 377:1 460:1 467:1 574:1 598:1 657:1 673:1 678:1 684:1 730:1 774:1 775:1 850:1 963:1 1052:1 1106:1 1197:1 1224:2 1226:1 1230:1 1248:1 1251:1 1264:2
-1 118:1 139:1 153:1 169:1 174:1 193:1 203:1 227:1 235:1 256:1 279:1 293:1 296:1 344:1 377:1 411:1 460:1 461:1 467:1 493:1 505:1 540:1 544:1 551:1 614:1 626:1 657:1 673:1 678:1 679:1 684:1 699:1 718:1 764:1 774:1 775:1 794:1 798:1 818:1 864:1 959:1 973:1 975:1 976:1 1004:1 1099:1 1139:1 1197:1 1224:1 1230:1 1251:1 1264:1
-1 226:1 418:1 524:1 598:1 625:1 748:1 868:1 1182:1 1206:1 1216:1 1223:1 1224:3 1226:1 1236:1 1237:1 1238:1 1245:1 1249:1 1260:1 1264:3
-1 418:2 598:2 625:1 1182:2 1224:7 1226:2 1238:2 1245:1 1249:2 1264:7
-1 226:1 247:1 418:1 524:1 598:1 705:1 748:1 881:1 919:1 1216:1 1224:2 1226:1 1229:1 1236:1 1237:1 1238:1 1259:1 1264:2 1266:2
-1 226:1 418:1 524:1 598:1 748:1 1216:1 1224:2 1226:1 1236:1 1237:1 1238:1 1264:2
-1 418:1 524:1 598:1 1182:1 1216:1 1224:2 1226:1 1238:1 1249:1 1264:2 1266:2
-1 226:1 418:1 598:1 625:1 748:1 1182:1 1206:1 1224:1 1226:1 1236:1 1237:1 1238:1 1245:1 1249:1 1260:1 1264:1
-1 226:1 418:1 524:1 598:1 625:1 748:1 868:1 1182:1 1206:1 1216:1 1223:1 1224:3 1226:1 1236:1 1237:1 1238:1 1245:1 1249:1 1260:1 1264:3
-1 226:1 418:1 524:1 598:1 748:1 1216:1 1224:2 1226:1 1236:1 1237:1 1238:1 1264:2
-1 157:1 418:2 598:2 625:1 1182:2 1224:7 1226:2 1238:2 1243:1 1245:1 1249:2 1264:7
-1 454:1 1219:1 1224:2 1264:2
-1 157:1 418:2 598:4 625:1 1182:3 1224:5 1226:4 1238:2 1243:1 1245:1 1249:3 1264:5
-1 157:1 226:1 418:1 524:1 598:1 748:1 1182:1 1206:1 1216:1 1224:3 1226:1 1236:1 1237:1 1238:1 1243:1 1249:1 1260:1 1264:3
-1 226:1 247:1 418:1 524:1 598:1 705:1 748:1 881:1 919:1 1216:1 1224:1 1226:1 1229:1 1236:1 1237:1 1238:1 1259:1 1264:1 1266:2
-1 226:1 418:1 524:1 598:1 625:1 748:1 868:1 1182:1 1206:1 1216:1 1223:1 1224:3 1226:1 1236:1 1237:1 1238:1 1245:1 1249:1 1260:1 1264:3
-1 226:1 418:1 524:1 598:1 625:1 748:1 868:1 1182:1 1206:1 1216:1 1223:1 1224:1 1226:1 1236:1 1237:1 1238:1 1245:1 1249:1 1260:1 1264:1
-1 157:1 418:2 598:4 625:2 1182:3 1224:6 1226:4 1238:2 1243:1 1245:2 1249:3 1264:6
-1 226:1 418:1 524:1 598:1 748:1 1216:1 1224:1 1226:1 1236:1 1237:1 1238:1 1264:1
-1 226:1 247:1 418:1 524:1 598:1 705:1 748:1 881:1 919:1 1216:1 1224:1 1226:1 1229:1 1236:1 1237:1 1238:1 1259:1 1264:1 1266:2
-1 226:1 418:1 524:1 598:1 748:1 1216:1 1224:2 1226:1 1236:1 1237:1 1238:1 1264:2
-1 226:1 247:1 418:1 524:1 598:1 705:1 748:1 881:1 919:1 1216:1 1224:1 1226:1 1229:1 1236:1 1237:1 1238:1 1259:1 1264:1 1266:2
-1 226:1 418:1 524:1 598:1 748:1 1216:1 1224:2 1226:1 1236:1 1237:1 1238:1 1264:2
-1 226:1 418:1 524:1 598:1 748:1 1216:1 1224:2 1226:1 1236:1 1237:1 1238:1 1264:2
-1 226:1 418:1 524:1 598:1 748:1 1216:1 1224:2 1226:1 1236:1 1237:1 1238:1 1264:2
-1 418:1 598:1 1182:1 1206:1 1224:1 1226:1 1238:1 1249:1 1260:1 1264:1
-1 418:2 598:2 625:1 1182:2 1224:7 1226:2 1238:2 1245:1 1249:2 1264:7
-1 139:1 1224:2 1230:1 1264:2
-1 157:1 226:1 418:1 423:1 524:1 598:1 1182:1 1216:1 1224:2 1226:1 1236:1 1238:1 1243:1 1249:1 1264:2
-1 226:1 418:1 524:1 598:1 748:1 1216:1 1224:2 1226:1 1236:1 1237:1 1238:1 1264:2
-1 157:1 418:2 598:2 625:1 1182:2 1224:7 1226:2 1238:2 1243:1 1245:1 1249:2 1264:7
-1 226:1 418:1 524:1 598:1 748:1 1216:1 1224:2 1226:1 1236:1 1237:1 1238:1 1264:2
-1 157:1 226:1 418:1 524:1 598:1 748:1 1182:1 1206:1 1216:1 1224:3 1226:1 1236:1 1237:1 1238:1 1243:1 1249:1 1260:1 1264:3
-1 157:1 418:2 598:2 625:1 1182:2 1224:7 1226:2 1238:2 1243:1 1245:1 1249:2 1264:7
-1 157:1 418:2 598:2 625:1 1182:2 1224:7 1226:2 1238:2 1243:1 1245:1 1249:2 1264:7
-1 157:1 226:1 418:1 524:1 598:1 748:1 1182:1 1206:1 1216:1 1224:3 1226:1 1236:1 1237:1 1238:1 1243:1 1249:1 1260:1 1264:3
-1 157:1 418:2 598:2 625:1 1182:2 1224:7 1226:2 1238:2 1243:1 1245:1 1249:2 1264:7
-1 157:1 226:1 418:1 524:1 598:1 748:1 1182:1 1206:1 1216:1 1224:2 1226:1 1236:1 1237:1 1238:1 1243:1 1249:1 1260:1 1264:2
-1 157:1 418:1 598:1 748:1 1224:2 1226:1 1237:1 1238:1 1243:1 1264:2
-1 139:1 145:1 153:1 169:1 174:1 279:1 377:1 460:1 465:1 467:1 544:1 610:1 657:1 673:1 678:1 684:1 718:1 738:1 774:1 794:1 834:1 958:1 973:1 1015:1 1197:1 1224:1 1230:1 1239:1 1251:1 1264:1
-1 226:1 418:1 524:1 598:1 625:1 748:1 868:1 1182:1 1206:1 1216:1 1223:1 1224:2 1226:1 1236:1 1237:1 1238:1 1245:1 1249:1 1260:1 1264:2
-1 598:1 1224:1 1226:1 1264:1
-1 226:1 418:1 524:1 598:1 748:1 1216:1 1224:2 1226:1 1236:1 1237:1 1238:1 1264:2
-1 226:1 247:1 418:1 524:1 598:1 705:1 748:1 881:1 919:1 1216:1 1224:2 1226:1 1229:1 1236:1 1237:1 1238:1 1259:1 1264:2 1266:2
-1 157:1 418:2 598:2 625:1 1182:2 1224:7 1226:2 1238:2 1243:1 1245:1 1249:2 1264:7
-1 121:1 123:1 157:1 174:1 226:1 247:1 331:1 418:1 448:1 499:1 524:1 533:1 574:1 598:1 605:1 625:1 705:1 748:1 858:1 881:1 1182:1 1206:1 1216:1 1221:1 1224:1 1226:1 1228:1 1229:1 1236:1 1237:1 1238:1 1243:1 1245:1 1248:1 1249:1 1251:1 1253:1 1259:1 1260:1 1264:1
-1 226:1 418:1 524:1 598:1 748:1 1216:1 1224:2 1226:1 1236:1 1237:1 1238:1 1264:2
-1 226:1 418:1 524:1 598:1 748:1 1216:1 1224:2 1226:1 1236:1 1237:1 1238:1 1264:2
-1 139:1 153:1 174:1 279:1 344:1 377:1 411:1 460:1 467:1 493:1 544:1 657:1 673:1 678:1 679:1 684:1 774:1 775:1 791:1 794:1 927:1 1002:1 1052:1 1086:1 1103:1 1197:1 1218:1 1224:3 1230:1 1251:1 1264:3
-1 139:1 174:1 598:1 625:1 718:1 833:1 1182:1 1206:1 1224:2 1226:1 1230:1 1245:1 1249:1 1251:1 1260:1 1264:2
-1 157:1 226:1 418:1 524:1 598:1 738:1 748:1 868:1 1182:1 1216:1 1223:1 1224:1 1226:1 1236:1 1237:1 1238:1 1243:1 1249:1 1264:1
-1 157:1 226:1 418:2 524:1 591:1 598:3 625:1 748:1 1182:2 1206:1 1216:1 1222:1 1224:6 1226:3 1236:1 1237:1 1238:2 1243:1 1245:1 1249:2 1260:1 1264:6
-1 157:1 226:1 253:1 418:1 524:1 574:1 598:1 625:1 748:1 868:1 891:1 1182:1 1216:1 1223:1 1224:1 1226:1 1236:1 1237:1 1238:1 1243:1 1245:1 1248:1 1249:1 1264:1
-1 157:1 418:2 524:1 598:4 625:2 1182:2 1206:1 1216:1 1224:6 1226:4 1238:2 1243:1 1245:2 1249:2 1260:1 1264:6
-1 157:1 418:1 524:1 598:1 625:1 868:1 1182:1 1206:1 1216:1 1223:1 1224:5 1226:1 1238:1 1243:1 1245:1 1249:1 1260:1 1264:5
-1 174:1 251:1 418:1 598:1 1224:1 1226:1 1238:1 1251:1 1264:1
-1 157:1 253:1 418:1 524:1 591:1 598:1 1182:1 1216:1 1222:1 1224:1 1226:1 1238:1 1243:1 1249:1 1264:1
-1 222:1 1224:3 1235:1 1264:3
-1 139:1 157:1 174:1 214:1 226:1 276:1 418:1 524:1 544:1 574:1 598:1 625:1 691:1 738:1 748:1 1216:1 1224:1 1226:1 1230:1 1236:1 1237:1 1238:1 1243:1 1245:1 1248:1 1251:1 1264:1
-1 174:2 260:1 418:1 470:1 524:1 598:1 1190:1 1216:1 1224:2 1226:1 1238:1 1251:2 1264:2
-1 222:1 1224:3 1235:1 1264:3
-1 157:1 226:1 418:1 524:1 598:1 625:1 791:1 868:1 920:1 958:1 1182:1 1216:1 1218:1 1223:1 1224:1 1226:1 1236:1 1238:1 1239:1 1243:1 1245:1 1249:1 1258:1 1264:1
-1 222:1 1224:3 1235:1 1264:3
-1 222:1 1224:2 1235:1 1264:2
-1 222:1 1224:4 1235:1 1264:4
-1 153:1 174:1 279:1 377:1 461:1 465:1 467:1 551:1 657:1 669:1 673:1 678:1 684:1 718:1 775:1 794:1 798:1 847:1 976:1 1099:1 1197:1 1224:2 1251:1 1264:2
-1 226:1 418:1 524:1 598:1 715:1 748:1 868:1 919:1 1182:1 1206:1 1216:1 1223:1 1224:1 1226:1 1236:1 1237:1 1238:1 1249:1 1260:1 1264:1
-1 222:1 1224:3 1235:1 1264:3
-1 371:1 497:1 598:1 1224:1 1226:1 1264:1
-1 157:1 226:1 418:1 524:1 598:1 625:1 748:1 868:1 1206:1 1216:1 1223:1 1224:6 1226:1 1236:1 1237:1 1238:1 1243:1 1245:1 1260:1 1264:6
-1 174:1 226:1 418:1 598:1 625:1 748:1 1224:3 1226:1 1236:1 1237:1 1238:1 1245:1 1251:1 1264:3
-1 157:1 226:1 418:1 520:1 524:1 574:1 591:1 598:1 605:1 625:1 748:1 784:1 881:1 895:1 917:1 1178:1 1182:1 1206:1 1208:1 1214:1 1216:1 1222:1 1224:1 1226:1 1228:1 1229:1 1236:1 1237:1 1238:1 1243:1 1245:1 1248:1 1249:1 1260:1 1261:1 1264:1
-1 157:1 418:2 598:2 625:1 1182:2 1224:7 1226:2 1238:2 1243:1 1245:1 1249:2 1264:7
-1 157:1 174:1 226:1 418:1 524:1 580:1 598:1 718:1 773:1 791:1 963:1 1157:1 1182:1 1216:1 1218:1 1224:1 1226:1 1236:1 1238:1 1243:1 1249:1 1251:1 1264:1
-1 139:1 153:1 174:1 235:1 377:1 467:1 598:1 657:1 678:1 1182:1 1224:3 1226:1 1230:1 1249:1 1251:1 1264:3
-1 157:1 174:1 418:1 524:1 598:1 625:1 748:1 1105:1 1182:1 1216:1 1224:2 1226:1 1237:1 1238:1 1243:1 1245:1 1249:1 1251:1 1264:2
-1 123:1 139:1 157:1 174:1 226:1 324:1 418:1 499:1 524:1 543:1 574:1 598:1 605:1 625:1 705:1 748:1 781:1 804:1 1182:1 1216:1 1224:2 1226:1 1227:1 1228:1 1230:1 1236:1 1237:1 1238:1 1243:1 1245:1 1248:1 1249:1 1251:1 1253:1 1259:1 1264:2 1266:1
-1 226:1 331:1 365:1 418:1 524:1 574:1 598:1 625:1 705:1 736:1 748:1 868:1 1182:1 1206:1 1216:1 1223:1 1224:1 1226:1 1236:1 1237:1 1238:1 1244:1 1245:1 1248:1 1249:1 1259:1 1260:1 1264:1
-1 454:1 1219:1 1224:1 1264:1
-1 157:1 174:2 418:1 524:1 598:1 868:1 1182:1 1216:1 1223:1 1224:3 1226:1 1238:1 1243:1 1249:1 1251:2 1264:3
-1 598:1 611:1 621:1 791:1 1218:1 1224:2 1226:1 1264:2
-1 157:1 174:1 226:1 331:1 418:1 448:1 524:1 574:1 598:1 705:1 1182:1 1206:1 1216:1 1224:2 1226:1 1236:1 1238:1 1243:1 1248:1 1249:1 1251:1 1259:1 1260:1 1264:2
-1 134:1 153:1 169:1 193:1 203:1 216:1 235:1 256:1 271:1 279:1 312:1 344:1 349:1 361:1 365:1 377:1 460:1 465:1 467:1 493:1 540:1 544:1 576:1 625:1 657:1 673:1 678:1 679:1 684:1 705:1 718:1 736:1 738:1 741:1 774:1 775:1 794:1 949:1 973:1 976:1 990:1 1002:1 1099:1 1197:1 1224:2 1244:1 1245:1 1259:1 1262:1 1264:2
-1 118:1 153:1 174:1 186:1 279:1 344:1 377:1 467:1 540:1 614:1 626:1 657:1 673:1 678:1 684:1 718:1 728:1 775:1 967:1 973:1 976:1 1099:1 1224:1 1251:1 1264:1
-1 174:1 598:1 1224:3 1226:1 1251:1 1264:3
-1 447:1 598:1 650:1 909:1 1224:3 1226:1 1264:3
-1 174:2 598:1 1224:2 1226:1 1251:2 1264:2
-1 222:1 1224:3 1235:1 1264:3
-1 157:1 418:2 524:1 598:5 625:2 1182:2 1206:1 1216:1 1224:6 1226:5 1238:2 1243:1 1245:2 1249:2 1260:1 1264:6
-1 236:1 260:1 262:1 598:1 677:1 712:1 941:1 1077:1 1190:1 1224:3 1226:1 1241:1 1264:3 1266:30
-1 222:1 1224:3 1235:1 1264:3
-1 222:1 1224:3 1235:1 1264:3
-1 222:1 1224:2 1235:1 1264:2
-1 222:1 1224:3 1235:1 1264:3
-1 222:1 1224:3 1235:1 1264:3
-1 260:1 262:1 433:1 598:1 895:1 917:1 1224:2 1226:1 1264:2
-1 157:1 418:2 524:1 598:5 625:2 1182:2 1206:1 1216:1 1224:6 1226:5 1238:2 1243:1 1245:2 1249:2 1260:1 1264:6
-1 157:1 418:2 524:1 598:5 625:2 1182:2 1206:1 1216:1 1224:6 1226:5 1238:2 1243:1 1245:2 1249:2 1260:1 1264:6
-1 174:1 598:1 1224:3 1226:1 1251:1 1264:3
-1 174:1 260:1 598:1 1051:1 1190:1 1224:2 1226:1 1251:1 1264:2
-1 157:1 418:2 524:1 598:4 625:2 868:1 1182:2 1206:1 1216:1 1223:1 1224:6 1226:4 1238:2 1243:1 1245:2 1249:2 1260:1 1264:6
-1 157:1 174:1 226:1 418:1 524:1 598:1 625:1 748:1 791:1 868:1 1182:1 1188:1 1216:1 1218:1 1223:1 1224:4 1226:1 1236:1 1237:1 1238:1 1243:1 1245:1 1249:1 1251:1 1264:4
-1 157:1 346:1 418:1 448:1 524:1 574:1 591:1 598:1 625:1 748:1 868:1 891:1 1182:1 1216:1 1222:1 1223:1 1224:1 1226:1 1237:1 1238:1 1243:1 1245:1 1248:1 1249:1 1264:1
-1 144:1 226:1 253:1 343:1 346:1 418:1 524:1 533:1 543:1 574:1 591:1 598:1 605:1 625:1 748:1 791:1 868:1 891:1 1016:1 1182:1 1188:1 1208:1 1216:1 1218:1 1222:1 1223:1 1224:6 1226:1 1227:1 1228:1 1236:1 1237:1 1238:1 1245:1 1248:1 1249:1 1261:1 1264:6
-1 157:1 226:1 343:1 346:1 418:1 524:1 543:1 574:1 591:1 598:1 605:1 625:1 748:1 891:1 1182:1 1188:1 1208:1 1216:1 1222:1 1224:4 1226:1 1227:1 1228:1 1236:1 1237:1 1238:1 1243:1 1245:1 1248:1 1249:1 1261:1 1264:4
-1 157:1 226:1 260:1 343:1 346:1 418:1 524:1 543:1 574:1 591:1 598:1 605:1 625:1 748:1 791:1 881:1 891:1 1182:1 1188:1 1190:1 1208:1 1216:1 1218:1 1222:1 1224:4 1226:1 1227:1 1228:1 1229:1 1236:1 1237:1 1238:1 1243:1 1245:1 1248:1 1249:1 1261:1 1264:4
-1 157:1 226:1 418:1 524:1 574:1 598:1 605:1 625:1 748:1 868:1 891:1 1182:1 1206:1 1216:1 1223:1 1224:1 1226:1 1228:1 1236:1 1237:1 1238:1 1243:1 1245:1 1248:1 1249:1 1260:1 1264:1
-1 153:1 174:1 377:1 467:1 598:1 657:1 673:1 678:1 718:1 1188:1 1224:3 1226:1 1251:1 1264:3
-1 418:1 598:1 725:1 1035:1 1224:2 1226:1 1238:1 1264:2
-1 139:1 153:1 174:1 226:1 377:1 418:1 467:1 571:1 598:1 625:1 657:1 678:1 718:1 738:1 748:1 809:1 1152:1 1182:1 1224:1 1225:1 1226:1 1230:1 1236:1 1237:1 1238:1 1245:1 1249:1 1251:1 1264:1
-1 157:1 226:1 343:1 418:1 524:1 574:1 591:1 598:1 605:1 625:1 748:1 868:1 881:1 919:1 1182:1 1188:1 1208:1 1216:1 1222:1 1223:1 1224:1 1226:1 1228:1 1229:1 1236:1 1237:1 1238:1 1243:1 1245:1 1248:1 1249:1 1261:1 1264:1
-1 139:1 146:1 153:1 197:1 203:1 216:1 217:1 235:1 256:1 271:1 279:1 296:1 312:1 318:1 331:1 344:1 349:1 361:1 364:1 375:1 377:1 425:1 460:1 461:1 467:1 525:1 540:1 544:1 551:1 578:1 614:1 617:1 626:1 657:1 673:1 678:1 679:1 684:1 696:1 705:1 718:1 741:1 774:1 775:1 791:1 794:1 798:1 818:1 834:1 884:1 946:1 959:1 963:1 973:1 976:1 990:1 1004:1 1005:1 1024:1 1099:1 1197:1 1218:1 1224:3 1230:1 1231:1 1240:1 1259:1 1262:1 1264:3
-1 153:1 157:1 174:1 226:1 377:1 418:1 467:1 544:1 598:1 657:1 673:1 678:1 718:1 1182:1 1224:2 1226:1 1236:1 1238:1 1243:1 1249:1 1251:1 1264:2
-1 157:1 226:1 418:1 524:1 598:1 748:1 1182:1 1206:1 1216:1 1224:3 1226:1 1236:1 1237:1 1238:1 1243:1 1249:1 1260:1 1264:3
-1 391:1 563:1 598:1 789:1 990:1 1128:1 1129:1 1215:1 1217:1 1224:3 1226:1 1242:1 1255:1 1256:1 1262:1 1264:3
-1 174:2 598:1 1224:5 1226:1 1251:2 1264:5 1266:8
-1 346:1 418:1 524:1 591:1 598:1 868:1 1114:1 1166:1 1216:1 1222:1 1223:1 1224:2 1226:1 1233:1 1238:1 1264:2
-1 157:1 418:2 598:4 625:2 1182:3 1224:6 1226:4 1238:2 1243:1 1245:2 1249:3 1264:6
-1 139:1 1224:1 1230:1 1264:1
-1 222:1 1224:2 1235:1 1264:2
-1 174:1 418:1 598:1 1182:1 1224:2 1226:1 1238:1 1249:1 1251:1 1264:2
-1 222:1 1224:3 1235:1 1264:3
-1 222:1 1224:3 1235:1 1264:3
-1 139:1 157:1 174:1 226:1 418:1 524:1 543:1 544:1 574:1 598:1 605:1 625:1 748:1 804:1 1188:1 1216:1 1224:3 1226:1 1227:1 1228:1 1230:1 1236:1 1237:1 1238:1 1243:1 1245:1 1248:1 1251:1 1264:3
-1 139:1 157:1 174:1 226:1 343:1 418:1 524:1 543:1 574:1 598:1 604:1 605:1 625:1 748:1 804:1 868:1 1182:1 1216:1 1223:1 1224:1 1226:1 1227:1 1228:1 1230:1 1236:1 1237:1 1238:1 1243:1 1245:1 1248:1 1249:1 1251:1 1264:1
-1 174:1 598:1 791:1 1182:1 1218:1 1224:2 1226:1 1249:1 1251:1 1264:2
-1 222:1 1224:3 1235:1 1264:3
-1 598:1 1172:1 1224:3 1226:1 1264:3
-1 226:1 418:1 598:1 725:1 1182:1 1224:2 1226:1 1236:1 1238:1 1249:1 1264:2
-1 222:1 1224:3 1235:1 1264:3
-1 139:1 157:1 174:1 226:1 247:1 253:1 343:1 346:1 418:1 524:1 574:1 591:1 598:1 605:1 625:1 720:1 748:1 809:1 857:1 1152:1 1182:1 1216:1 1222:1 1224:2 1225:1 1226:1 1228:1 1230:1 1236:1 1237:1 1238:1 1243:1 1245:1 1248:1 1249:1 1251:1 1264:2
-1 174:2 598:1 1224:2 1226:1 1251:2 1264:2
-1 174:2 598:1 1224:2 1226:1 1251:2 1264:2
-1 598:1 1224:2 1226:1 1264:2
-1 139:1 174:1 598:1 1182:1 1224:2 1226:1 1230:1 1249:1 1251:1 1264:2
-1 222:1 1224:3 1235:1 1264:3
-1 598:1 791:1 1218:1 1224:2 1226:1 1264:2
-1 454:1 1219:1 1224:1 1264:1
-1 157:1 174:1 226:1 418:1 524:1 543:1 574:1 591:1 598:1 625:1 748:1 1182:1 1216:1 1222:1 1224:1 1226:1 1227:1 1236:1 1237:1 1238:1 1243:1 1245:1 1248:1 1249:1 1251:1 1264:1
-1 174:2 418:1 591:1 598:1 1013:1 1222:1 1224:4 1226:1 1238:1 1251:2 1264:4
-1 139:1 174:1 226:1 418:1 448:1 574:1 598:1 625:1 738:1 748:1 750:1 920:1 1182:1 1224:1 1226:1 1230:1 1236:1 1237:1 1238:1 1245:1 1248:1 1249:1 1251:1 1258:1 1264:1
-1 222:1 1224:3 1235:1 1264:3
-1 222:1 1224:3 1235:1 1264:3
-1 157:1 174:1 226:1 236:1 260:1 418:1 524:1 591:1 598:1 625:1 748:1 881:1 1166:1 1182:1 1190:1 1216:1 1222:1 1224:7 1226:1 1229:1 1233:1 1236:1 1237:1 1238:1 1241:1 1243:1 1245:1 1249:1 1251:1 1264:7
-1 145:1 153:1 174:1 215:1 279:1 344:1 377:1 460:1 467:1 657:1 673:1 678:1 718:1 794:1 976:1 1224:2 1251:1 1264:2
-1 222:1 1224:3 1235:1 1264:3
-1 174:1 598:1 1182:1 1224:2 1226:1 1249:1 1251:1 1264:2
-1 157:1 176:1 226:1 236:1 418:1 524:1 598:1 868:1 1216:1 1223:1 1224:3 1226:1 1236:1 1238:1 1241:1 1243:1 1252:1 1264:3
-1 157:1 226:1 290:1 418:1 477:1 524:1 591:1 598:1 748:1 868:1 914:1 1114:1 1166:1 1182:1 1199:1 1211:1 1216:1 1222:1 1223:1 1224:4 1226:1 1233:1 1236:1 1237:1 1238:1 1243:1 1249:1 1257:1 1264:4
-1 226:1 418:1 448:1 520:1 524:1 574:1 598:1 605:1 625:1 736:1 748:1 791:1 850:1 881:1 1182:1 1214:1 1216:1 1218:1 1224:2 1226:1 1228:1 1229:1 1236:1 1237:1 1238:1 1245:1 1248:1 1249:1 1264:2
-1 157:1 220:1 226:1 418:1 524:1 574:1 598:1 625:1 748:1 810:1 858:1 881:1 1152:1 1182:1 1206:1 1208:1 1216:1 1221:1 1224:1 1225:1 1226:1 1229:1 1234:1 1236:1 1237:1 1238:1 1243:1 1245:1 1248:1 1249:1 1260:1 1261:1 1264:1 1266:4
-1 226:1 418:1 520:1 524:1 574:1 598:1 625:1 738:1 748:1 791:1 810:1 858:1 881:1 1152:1 1182:1 1188:1 1206:1 1214:1 1216:1 1218:1 1221:1 1224:2 1225:1 1226:1 1229:1 1234:1 1236:1 1237:1 1238:1 1245:1 1248:1 1249:1 1260:1 1264:2 1266:12
-1 330:1 1224:1 1264:1
-1 226:1 418:1 524:1 591:1 598:1 791:1 868:1 1182:1 1216:1 1218:1 1222:1 1223:1 1224:2 1226:1 1236:1 1238:1 1249:1 1264:2
-1 157:1 418:1 524:1 598:1 868:1 1212:1 1216:1 1223:1 1224:2 1226:1 1238:1 1243:1 1264:2
-1 174:1 381:1 418:1 524:1 598:1 868:1 1216:1 1223:1 1224:2 1226:1 1238:1 1251:1 1264:2
-1 139:1 153:1 174:1 279:1 375:1 377:1 460:1 461:1 467:1 544:1 614:1 625:1 657:1 673:1 678:1 679:1 684:1 718:1 736:1 774:1 775:1 959:1 976:1 1099:1 1130:1 1198:1 1224:1 1230:1 1245:1 1251:1 1264:1
-1 153:1 174:1 217:1 279:1 344:1 377:1 461:1 465:1 467:1 540:1 544:1 551:1 592:1 657:1 673:1 678:1 684:1 718:1 764:1 775:1 794:1 798:1 900:1 959:1 973:1 976:1 1099:1 1130:1 1202:1 1224:1 1231:1 1251:1 1264:1
-1 139:1 157:1 174:1 214:1 226:1 418:1 524:1 574:1 598:1 605:1 625:1 691:1 748:1 1182:1 1216:1 1224:2 1226:1 1228:1 1230:1 1236:1 1237:1 1238:1 1243:1 1245:1 1248:1 1249:1 1251:1 1264:2
-1 157:1 226:1 418:2 524:1 598:4 625:3 748:1 868:1 1182:2 1188:1 1206:1 1216:1 1223:1 1224:6 1226:4 1236:1 1237:1 1238:2 1243:1 1245:3 1249:2 1260:1 1264:6
-1 222:1 1224:3 1235:1 1264:3
-1 222:1 1224:2 1235:1 1264:2
-1 139:1 157:1 174:1 226:1 247:1 253:1 343:1 346:1 418:1 524:1 574:1 591:1 598:1 605:1 625:1 720:1 748:1 809:1 857:1 1152:1 1182:1 1216:1 1222:1 1224:2 1225:1 1226:1 1228:1 1230:1 1236:1 1237:1 1238:1 1243:1 1245:1 1248:1 1249:1 1251:1 1264:2
-1 222:1 1224:2 1235:1 1264:2
-1 157:1 418:2 524:1 598:5 625:2 1182:2 1206:1 1216:1 1224:6 1226:5 1238:2 1243:1 1245:2 1249:2 1260:1 1264:6
-1 157:1 260:1 418:2 524:1 591:1 598:3 625:1 748:1 868:1 1182:2 1216:1 1222:1 1223:1 1224:6 1226:3 1237:1 1238:2 1243:1 1245:1 1249:2 1264:6
-1 222:1 1224:3 1235:1 1264:3
-1 222:1 1224:3 1235:1 1264:3
-1 134:1 139:1 153:1 174:1 217:1 256:1 279:1 344:1 377:1 418:1 460:1 467:1 544:1 598:1 657:1 673:1 678:1 684:1 699:1 738:1 794:1 834:1 973:1 1015:1 1052:1 1084:1 1099:1 1197:1 1224:1 1226:1 1230:1 1231:1 1238:1 1251:1 1264:1 1266:222
-1 153:1 174:1 226:1 377:1 467:1 598:1 625:1 657:1 673:1 678:1 718:1 738:1 748:1 791:1 838:1 1015:1 1182:1 1218:1 1224:2 1226:1 1236:1 1237:1 1245:1 1249:1 1251:1 1264:2
-1 139:1 144:1 169:1 174:1 217:1 467:1 516:1 598:1 625:1 657:1 678:1 679:1 705:1 718:1 738:1 748:1 1182:1 1224:2 1226:1 1230:1 1231:1 1237:1 1245:1 1249:1 1251:1 1259:1 1264:2
-1 157:1 226:1 247:1 418:1 524:1 598:1 625:1 748:1 895:1 999:1 1053:1 1182:1 1216:1 1224:1 1226:1 1236:1 1237:1 1238:1 1243:1 1245:1 1249:1 1264:1 1266:1
-1 226:1 418:1 598:1 625:1 748:1 895:1 999:1 1053:1 1224:1 1226:1 1236:1 1237:1 1238:1 1245:1 1264:1 1266:1
-1 226:1 418:1 598:1 625:1 748:1 895:1 999:1 1053:1 1224:1 1226:1 1236:1 1237:1 1238:1 1245:1 1264:1 1266:5
-1 157:1 418:2 524:1 598:5 625:2 1182:2 1206:1 1216:1 1224:6 1226:5 1238:2 1243:1 1245:2 1249:2 1260:1 1264:6
-1 174:2 598:1 1224:3 1226:1 1251:2 1264:3
-1 226:1 418:1 524:1 598:1 748:1 895:1 1182:1 1188:1 1216:1 1224:2 1226:1 1236:1 1237:1 1238:1 1249:1 1264:2
-1 174:2 418:1 591:1 598:1 1066:1 1222:1 1224:2 1226:1 1238:1 1251:2 1264:2
-1 139:1 1224:2 1230:1 1264:2
-1 139:1 174:1 226:1 376:1 418:1 481:1 598:1 625:1 662:1 748:1 754:1 1182:1 1224:2 1226:1 1230:1 1236:1 1237:1 1238:1 1245:1 1249:1 1251:1 1264:2
-1 222:1 1224:3 1235:1 1264:3
-1 174:1 418:1 598:1 1182:1 1224:2 1226:1 1238:1 1249:1 1251:1 1264:2
-1 222:1 1224:3 1235:1 1264:3
-1 454:1 1219:1 1224:1 1264:1
-1 595:1 598:1 1224:4 1226:1 1264:4
-1 418:1 598:1 1182:1 1224:4 1226:1 1238:1 1249:1 1264:4
-1 174:1 598:1 1224:5 1226:1 1251:1 1264:5
-1 398:1 418:1 598:1 625:1 748:1 1224:1 1226:1 1237:1 1238:1 1245:1 1264:1
-1 226:1 418:1 524:1 598:1 625:1 748:1 1182:1 1216:1 1224:3 1226:1 1236:1 1237:1 1238:1 1245:1 1249:1 1264:3
-1 157:1 418:2 598:4 625:1 1182:3 1224:5 1226:4 1238:2 1243:1 1245:1 1249:3 1264:5
-1 226:1 418:1 598:1 1182:1 1224:3 1226:1 1236:1 1238:1 1249:1 1264:3
-1 157:1 226:1 418:1 524:1 598:1 748:1 1182:1 1206:1 1216:1 1224:4 1226:1 1236:1 1237:1 1238:1 1243:1 1249:1 1260:1 1264:4
-1 418:1 598:1 791:1 1218:1 1224:1 1226:1 1238:1 1264:1
-1 598:1 810:1 865:1 881:1 906:1 1224:1 1226:1 1229:1 1234:1 1264:1
-1 157:1 226:1 418:1 524:1 598:1 625:1 791:1 810:1 1182:1 1216:1 1218:1 1224:1 1226:1 1234:1 1236:1 1238:1 1243:1 1245:1 1249:1 1264:1 1266:19
-1 598:1 865:1 906:1 1224:1 1226:1 1264:1
-1 174:2 237:1 278:1 594:1 598:1 1078:1 1224:2 1226:1 1251:2 1264:2
-1 157:1 418:2 524:1 598:5 625:2 1182:2 1206:1 1216:1 1224:6 1226:5 1238:2 1243:1 1245:2 1249:2 1260:1 1264:6
-1 139:1 157:1 174:1 218:1 226:1 418:1 524:1 543:1 574:1 598:1 605:1 625:1 691:1 738:1 748:1 804:1 809:1 1182:1 1216:1 1224:1 1226:1 1227:1 1228:1 1230:1 1236:1 1237:1 1238:1 1243:1 1245:1 1248:1 1249:1 1251:1 1264:1
-1 157:1 226:4 260:1 418:2 524:1 598:5 625:3 659:1 748:4 868:1 1182:2 1190:1 1206:1 1216:1 1223:1 1224:5 1226:5 1236:4 1237:4 1238:2 1243:1 1245:3 1249:2 1260:1 1264:5
-1 222:1 1224:2 1235:1 1264:2
-1 574:1 598:1 1182:1 1224:1 1226:1 1248:1 1249:1 1264:1
-1 222:1 1224:3 1235:1 1264:3
-1 157:1 418:2 598:2 625:1 1182:2 1224:7 1226:2 1238:2 1243:1 1245:1 1249:2 1264:7
-1 418:1 524:1 598:1 868:1 1182:1 1206:1 1216:1 1223:1 1224:1 1226:1 1238:1 1249:1 1260:1 1264:1
-1 222:1 1224:3 1235:1 1264:3
-1 236:1 598:1 1224:2 1226:1 1241:1 1264:2
-1 418:1 524:1 598:1 868:1 1182:1 1206:1 1216:1 1223:1 1224:1 1226:1 1238:1 1249:1 1260:1 1264:1
-1 157:1 418:2 598:2 625:1 1182:2 1224:7 1226:2 1238:2 1243:1 1245:1 1249:2 1264:7
-1 226:1 236:1 418:1 598:1 1182:1 1224:2 1226:1 1236:1 1238:1 1241:1 1249:1 1264:2
-1 157:1 418:2 598:2 625:1 1182:2 1224:8 1226:2 1238:2 1243:1 1245:1 1249:2 1264:8
-1 157:1 418:2 598:2 625:1 1182:2 1224:7 1226:2 1238:2 1243:1 1245:1 1249:2 1264:7
-1 222:1 1224:3 1235:1 1264:3
-1 398:1 418:1 574:1 598:1 839:1 893:1 1039:1 1224:2 1226:1 1238:1 1248:1 1264:2
-1 157:1 226:1 236:1 418:1 524:1 574:1 598:1 625:1 736:1 738:1 748:1 881:1 958:1 1182:1 1206:1 1216:1 1224:1 1226:1 1229:1 1236:1 1237:1 1238:1 1239:1 1241:1 1243:1 1245:1 1248:1 1249:1 1260:1 1264:1
-1 222:1 1224:4 1235:1 1264:4
-1 454:1 1219:1 1224:1 1264:1
-1 163:1 260:1 418:1 524:1 598:1 1190:1 1216:1 1224:2 1226:1 1238:1 1264:2
-1 157:1 418:2 524:1 598:5 625:2 1182:2 1206:1 1216:1 1224:6 1226:5 1238:2 1243:1 1245:2 1249:2 1260:1 1264:6
-1 139:1 153:1 279:1 344:1 377:1 467:1 475:1 544:1 579:1 657:1 673:1 678:1 684:1 689:1 700:1 714:1 738:1 774:1 775:1 794:1 835:1 973:1 976:1 1084:1 1197:1 1224:3 1230:1 1264:3
-1 157:1 226:1 418:1 423:1 524:1 598:1 1182:1 1216:1 1224:3 1226:1 1236:1 1238:1 1243:1 1249:1 1264:3
-1 222:1 1224:3 1235:1 1264:3
-1 174:2 552:1 598:1 1224:3 1226:1 1251:2 1264:3
-1 222:1 1224:3 1235:1 1264:3
-1 222:1 1224:3 1235:1 1264:3
-1 222:1 1224:3 1235:1 1264:3
-1 222:1 1224:3 1235:1 1264:3
-1 222:1 1224:3 1235:1 1264:3
-1 222:1 1224:3 1235:1 1264:3
-1 222:1 1224:3 1235:1 1264:3
-1 222:1 1224:3 1235:1 1264:3
-1 222:1 1224:3 1235:1 1264:3
-1 222:1 1224:3 1235:1 1264:3
-1 222:1 1224:3 1235:1 1264:3
-1 222:1 1224:3 1235:1 1264:3
-1 222:1 1224:3 1235:1 1264:3
-1 174:2 598:1 1224:3 1226:1 1251:2 1264:3
-1 157:1 226:1 418:1 499:1 524:1 574:1 598:1 625:1 748:1 919:1 1182:1 1216:1 1224:3 1226:1 1236:1 1237:1 1238:1 1243:1 1245:1 1248:1 1249:1 1253:1 1264:3
-1 139:1 174:1 418:1 598:1 1182:1 1224:1 1226:1 1230:1 1238:1 1249:1 1251:1 1264:1
-1 130:1 255:1 260:1 418:1 524:1 591:1 598:1 1216:1 1222:1 1224:1 1226:1 1238:1 1264:1 1266:1
-1 222:1 1224:2 1235:1 1264:2
-1 418:1 524:1 598:1 868:1 1182:1 1206:1 1216:1 1223:1 1224:1 1226:1 1238:1 1249:1 1260:1 1264:1
-1 174:1 418:1 485:1 505:1 574:1 598:1 625:1 748:1 1182:1 1224:1 1226:1 1237:1 1238:1 1245:1 1248:1 1249:1 1251:1 1264:1
-1 174:1 278:1 594:1 598:1 1043:1 1078:1 1137:1 1224:3 1226:1 1251:1 1264:3
-1 174:1 278:1 598:1 1043:1 1078:1 1224:3 1226:1 1251:1 1264:3
-1 174:1 236:1 591:1 598:1 1222:1 1224:3 1226:1 1241:1 1251:1 1264:3
-1 157:1 174:1 226:2 418:2 524:2 574:1 598:5 625:3 748:1 868:1 1182:2 1188:1 1206:1 1216:2 1223:1 1224:6 1226:5 1236:2 1237:1 1238:2 1243:1 1245:3 1248:1 1249:2 1251:1 1260:1 1264:6
-1 141:1 174:2 237:1 278:1 594:1 598:1 1043:1 1078:1 1224:3 1226:1 1251:2 1264:3
-1 157:1 226:1 418:1 524:1 598:1 625:1 748:1 868:1 1206:1 1216:1 1223:1 1224:4 1226:1 1236:1 1237:1 1238:1 1243:1 1245:1 1260:1 1264:4
-1 139:1 153:1 174:1 194:1 217:1 377:1 418:1 467:1 544:1 598:1 657:1 673:1 678:1 1182:1 1224:2 1226:1 1230:1 1231:1 1238:1 1249:1 1251:1 1264:2
-1 226:1 418:1 598:1 1224:3 1226:1 1236:1 1238:1 1264:3
-1 247:1 418:1 524:1 598:1 625:1 705:1 748:1 791:1 858:1 868:1 920:1 958:1 1152:1 1182:1 1206:1 1216:1 1218:1 1221:1 1223:1 1224:1 1225:1 1226:1 1237:1 1238:1 1239:1 1245:1 1249:1 1258:1 1259:1 1260:1 1264:1
-1 139:1 157:1 174:1 298:1 418:1 432:1 448:1 524:1 574:1 598:1 610:1 625:1 738:1 748:1 1093:1 1182:1 1216:1 1224:1 1226:1 1230:1 1237:1 1238:1 1243:1 1245:1 1248:1 1249:1 1251:1 1264:1
-1 174:1 226:1 418:1 551:1 598:1 610:1 625:1 691:1 748:1 1182:1 1224:2 1226:1 1236:1 1237:1 1238:1 1245:1 1249:1 1251:1 1264:2
-1 174:1 418:1 598:1 856:1 1220:1 1224:3 1226:1 1238:1 1251:1 1264:3
-1 139:1 174:1 418:1 574:1 598:1 625:1 718:1 791:1 927:1 955:1 958:1 1182:1 1206:1 1218:1 1224:2 1226:1 1230:1 1238:1 1239:1 1245:1 1248:1 1249:1 1251:1 1260:1 1264:2
-1 153:1 174:1 377:1 467:1 657:1 673:1 678:1 1224:3 1251:1 1264:3
-1 153:1 174:1 377:1 467:1 657:1 673:1 678:1 1224:3 1251:1 1264:3
-1 153:1 174:1 377:1 467:1 657:1 673:1 678:1 1224:3 1251:1 1264:3
-1 153:1 174:1 377:1 467:1 657:1 673:1 678:1 1224:3 1251:1 1264:3
-1 153:1 174:1 377:1 467:1 598:1 657:1 673:1 678:1 1224:3 1226:1 1251:1 1264:3
-1 153:1 174:1 377:1 467:1 657:1 673:1 678:1 1224:3 1251:1 1264:3
-1 153:1 174:1 377:1 467:1 657:1 673:1 678:1 1224:3 1251:1 1264:3
-1 139:1 174:1 226:1 331:1 341:1 418:1 551:1 574:1 598:1 610:1 691:1 705:1 748:1 1079:1 1182:1 1206:1 1224:2 1226:1 1230:1 1236:1 1237:1 1238:1 1248:1 1249:1 1251:1 1259:1 1260:1 1264:2
-1 139:1 174:1 598:1 1182:1 1224:2 1226:1 1230:1 1249:1 1251:1 1264:2
-1 139:1 153:1 169:1 174:1 226:1 256:1 307:1 344:1 364:1 377:1 418:1 448:1 461:1 467:1 475:1 524:1 551:1 574:1 598:1 603:1 625:1 657:1 673:1 678:1 691:1 699:1 705:1 707:1 719:1 748:1 794:1 826:1 929:1 959:1 960:1 963:1 973:1 976:1 1068:1 1103:1 1106:1 1197:1 1216:1 1224:3 1226:1 1230:1 1236:1 1237:1 1238:1 1245:1 1248:1 1251:1 1259:1 1264:3
-1 153:1 174:1 180:1 279:1 344:1 377:1 411:1 425:1 467:1 540:1 544:1 626:1 657:1 673:1 678:1 684:1 764:1 775:1 794:1 798:1 973:1 1099:1 1197:1 1224:2 1251:1 1264:2
-1 139:1 153:1 174:1 226:1 256:1 377:1 461:1 467:1 544:1 574:1 657:1 673:1 678:1 959:1 1099:1 1224:3 1230:1 1236:1 1248:1 1251:1 1264:3
-1 153:1 174:1 226:1 377:1 418:1 467:1 574:1 598:1 657:1 673:1 678:1 691:1 718:1 1182:1 1224:3 1226:1 1236:1 1238:1 1248:1 1249:1 1251:1 1264:3
-1 157:1 226:1 418:1 524:1 574:1 598:1 625:1 1182:1 1216:1 1224:2 1226:1 1236:1 1238:1 1243:1 1245:1 1248:1 1249:1 1264:2
-1 153:1 174:1 377:1 418:1 467:1 598:1 657:1 673:1 678:1 1224:2 1226:1 1238:1 1251:1 1264:2
-1 157:1 226:1 418:1 524:1 598:1 1182:1 1216:1 1224:2 1226:1 1236:1 1238:1 1243:1 1249:1 1264:2
-1 418:1 591:1 598:1 810:1 1182:1 1222:1 1224:1 1226:1 1234:1 1238:1 1249:1 1264:1 1266:2
-1 418:1 524:1 598:1 1216:1 1224:3 1226:1 1238:1 1264:3
-1 157:1 418:1 524:1 598:1 748:1 1216:1 1224:2 1226:1 1237:1 1238:1 1243:1 1264:2
-1 139:1 145:1 153:1 174:1 226:1 279:1 377:1 418:1 460:1 466:1 467:1 524:1 544:1 598:1 657:1 673:1 678:1 684:1 699:1 774:1 973:1 978:1 1188:1 1216:1 1224:2 1226:1 1230:1 1236:1 1238:1 1251:1 1264:2
-1 222:1 1224:4 1235:1 1264:4
-1 222:1 1224:2 1235:1 1264:2
-1 157:1 418:1 524:1 598:1 1182:1 1206:1 1216:1 1224:2 1226:1 1238:1 1243:1 1249:1 1260:1 1264:2
-1 157:1 226:1 357:1 418:1 444:1 524:1 591:1 598:1 625:1 748:1 791:1 868:1 974:1 1013:1 1182:1 1206:1 1216:1 1218:1 1222:1 1223:1 1224:5 1226:1 1236:1 1237:1 1238:1 1243:1 1245:1 1249:1 1260:1 1264:5
-1 153:1 174:1 279:1 377:1 465:1 467:1 657:1 673:1 678:1 684:1 774:1 794:1 1224:4 1251:1 1264:4
-1 139:1 153:1 174:1 203:1 256:1 279:1 344:1 377:1 418:1 460:1 465:1 467:1 544:1 598:1 657:1 673:1 678:1 679:1 684:1 764:1 774:1 775:1 794:1 973:1 1004:1 1099:1 1197:1 1224:2 1226:1 1230:1 1238:1 1251:1 1264:2
-1 598:1 1172:1 1224:2 1226:1 1264:2
-1 174:2 598:1 1224:2 1226:1 1251:2 1264:2
-1 222:1 1224:3 1235:1 1264:3
-1 226:1 418:1 524:1 598:1 625:1 748:1 958:1 1216:1 1224:5 1226:1 1236:1 1237:1 1238:1 1239:1 1245:1 1264:5
-1 174:1 418:1 598:1 856:1 1220:1 1224:3 1226:1 1238:1 1251:1 1264:3
-1 598:1 1224:1 1226:1 1264:1
-1 139:1 153:1 174:1 191:1 279:1 344:1 377:1 418:1 460:1 465:1 467:1 574:1 657:1 673:1 678:1 684:1 774:1 775:1 794:1 834:1 927:1 973:1 982:1 1002:1 1052:1 1197:1 1206:1 1224:3 1230:1 1238:1 1248:1 1251:1 1260:1 1264:3
-1 163:1 192:1 226:1 260:1 418:1 453:1 598:1 738:1 791:1 1111:1 1182:1 1218:1 1224:2 1226:1 1236:1 1238:1 1249:1 1264:2
-1 174:1 591:1 598:1 1222:1 1224:3 1226:1 1251:1 1264:3
-1 174:1 598:1 610:1 1182:1 1224:2 1226:1 1249:1 1251:1 1264:2
-1 226:1 418:1 598:1 1224:3 1226:1 1236:1 1238:1 1264:3
-1 157:1 418:2 598:2 625:1 1182:2 1224:7 1226:2 1238:2 1243:1 1245:1 1249:2 1264:7
-1 139:1 153:1 169:1 174:1 235:1 279:1 344:1 377:1 467:1 544:1 625:1 657:1 673:1 678:1 684:1 718:1 738:1 764:1 794:1 973:1 1099:1 1224:2 1230:1 1245:1 1251:1 1264:2
-1 139:1 158:1 174:1 418:1 574:1 598:1 625:1 718:1 791:1 927:1 955:1 958:1 963:1 1157:1 1182:1 1206:1 1218:1 1224:2 1226:1 1230:1 1238:1 1239:1 1245:1 1248:1 1249:1 1251:1 1260:1 1264:2
-1 139:1 158:1 174:1 418:1 574:1 598:1 625:1 718:1 791:1 927:1 955:1 958:1 963:1 1157:1 1182:1 1206:1 1218:1 1224:2 1226:1 1230:1 1238:1 1239:1 1245:1 1248:1 1249:1 1251:1 1260:1 1264:2
-1 129:1 139:1 145:1 153:1 157:1 169:1 174:1 193:1 203:1 205:1 226:1 256:1 279:1 344:1 361:1 377:1 418:1 460:1 465:1 467:1 494:1 518:1 524:1 529:1 543:1 544:1 559:1 574:1 578:1 598:1 614:1 625:1 657:1 673:1 678:1 679:1 684:1 691:1 715:1 764:1 774:1 775:1 794:1 818:1 859:1 973:1 976:1 1001:1 1004:1 1099:1 1110:1 1170:1 1186:1 1197:1 1216:1 1224:2 1226:1 1227:1 1230:1 1236:1 1238:1 1243:1 1245:1 1248:1 1251:1 1264:2
-1 157:1 174:2 226:1 311:1 418:1 524:1 591:1 598:1 625:1 748:1 791:1 868:1 1078:1 1182:1 1216:1 1218:1 1222:1 1223:1 1224:2 1226:1 1236:1 1237:1 1238:1 1243:1 1245:1 1249:1 1251:2 1264:2
-1 174:1 418:1 598:1 628:1 1182:1 1224:2 1226:1 1238:1 1249:1 1251:1 1264:2
-1 139:1 153:1 174:1 377:1 467:1 475:1 657:1 673:1 678:1 684:1 738:1 1084:1 1224:2 1230:1 1251:1 1264:2
-1 157:1 226:1 418:1 520:1 524:1 598:1 625:1 791:1 810:1 868:1 1182:1 1206:1 1214:1 1216:1 1218:1 1223:1 1224:1 1226:1 1234:1 1236:1 1238:1 1243:1 1245:1 1249:1 1260:1 1264:1
-1 157:1 226:1 418:1 520:1 524:1 598:1 625:1 748:1 791:1 810:1 868:1 1182:1 1206:1 1214:1 1216:1 1218:1 1223:1 1224:1 1226:1 1234:1 1236:1 1237:1 1238:1 1243:1 1245:1 1249:1 1260:1 1264:1
-1 139:1 153:1 216:1 271:1 279:1 377:1 461:1 467:1 551:1 617:1 657:1 673:1 678:1 684:1 699:1 718:1 741:1 775:1 798:1 847:1 976:1 990:1 1099:1 1224:1 1230:1 1240:1 1262:1 1264:1
-1 418:1 549:1 598:1 895:1 917:1 1207:1 1224:3 1226:1 1238:1 1264:3
-1 222:1 1224:3 1235:1 1264:3
-1 222:1 1224:2 1235:1 1264:2
-1 598:1 1224:1 1226:1 1264:1
-1 289:1 598:1 625:1 1224:1 1226:1 1245:1 1264:1
-1 157:1 418:2 598:2 625:1 1182:2 1224:7 1226:2 1238:2 1243:1 1245:1 1249:2 1264:7
-1 174:1 552:1 598:1 868:1 1223:1 1224:3 1226:1 1251:1 1264:3
-1 418:2 598:4 625:2 1182:1 1224:6 1226:4 1238:2 1245:2 1249:1 1264:6
-1 138:1 174:1 598:1 1224:3 1226:1 1251:1 1264:3
-1 138:1 174:1 598:1 1224:3 1226:1 1251:1 1264:3
-1 138:1 174:1 598:1 1224:3 1226:1 1251:1 1264:3
-1 418:1 591:1 598:1 621:1 625:1 748:1 791:1 897:1 1218:1 1222:1 1224:1 1226:1 1237:1 1238:1 1245:1 1264:1 1266:75
-1 174:1 1091:1 1224:3 1251:1 1264:3
-1 454:1 1219:1 1224:1 1264:1
-1 174:1 598:1 1224:2 1226:1 1251:1 1264:2
-1 174:1 418:1 598:1 1224:3 1226:1 1238:1 1251:1 1264:3
-1 174:1 418:1 524:1 598:1 625:1 748:1 1216:1 1224:2 1226:1 1237:1 1238:1 1245:1 1251:1 1264:2
-1 174:1 418:1 598:1 1224:2 1226:1 1238:1 1251:1 1264:2
-1 174:1 418:1 598:1 1224:3 1226:1 1238:1 1251:1 1264:3
-1 174:1 1091:1 1224:1 1251:1 1264:1
-1 418:1 524:1 598:1 868:1 1182:1 1216:1 1223:1 1224:1 1226:1 1238:1 1249:1 1264:1
-1 157:1 226:1 418:1 524:1 598:1 748:1 1182:1 1206:1 1216:1 1224:3 1226:1 1236:1 1237:1 1238:1 1243:1 1249:1 1260:1 1264:3
-1 174:1 1091:1 1224:3 1251:1 1264:3
-1 157:1 174:1 418:1 524:1 593:1 598:1 605:1 748:1 856:1 902:1 1208:1 1216:1 1220:1 1224:2 1226:1 1228:1 1237:1 1238:1 1243:1 1251:1 1261:1 1264:2
-1 222:1 1224:3 1235:1 1264:3
-1 595:1 598:1 1224:4 1226:1 1264:4 1266:3
-1 174:2 226:1 236:1 418:1 524:1 598:1 748:1 1182:1 1216:1 1224:3 1226:1 1236:1 1237:1 1238:1 1241:1 1249:1 1251:2 1264:3
-1 454:1 1219:1 1224:1 1264:1
-1 222:1 1224:3 1235:1 1264:3
-1 157:1 174:1 226:1 418:1 524:1 598:1 625:1 748:1 868:1 1182:1 1216:1 1223:1 1224:4 1226:1 1236:1 1237:1 1238:1 1243:1 1245:1 1249:1 1251:1 1264:4
-1 371:1 497:1 598:1 1224:1 1226:1 1264:1
-1 157:1 418:2 598:2 625:1 1182:2 1224:6 1226:2 1238:2 1243:1 1245:1 1249:2 1264:6
-1 222:1 1224:3 1235:1 1264:3
-1 174:2 260:1 418:1 436:1 470:1 524:1 598:1 1190:1 1216:1 1224:2 1226:1 1238:1 1251:2 1264:2
-1 174:2 260:1 418:1 524:1 598:1 1216:1 1224:2 1226:1 1238:1 1251:2 1264:2 1266:26
-1 222:1 1224:3 1235:1 1264:3
-1 222:1 1224:3 1235:1 1264:3
-1 222:1 1224:2 1235:1 1264:2
-1 174:1 598:1 1224:3 1226:1 1251:1 1264:3
-1 157:1 226:1 418:1 520:1 524:1 591:1 598:1 625:1 748:1 868:1 1182:1 1206:1 1214:1 1216:1 1222:1 1223:1 1224:2 1226:1 1236:1 1237:1 1238:1 1243:1 1245:1 1249:1 1260:1 1264:2
-1 157:1 418:1 598:1 625:1 1224:2 1226:1 1238:1 1243:1 1245:1 1264:2
-1 174:2 226:1 236:1 418:1 524:1 598:1 748:1 1182:1 1216:1 1224:2 1226:1 1236:1 1237:1 1238:1 1241:1 1249:1 1251:2 1264:2
-1 157:1 236:1 418:1 447:1 524:1 598:1 1148:1 1208:1 1216:1 1224:3 1226:1 1238:1 1241:1 1243:1 1261:1 1264:3
-1 174:1 260:1 598:1 902:1 941:1 1051:1 1190:1 1224:2 1226:1 1251:1 1264:2
-1 157:1 418:2 598:2 625:1 1182:2 1224:7 1226:2 1238:2 1243:1 1245:1 1249:2 1264:7
-1 153:1 174:1 203:1 296:1 377:1 418:1 467:1 493:1 598:1 625:1 657:1 678:1 1182:1 1224:3 1226:1 1238:1 1245:1 1249:1 1251:1 1264:3
-1 174:1 226:1 416:1 418:1 480:1 524:1 598:1 740:1 1182:1 1216:1 1224:2 1226:1 1236:1 1238:1 1249:1 1251:1 1264:2
-1 157:1 226:1 418:1 524:1 598:1 748:1 1182:1 1206:1 1216:1 1224:3 1226:1 1236:1 1237:1 1238:1 1243:1 1249:1 1260:1 1264:3
-1 134:1 139:1 145:1 153:1 169:1 174:1 279:1 377:1 460:1 465:1 467:1 475:1 544:1 576:1 614:1 625:1 626:1 657:1 673:1 678:1 718:1 734:1 774:1 775:1 776:1 794:1 834:1 949:1 973:1 976:1 1084:1 1186:1 1197:1 1224:2 1230:1 1245:1 1251:1 1264:2
-1 139:1 154:1 174:1 217:1 231:1 235:1 279:1 305:1 309:1 313:1 315:1 328:1 329:1 365:1 377:1 380:1 409:1 411:1 648:1 656:1 665:1 673:1 732:1 738:1 747:1 931:1 950:1 1112:1 1197:1 1224:2 1230:1 1231:1 1244:1 1251:1 1264:2
-1 222:1 1224:3 1235:1 1264:3
-1 139:1 174:1 418:1 574:1 598:1 791:1 1206:1 1218:1 1224:2 1226:1 1230:1 1238:1 1248:1 1251:1 1260:1 1264:2
-1 174:2 236:1 418:1 591:1 598:1 1182:1 1222:1 1224:2 1226:1 1238:1 1241:1 1249:1 1251:2 1264:2
-1 174:1 574:1 598:1 902:1 1182:1 1224:2 1226:1 1248:1 1249:1 1251:1 1264:2
-1 157:1 174:2 226:1 236:1 418:1 524:1 591:1 598:1 748:1 868:1 1182:1 1216:1 1222:1 1223:1 1224:2 1226:1 1236:1 1237:1 1238:1 1241:1 1243:1 1249:1 1251:2 1264:2
-1 174:2 237:1 278:1 594:1 598:1 1078:1 1224:2 1226:1 1251:2 1264:2
-1 174:1 231:1 279:1 305:1 309:1 328:1 329:1 348:1 377:1 380:1 409:1 540:1 544:1 648:1 656:1 665:1 673:1 732:1 747:1 816:1 913:1 931:1 950:1 1140:1 1224:2 1251:1 1264:2
-1 454:1 1219:1 1224:1 1264:1
-1 139:1 153:1 174:1 279:1 344:1 377:1 467:1 540:1 657:1 673:1 678:1 794:1 881:1 973:1 976:1 1224:2 1229:1 1230:1 1251:1 1264:2
-1 294:1 598:1 1224:2 1226:1 1264:2
-1 294:1 598:1 1224:2 1226:1 1264:2
-1 174:1 226:1 418:1 598:1 1182:1 1224:1 1226:1 1236:1 1238:1 1249:1 1251:1 1264:1
-1 157:1 174:1 226:1 418:1 524:1 598:1 868:1 920:1 1182:1 1216:1 1223:1 1224:2 1226:1 1236:1 1238:1 1243:1 1249:1 1251:1 1258:1 1264:2
-1 454:1 1219:1 1224:1 1264:1
-1 157:1 226:1 418:1 423:1 524:1 598:1 625:1 738:1 748:1 1182:1 1206:1 1216:1 1224:2 1226:1 1236:1 1237:1 1238:1 1243:1 1245:1 1249:1 1260:1 1264:2
-1 157:1 226:1 418:1 524:1 598:1 625:1 748:1 868:1 1182:1 1206:1 1216:1 1223:1 1224:5 1226:1 1236:1 1237:1 1238:1 1243:1 1245:1 1249:1 1260:1 1264:5
-1 598:1 1224:1 1226:1 1264:1
-1 139:1 157:1 174:1 217:1 226:1 418:1 598:1 625:1 718:1 868:1 927:1 1182:1 1188:1 1223:1 1224:2 1226:1 1230:1 1231:1 1236:1 1238:1 1243:1 1245:1 1249:1 1251:1 1264:2
-1 139:1 153:1 216:1 217:1 271:1 377:1 467:1 598:1 657:1 678:1 718:1 741:1 748:1 990:1 1099:1 1182:1 1224:1 1226:1 1230:1 1231:1 1237:1 1249:1 1262:1 1264:1
-1 139:1 153:1 169:1 216:1 217:1 256:1 271:1 344:1 377:1 418:1 448:1 460:1 467:1 540:1 598:1 625:1 657:1 678:1 684:1 718:1 738:1 741:1 818:1 889:1 973:1 990:1 1099:1 1154:1 1182:1 1224:1 1226:1 1230:1 1231:1 1238:1 1245:1 1249:1 1262:1 1264:1
-1 139:1 144:1 153:1 158:1 174:1 193:1 227:1 256:1 279:1 328:1 344:1 361:1 377:1 460:1 467:1 533:1 540:1 544:1 576:1 582:1 625:1 657:1 673:1 678:1 679:1 684:1 718:1 774:1 775:1 791:1 798:1 834:1 859:1 878:1 982:1 1002:1 1052:1 1196:1 1197:1 1218:1 1224:1 1230:1 1245:1 1251:1 1264:1
-1 139:1 153:1 174:1 344:1 377:1 460:1 467:1 520:1 657:1 673:1 678:1 684:1 774:1 775:1 791:1 1052:1 1197:1 1214:1 1218:1 1224:1 1230:1 1251:1 1264:1
-1 454:1 1219:1 1224:1 1264:1
-1 454:1 1219:1 1224:1 1264:1
-1 418:1 598:1 1224:1 1226:1 1238:1 1264:1
-1 222:1 1224:3 1235:1 1264:3
-1 157:1 418:2 598:4 625:1 1182:3 1224:4 1226:4 1238:2 1243:1 1245:1 1249:3 1264:4
-1 157:1 226:1 343:1 418:1 524:1 543:1 574:1 598:1 625:1 748:1 891:1 1182:1 1216:1 1224:1 1226:1 1227:1 1236:1 1237:1 1238:1 1243:1 1245:1 1248:1 1249:1 1264:1
-1 418:1 598:1 748:1 895:1 1053:1 1224:1 1226:1 1237:1 1238:1 1264:1 1266:1
-1 226:1 418:1 524:1 598:1 625:1 748:1 1182:1 1216:1 1224:1 1226:1 1236:1 1237:1 1238:1 1245:1 1249:1 1264:1
-1 174:1 552:1 598:1 1224:4 1226:1 1251:1 1264:4
-1 157:1 226:1 418:1 448:1 524:1 598:1 625:1 748:1 868:1 1182:1 1216:1 1223:1 1224:1 1226:1 1236:1 1237:1 1238:1 1243:1 1245:1 1249:1 1264:1
-1 598:1 621:1 1224:2 1226:1 1264:2
-1 139:1 154:1 174:1 193:1 209:1 231:1 279:1 309:1 329:1 348:1 377:1 380:1 409:1 544:1 648:1 656:1 665:1 673:1 707:1 732:1 747:1 816:1 826:1 913:1 931:1 950:1 976:1 1103:1 1140:1 1173:1 1213:1 1224:1 1230:1 1251:1 1264:1
-1 236:1 598:1 1224:2 1226:1 1241:1 1264:2
-1 174:1 251:1 418:1 598:1 1224:2 1226:1 1238:1 1251:1 1264:2
-1 174:1 251:1 418:1 598:1 1224:2 1226:1 1238:1 1251:1 1264:2
-1 157:1 418:2 598:2 625:1 1182:2 1224:6 1226:2 1238:2 1243:1 1245:1 1249:2 1264:6
-1 598:1 1224:2 1226:1 1264:2
-1 174:1 251:1 418:1 598:1 1224:2 1226:1 1238:1 1251:1 1264:2
-1 236:1 598:1 1224:2 1226:1 1241:1 1264:2
-1 598:1 1224:2 1226:1 1264:2
-1 236:1 598:1 1224:2 1226:1 1241:1 1264:2
-1 174:1 418:1 598:1 625:1 748:1 1182:1 1224:1 1226:1 1237:1 1238:1 1245:1 1249:1 1251:1 1264:1
-1 174:1 418:1 574:1 598:1 625:1 748:1 1182:1 1224:1 1226:1 1237:1 1238:1 1245:1 1248:1 1249:1 1251:1 1264:1
-1 157:1 418:2 598:2 625:1 1182:2 1224:7 1226:2 1238:2 1243:1 1245:1 1249:2 1264:7
-1 290:1 346:1 418:1 457:1 524:1 591:1 598:1 748:1 784:1 987:1 1216:1 1222:1 1224:2 1226:1 1237:1 1238:1 1264:2
-1 290:1 346:1 418:1 457:1 524:1 591:1 598:1 748:1 784:1 987:1 1216:1 1222:1 1224:2 1226:1 1237:1 1238:1 1264:2
-1 290:1 346:1 418:1 457:1 524:1 591:1 598:1 748:1 784:1 987:1 1216:1 1222:1 1224:2 1226:1 1237:1 1238:1 1264:2
-1 454:1 1219:1 1224:1 1264:1
-1 157:1 226:1 418:1 524:1 598:1 791:1 1152:1 1182:1 1206:1 1216:1 1218:1 1224:3 1225:1 1226:1 1236:1 1238:1 1243:1 1249:1 1260:1 1264:3
-1 260:1 277:1 363:1 598:1 1190:1 1224:1 1226:1 1264:1
-1 260:1 262:1 363:1 598:1 1190:1 1224:1 1226:1 1264:1
-1 418:1 591:1 598:1 605:1 868:1 1222:1 1223:1 1224:1 1226:1 1228:1 1238:1 1264:1
-1 260:1 363:1 598:1 983:1 1224:1 1226:1 1264:1
-1 260:1 262:1 363:1 598:1 1190:1 1224:1 1226:1 1264:1
-1 260:1 363:1 552:1 598:1 1190:1 1224:1 1226:1 1264:1
-1 260:1 363:1 418:1 524:1 591:1 598:1 1190:1 1216:1 1222:1 1224:1 1226:1 1238:1 1264:1
-1 260:1 262:1 363:1 598:1 1224:1 1226:1 1264:1
-1 157:1 174:2 226:1 236:1 418:1 524:1 591:1 598:1 748:1 868:1 1182:1 1216:1 1222:1 1223:1 1224:2 1226:1 1236:1 1237:1 1238:1 1241:1 1243:1 1249:1 1251:2 1264:2
-1 174:2 226:1 236:1 418:1 524:1 591:1 598:1 748:1 868:1 1182:1 1216:1 1222:1 1223:1 1224:2 1226:1 1236:1 1237:1 1238:1 1241:1 1249:1 1251:2 1264:2
-1 174:1 418:1 524:1 598:1 1216:1 1224:2 1226:1 1238:1 1251:1 1264:2
-1 157:1 418:2 598:4 625:1 1182:3 1224:5 1226:4 1238:2 1243:1 1245:1 1249:3 1264:5
-1 153:1 174:1 193:1 256:1 279:1 344:1 377:1 460:1 465:1 467:1 533:1 544:1 657:1 673:1 678:1 679:1 684:1 774:1 775:1 973:1 982:1 1052:1 1197:1 1224:2 1251:1 1264:2
-1 157:1 418:2 598:2 625:1 1182:2 1224:6 1226:2 1238:2 1243:1 1245:1 1249:2 1264:6
-1 157:1 418:2 598:2 625:1 1182:2 1224:7 1226:2 1238:2 1243:1 1245:1 1249:2 1264:7
-1 222:1 1224:2 1235:1 1264:2
-1 153:1 174:1 193:1 207:1 279:1 344:1 361:1 377:1 460:1 467:1 544:1 657:1 673:1 678:1 684:1 774:1 775:1 834:1 973:1 976:1 1052:1 1197:1 1224:2 1251:1 1264:2
-1 236:1 346:1 418:1 591:1 598:1 784:1 987:1 1222:1 1224:2 1226:1 1238:1 1241:1 1264:2
-1 139:1 153:1 279:1 293:1 344:1 361:1 377:1 460:1 465:1 467:1 657:1 673:1 678:1 684:1 733:1 774:1 775:1 834:1 973:1 1002:1 1099:1 1197:1 1224:1 1230:1 1264:1
-1 157:1 418:2 524:1 535:1 598:4 625:2 1182:2 1206:1 1216:1 1224:6 1226:4 1238:2 1243:1 1245:2 1249:2 1260:1 1264:6
-1 174:1 598:1 791:1 1218:1 1224:2 1226:1 1251:1 1264:2
-1 222:1 1224:2 1235:1 1264:2
-1 222:1 1224:2 1235:1 1264:2
-1 222:1 1224:2 1235:1 1264:2
-1 222:1 1224:2 1235:1 1264:2
-1 139:1 153:1 174:1 226:1 251:1 375:1 377:1 418:1 467:1 524:1 574:1 598:1 657:1 679:1 961:1 1152:1 1182:1 1216:1 1224:3 1225:1 1226:1 1230:1 1236:1 1238:1 1248:1 1249:1 1251:1 1264:3
-1 230:1 421:1 598:1 613:1 725:1 782:1 923:1 1035:1 1048:1 1224:1 1226:1 1264:1 1266:30
-1 157:1 226:1 418:1 524:1 574:1 598:1 625:1 748:1 868:1 958:1 1182:1 1216:1 1223:1 1224:2 1226:1 1236:1 1237:1 1238:1 1239:1 1243:1 1245:1 1248:1 1249:1 1264:2
-1 174:1 598:1 1224:2 1226:1 1251:1 1264:2
-1 141:1 174:2 237:1 278:1 418:1 594:1 598:1 748:1 1043:1 1078:1 1224:4 1226:1 1237:1 1238:1 1251:2 1264:4
-1 418:1 598:1 1224:4 1226:1 1238:1 1264:4 1266:5
-1 176:1 598:1 1224:4 1226:1 1252:1 1264:4
-1 157:2 226:2 418:2 524:1 598:4 625:4 748:2 868:1 958:1 1182:3 1206:1 1208:1 1216:1 1223:1 1224:5 1226:4 1236:2 1237:2 1238:2 1239:1 1243:2 1245:4 1249:3 1260:1 1261:1 1264:5
-1 157:1 226:1 418:1 524:1 598:1 748:1 1182:1 1206:1 1216:1 1224:3 1226:1 1236:1 1237:1 1238:1 1243:1 1249:1 1260:1 1264:3
-1 157:1 226:1 418:1 520:1 524:1 574:1 598:1 748:1 881:1 1182:1 1206:1 1214:1 1216:1 1224:3 1226:1 1229:1 1236:1 1237:1 1238:1 1243:1 1248:1 1249:1 1260:1 1264:3
-1 598:1 1224:1 1226:1 1264:1
-1 118:1 153:1 174:1 279:1 314:1 334:1 344:1 377:1 460:1 467:1 544:1 657:1 673:1 678:1 684:1 774:1 775:1 973:1 976:1 1052:1 1086:1 1103:1 1197:1 1224:2 1251:1 1264:2
-1 157:1 226:1 418:1 524:1 574:1 598:1 625:1 748:1 868:1 1182:1 1206:1 1216:1 1223:1 1224:1 1226:1 1236:1 1237:1 1238:1 1243:1 1245:1 1248:1 1249:1 1260:1 1264:1
-1 157:1 226:1 418:1 524:1 574:1 598:1 625:1 748:1 868:1 1182:1 1206:1 1216:1 1223:1 1224:1 1226:1 1236:1 1237:1 1238:1 1243:1 1245:1 1248:1 1249:1 1260:1 1264:1
-1 157:1 226:1 418:1 524:1 574:1 598:1 625:1 748:1 868:1 1182:1 1206:1 1216:1 1223:1 1224:1 1226:1 1236:1 1237:1 1238:1 1243:1 1245:1 1248:1 1249:1 1260:1 1264:1
-1 159:1 230:1 598:1 923:1 1048:1 1113:1 1224:1 1226:1 1264:1 1266:1
-1 598:1 725:1 1224:2 1226:1 1264:2
-1 418:1 598:1 725:1 1224:2 1226:1 1238:1 1264:2
-1 398:1 598:1 1224:2 1226:1 1264:2
-1 226:1 418:1 598:1 1182:1 1224:1 1226:1 1236:1 1238:1 1249:1 1264:1
-1 174:1 226:1 418:1 574:1 598:1 625:1 748:1 1182:1 1206:1 1224:1 1226:1 1236:1 1237:1 1238:1 1245:1 1248:1 1249:1 1251:1 1260:1 1264:1
-1 418:1 598:1 1224:2 1226:1 1238:1 1264:2
-1 418:1 598:1 1182:1 1224:1 1226:1 1238:1 1249:1 1264:1
-1 157:1 418:2 598:2 625:1 1182:2 1224:7 1226:2 1238:2 1243:1 1245:1 1249:2 1264:7
-1 174:2 598:1 1134:1 1224:2 1226:1 1251:2 1264:2
-1 157:1 174:1 226:1 236:1 418:1 524:1 598:1 1182:1 1216:1 1224:2 1226:1 1236:1 1238:1 1241:1 1243:1 1249:1 1251:1 1264:2
-1 222:1 1224:3 1235:1 1264:3
-1 157:1 418:2 524:1 598:4 625:3 748:1 868:1 1182:2 1206:1 1216:1 1223:1 1224:6 1226:4 1237:1 1238:2 1243:1 1245:3 1249:2 1260:1 1264:6
-1 418:1 524:1 598:1 1182:1 1216:1 1224:1 1226:1 1238:1 1249:1 1264:1
-1 139:1 153:1 174:1 377:1 418:1 461:1 467:1 598:1 657:1 673:1 678:1 718:1 748:1 959:1 1182:1 1203:1 1224:3 1226:1 1230:1 1237:1 1238:1 1249:1 1251:1 1264:3
-1 226:1 418:1 598:1 625:1 748:1 1152:1 1182:1 1206:1 1224:1 1225:1 1226:1 1236:1 1237:1 1238:1 1245:1 1249:1 1260:1 1264:1
-1 153:1 174:1 344:1 349:1 361:1 377:1 467:1 525:1 544:1 625:1 657:1 673:1 678:1 684:1 718:1 738:1 775:1 798:1 809:1 976:1 1224:2 1245:1 1251:1 1264:2
-1 139:1 153:1 174:1 279:1 361:1 377:1 411:1 460:1 465:1 467:1 544:1 657:1 673:1 678:1 684:1 718:1 774:1 794:1 1103:1 1197:1 1224:3 1230:1 1251:1 1264:3
-1 174:1 598:1 1224:4 1226:1 1251:1 1264:4
-1 176:1 598:1 1224:3 1226:1 1252:1 1264:3
-1 157:1 174:1 418:1 524:1 598:1 868:1 1182:1 1216:1 1223:1 1224:3 1226:1 1238:1 1243:1 1249:1 1251:1 1264:3
-1 153:1 174:1 377:1 418:1 461:1 467:1 551:1 574:1 598:1 657:1 673:1 678:1 718:1 959:1 1224:3 1226:1 1238:1 1248:1 1251:1 1264:3
-1 139:1 153:1 169:1 216:1 235:1 271:1 279:1 344:1 377:1 411:1 460:1 467:1 544:1 657:1 673:1 678:1 684:1 774:1 794:1 990:1 1099:1 1103:1 1224:3 1230:1 1262:1 1264:3
-1 153:1 174:1 377:1 418:1 461:1 467:1 551:1 598:1 657:1 673:1 678:1 718:1 959:1 1182:1 1224:1 1226:1 1238:1 1249:1 1251:1 1264:1
-1 153:1 174:1 279:1 377:1 467:1 544:1 657:1 673:1 678:1 684:1 718:1 775:1 1099:1 1130:1 1224:1 1251:1 1264:1
-1 174:1 598:1 1224:3 1226:1 1251:1 1264:3
-1 139:1 157:1 174:1 226:1 343:1 418:1 598:1 691:1 748:1 929:1 1110:1 1182:1 1224:2 1226:1 1230:1 1236:1 1237:1 1238:1 1243:1 1249:1 1251:1 1264:2
-1 222:1 1224:4 1235:1 1264:4
-1 157:1 226:1 418:1 524:1 598:1 625:1 748:1 1182:1 1206:1 1216:1 1224:3 1226:1 1236:1 1237:1 1238:1 1243:1 1245:1 1249:1 1260:1 1264:3
-1 174:1 418:2 598:4 625:2 1182:1 1224:5 1226:4 1238:2 1245:2 1249:1 1251:1 1264:5
-1 174:2 598:1 1224:2 1226:1 1251:2 1264:2
-1 174:1 598:1 856:1 902:1 1182:1 1220:1 1224:3 1226:1 1249:1 1251:1 1264:3
-1 157:1 226:1 418:1 524:1 598:1 748:1 1182:1 1206:1 1216:1 1224:3 1226:1 1236:1 1237:1 1238:1 1243:1 1249:1 1260:1 1264:3
-1 260:1 262:1 598:1 1190:1 1224:2 1226:1 1264:2
-1 139:1 153:1 174:1 344:1 377:1 460:1 467:1 540:1 616:1 618:1 657:1 673:1 678:1 684:1 705:1 774:1 775:1 858:1 973:1 1052:1 1197:1 1221:1 1224:2 1230:1 1251:1 1259:1 1264:2
-1 170:1 222:1 418:1 574:1 598:1 625:1 748:1 792:1 810:1 1182:1 1206:1 1224:1 1226:1 1234:1 1235:1 1237:1 1238:1 1245:1 1248:1 1249:1 1260:1 1264:1 1266:1
-1 174:1 418:1 598:1 1182:1 1224:2 1226:1 1238:1 1249:1 1251:1 1264:2
-1 174:1 418:1 598:1 1182:1 1224:2 1226:1 1238:1 1249:1 1251:1 1264:2
-1 157:1 418:1 598:1 625:1 1224:2 1226:1 1238:1 1243:1 1245:1 1264:2
-1 226:1 331:1 365:1 418:1 524:1 598:1 625:1 705:1 738:1 748:1 881:1 919:1 1182:1 1206:1 1216:1 1224:2 1226:1 1229:1 1236:1 1237:1 1238:1 1244:1 1245:1 1249:1 1259:1 1260:1 1264:2
-1 226:1 331:1 365:1 418:1 524:1 598:1 625:1 705:1 738:1 748:1 881:1 919:1 1182:1 1206:1 1216:1 1224:2 1226:1 1229:1 1236:1 1237:1 1238:1 1244:1 1245:1 1249:1 1259:1 1260:1 1264:2
-1 418:1 598:1 1224:3 1226:1 1238:1 1264:3
-1 157:1 226:1 418:1 524:1 598:1 748:1 1182:1 1206:1 1216:1 1224:4 1226:1 1236:1 1237:1 1238:1 1243:1 1249:1 1260:1 1264:4
-1 174:1 418:1 598:1 1182:1 1224:2 1226:1 1238:1 1249:1 1251:1 1264:2
-1 123:1 139:1 145:1 153:1 174:1 256:1 279:1 344:1 361:1 377:1 418:1 448:1 460:1 465:1 467:1 472:1 475:1 544:1 614:1 657:1 673:1 678:1 684:1 707:1 733:1 751:1 774:1 775:1 794:1 826:1 973:1 976:1 1084:1 1099:1 1103:1 1197:1 1224:1 1230:1 1238:1 1251:1 1264:1 1266:142
-1 123:1 174:1 418:1 472:1 598:1 748:1 1182:1 1224:2 1226:1 1237:1 1238:1 1249:1 1251:1 1264:2 1266:2
-1 418:1 598:1 1224:3 1226:1 1238:1 1264:3
-1 454:1 1219:1 1224:1 1264:1
-1 454:1 1219:1 1224:1 1264:1
-1 174:1 598:1 748:1 1224:3 1226:1 1237:1 1251:1 1264:3
-1 174:1 418:1 598:1 1224:1 1226:1 1238:1 1251:1 1264:1
-1 139:1 145:1 153:1 174:1 235:1 279:1 344:1 361:1 377:1 460:1 467:1 544:1 657:1 673:1 678:1 774:1 775:1 794:1 973:1 976:1 993:1 1002:1 1052:1 1186:1 1197:1 1224:3 1230:1 1251:1 1264:3
-1 139:1 174:1 226:1 331:1 418:1 446:1 598:1 705:1 773:1 868:1 1182:1 1206:1 1223:1 1224:1 1226:1 1230:1 1236:1 1238:1 1249:1 1251:1 1259:1 1260:1 1264:1
-1 446:1 598:1 1206:1 1224:1 1226:1 1260:1 1264:1
-1 157:1 418:1 598:1 1224:2 1226:1 1238:1 1243:1 1264:2
-1 222:1 1224:3 1235:1 1264:3
-1 418:1 574:1 598:1 1224:4 1226:1 1238:1 1248:1 1264:4
-1 174:2 418:1 591:1 598:1 748:1 1222:1 1224:3 1226:1 1237:1 1238:1 1251:2 1264:3
-1 222:1 1224:2 1235:1 1264:2
-1 174:2 226:1 418:1 524:1 598:1 810:1 868:1 1216:1 1223:1 1224:3 1226:1 1234:1 1236:1 1238:1 1251:2 1264:3
-1 157:1 226:1 418:1 598:1 895:1 1224:3 1226:1 1236:1 1238:1 1243:1 1264:3
-1 454:1 1219:1 1224:1 1264:1
-1 454:1 1219:1 1224:1 1264:1
-1 157:1 226:1 234:1 418:1 422:1 499:1 524:1 574:1 591:1 598:1 625:1 748:1 868:1 881:1 895:1 958:1 1114:1 1166:1 1182:1 1206:1 1208:1 1216:1 1222:1 1223:1 1224:1 1226:1 1229:1 1233:1 1236:1 1237:1 1238:1 1239:1 1243:1 1245:1 1248:1 1249:1 1253:1 1260:1 1261:1 1264:1 1266:1025
-1 157:1 226:1 242:1 253:1 355:1 418:3 523:1 524:1 591:1 598:6 605:1 625:3 690:1 748:1 868:1 904:1 1067:1 1182:2 1206:1 1209:1 1216:1 1222:1 1223:1 1224:4 1226:6 1228:1 1236:1 1237:1 1238:3 1243:1 1245:3 1249:2 1260:1 1264:4 1266:1
-1 157:1 226:1 418:1 422:1 524:1 598:1 625:1 659:1 748:1 868:1 1182:1 1206:1 1216:1 1223:1 1224:5 1226:1 1236:1 1237:1 1238:1 1243:1 1245:1 1249:1 1260:1 1264:5
-1 157:1 174:2 226:1 418:1 598:1 868:1 1182:1 1223:1 1224:3 1226:1 1236:1 1238:1 1243:1 1249:1 1251:2 1264:3
-1 174:1 226:1 418:1 598:1 625:1 748:1 1224:2 1226:1 1236:1 1237:1 1238:1 1245:1 1251:1 1264:2
-1 130:1 179:1 192:1 260:1 352:1 398:1 552:1 598:1 609:1 698:1 870:1 893:1 1190:1 1224:2 1226:1 1264:2
-1 454:1 1219:1 1224:1 1264:1
-1 156:1 157:1 174:1 226:2 236:1 242:2 355:1 418:3 502:1 523:1 524:2 591:1 598:6 605:1 625:3 690:1 748:1 1067:1 1182:2 1206:1 1209:1 1216:2 1222:1 1224:4 1226:6 1228:1 1236:2 1237:1 1238:3 1241:1 1243:1 1245:3 1249:2 1251:1 1260:1 1264:4 1266:1
-1 130:1 179:1 192:1 260:1 352:1 398:1 552:1 598:1 609:1 698:1 893:1 1190:1 1224:1 1226:1 1264:1
-1 266:1 371:1 418:1 598:1 1224:1 1226:1 1238:1 1264:1
-1 157:1 226:1 418:1 524:1 598:1 748:1 1182:1 1206:1 1216:1 1224:3 1226:1 1236:1 1237:1 1238:1 1243:1 1249:1 1260:1 1264:3
-1 174:2 418:1 598:1 1182:1 1224:3 1226:1 1238:1 1249:1 1251:2 1264:3
-1 157:1 226:1 290:1 418:1 477:1 524:1 591:1 598:1 748:1 868:1 1114:1 1166:1 1182:1 1199:1 1211:1 1216:1 1222:1 1223:1 1224:2 1226:1 1233:1 1236:1 1237:1 1238:1 1243:1 1249:1 1257:1 1264:2
-1 157:1 226:1 290:1 418:1 524:1 591:1 598:1 625:1 748:1 868:1 1114:1 1166:1 1182:1 1216:1 1222:1 1223:1 1224:4 1226:1 1233:1 1236:1 1237:1 1238:1 1243:1 1245:1 1249:1 1264:4
-1 157:1 226:1 290:1 418:1 477:1 524:1 591:1 598:1 748:1 868:1 1114:1 1166:1 1182:1 1199:1 1211:1 1216:1 1222:1 1223:1 1224:2 1226:1 1233:1 1236:1 1237:1 1238:1 1243:1 1249:1 1257:1 1264:2
-1 157:1 226:1 290:1 418:1 477:1 524:1 591:1 598:1 748:1 868:1 914:1 1114:1 1166:1 1182:1 1199:1 1211:1 1216:1 1222:1 1223:1 1224:4 1226:1 1233:1 1236:1 1237:1 1238:1 1243:1 1249:1 1257:1 1264:4
-1 222:1 1224:3 1235:1 1264:3
-1 157:1 226:1 418:1 524:1 543:1 591:1 598:1 625:1 659:1 748:1 868:1 1166:1 1182:1 1206:1 1208:1 1216:1 1222:1 1223:1 1224:2 1226:1 1227:1 1233:1 1236:1 1237:1 1238:1 1243:1 1245:1 1249:1 1260:1 1261:1 1264:2
-1 222:1 1224:3 1235:1 1264:3
-1 174:1 226:1 236:1 260:1 290:1 418:1 524:1 591:1 598:1 856:1 868:1 1182:1 1216:1 1220:1 1222:1 1223:1 1224:2 1226:1 1236:1 1238:1 1241:1 1249:1 1251:1 1264:2 1266:202
-1 157:1 226:1 418:1 524:1 598:1 748:1 1182:1 1206:1 1216:1 1224:3 1226:1 1236:1 1237:1 1238:1 1243:1 1249:1 1260:1 1264:3
-1 418:1 552:1 598:1 625:1 1224:4 1226:1 1238:1 1245:1 1264:4
-1 157:1 226:1 418:2 524:1 598:5 625:2 868:1 1182:2 1188:1 1206:1 1216:1 1223:1 1224:7 1226:5 1236:1 1238:2 1243:1 1245:2 1249:2 1260:1 1264:7
-1 222:1 1224:3 1235:1 1264:3
-1 222:1 1224:2 1235:1 1264:2
-1 226:1 371:1 418:1 598:1 729:1 1074:1 1182:1 1224:1 1226:1 1236:1 1238:1 1249:1 1264:1
-1 174:1 598:1 820:1 1224:7 1226:1 1251:1 1264:7
-1 174:2 418:1 591:1 598:1 791:1 1218:1 1222:1 1224:3 1226:1 1238:1 1251:2 1264:3
-1 157:1 226:1 418:1 524:1 574:1 598:1 605:1 625:1 748:1 868:1 1182:1 1206:1 1216:1 1223:1 1224:1 1226:1 1228:1 1236:1 1237:1 1238:1 1243:1 1245:1 1248:1 1249:1 1260:1 1264:1
-1 174:2 226:1 236:1 418:1 524:1 591:1 598:1 748:1 1182:1 1208:1 1216:1 1222:1 1224:2 1226:1 1236:1 1237:1 1238:1 1241:1 1249:1 1251:2 1261:1 1264:2
-1 157:1 226:1 418:1 524:1 598:1 748:1 1182:1 1206:1 1216:1 1224:3 1226:1 1236:1 1237:1 1238:1 1243:1 1249:1 1260:1 1264:3
-1 157:1 226:1 339:1 367:1 369:1 371:1 418:1 524:1 598:1 625:1 681:1 708:1 748:1 868:1 875:1 1056:1 1074:1 1149:1 1182:1 1216:1 1223:1 1224:1 1226:1 1236:1 1237:1 1238:1 1243:1 1245:1 1249:1 1264:1 1266:1
-1 226:1 371:1 418:1 598:1 625:1 748:1 1182:1 1224:1 1226:1 1236:1 1237:1 1238:1 1245:1 1249:1 1264:1
-1 331:1 371:1 598:1 705:1 1182:1 1224:2 1226:1 1249:1 1259:1 1264:2
-1 371:1 598:1 681:1 791:1 810:1 858:1 1182:1 1218:1 1221:1 1224:3 1226:1 1234:1 1249:1 1264:3
-1 157:1 210:1 226:1 339:1 367:1 369:1 371:1 418:1 524:1 543:1 562:1 574:1 598:1 605:1 625:1 681:1 708:1 748:1 755:1 868:1 875:1 1056:1 1074:1 1182:1 1216:1 1223:1 1224:2 1226:1 1227:1 1228:1 1236:1 1237:1 1238:1 1243:1 1245:1 1248:1 1249:1 1264:2
-1 157:1 226:1 339:1 367:1 369:1 371:1 418:1 524:1 598:1 625:1 681:1 708:1 748:1 875:1 1056:1 1074:1 1216:1 1224:2 1226:1 1236:1 1237:1 1238:1 1243:1 1245:1 1264:2
-1 226:1 371:1 418:1 448:1 524:1 591:1 598:1 625:1 705:1 748:1 791:1 1152:1 1182:1 1216:1 1218:1 1222:1 1224:1 1225:1 1226:1 1236:1 1237:1 1238:1 1245:1 1249:1 1259:1 1264:1 1266:30
-1 371:1 418:1 598:1 625:1 748:1 1074:1 1182:1 1224:1 1226:1 1237:1 1238:1 1245:1 1249:1 1264:1
-1 157:1 226:1 371:1 418:1 524:1 574:1 598:1 605:1 625:1 748:1 1074:1 1182:1 1216:1 1224:1 1226:1 1228:1 1236:1 1237:1 1238:1 1243:1 1245:1 1248:1 1249:1 1264:1
-1 226:1 367:1 371:1 418:1 524:1 543:1 574:1 598:1 605:1 625:1 681:1 708:1 748:1 804:1 875:1 1056:1 1074:1 1182:1 1216:1 1224:1 1226:1 1227:1 1228:1 1236:1 1237:1 1238:1 1245:1 1248:1 1249:1 1264:1 1266:11
-1 226:1 236:1 371:1 418:1 598:1 625:1 705:1 748:1 791:1 1182:1 1218:1 1224:1 1226:1 1236:1 1237:1 1238:1 1241:1 1245:1 1249:1 1259:1 1264:1
-1 222:1 1224:4 1235:1 1264:4
-1 157:1 226:1 418:1 448:1 524:1 574:1 598:1 605:1 625:1 748:1 1182:1 1208:1 1216:1 1224:1 1226:1 1228:1 1236:1 1237:1 1238:1 1243:1 1245:1 1248:1 1249:1 1261:1 1264:1
-1 222:1 1224:2 1235:1 1264:2
-1 454:1 1219:1 1224:1 1264:1
-1 157:1 226:1 343:1 418:1 524:1 574:1 591:1 598:1 625:1 868:1 1182:1 1216:1 1222:1 1223:1 1224:6 1226:1 1236:1 1238:1 1243:1 1245:1 1248:1 1249:1 1264:6
-1 418:1 524:1 598:1 868:1 1182:1 1206:1 1216:1 1223:1 1224:1 1226:1 1238:1 1249:1 1260:1 1264:1
-1 174:1 226:1 598:1 902:1 914:1 1013:1 1182:1 1194:1 1224:2 1226:1 1236:1 1249:1 1251:1 1264:2
-1 157:1 260:2 418:2 524:1 591:1 598:4 625:2 868:1 1182:2 1190:1 1216:1 1222:1 1223:1 1224:6 1226:4 1238:2 1243:1 1245:2 1249:2 1264:6
-1 157:1 226:1 418:1 524:1 598:1 748:1 1182:1 1206:1 1216:1 1224:3 1226:1 1236:1 1237:1 1238:1 1243:1 1249:1 1260:1 1264:3
-1 157:1 418:2 598:2 625:1 1182:2 1224:6 1226:2 1238:2 1243:1 1245:1 1249:2 1264:6
-1 236:1 418:1 542:1 598:1 748:1 1182:1 1224:3 1226:1 1237:1 1238:1 1241:1 1249:1 1264:3
-1 236:1 418:1 542:1 598:1 748:1 1182:1 1224:3 1226:1 1237:1 1238:1 1241:1 1249:1 1264:3
-1 130:1 192:1 260:1 352:1 398:1 552:1 598:1 609:1 893:1 1190:1 1224:2 1226:1 1264:2
-1 278:1 453:1 581:1 594:1 598:1 621:1 1224:1 1226:1 1264:1
-1 346:1 418:1 453:1 591:1 598:1 710:1 748:1 808:1 1008:1 1087:1 1111:1 1222:1 1224:2 1226:1 1237:1 1238:1 1264:2
-1 222:1 1224:2 1235:1 1264:2
-1 481:1 598:1 625:1 748:1 1224:2 1226:1 1237:1 1245:1 1264:2
-1 226:1 418:1 574:1 598:1 625:1 748:1 1182:1 1224:1 1226:1 1236:1 1237:1 1238:1 1245:1 1248:1 1249:1 1264:1
-1 226:1 574:1 598:1 810:1 858:1 1152:1 1182:1 1206:1 1221:1 1224:1 1225:1 1226:1 1234:1 1236:1 1248:1 1249:1 1260:1 1264:1
-1 174:1 226:1 418:1 598:1 1224:2 1226:1 1236:1 1238:1 1251:1 1264:2
-1 157:1 226:1 418:2 524:1 598:1 625:3 748:1 868:1 1182:2 1206:1 1216:1 1223:1 1224:12 1226:1 1236:1 1237:1 1238:2 1243:1 1245:3 1249:2 1260:1 1264:12
-1 418:1 598:1 1224:1 1226:1 1238:1 1264:1
-1 123:1 153:1 174:1 198:1 243:1 467:1 481:1 598:1 625:1 657:1 678:1 718:1 1115:1 1182:1 1224:1 1226:1 1245:1 1249:1 1251:1 1264:1
-1 134:1 139:1 145:1 153:1 174:1 193:1 209:1 243:1 279:1 344:1 345:1 361:1 377:1 411:1 460:1 465:1 467:1 481:1 544:1 557:1 592:1 620:1 625:1 657:1 673:1 678:1 684:1 718:1 738:1 774:1 775:1 794:1 798:1 916:1 973:1 976:1 1004:1 1084:1 1103:1 1197:1 1224:1 1230:1 1245:1 1251:1 1264:1
-1 222:1 226:1 418:1 524:1 574:1 598:1 621:1 625:1 671:1 748:1 1182:1 1216:1 1224:1 1226:1 1235:1 1236:1 1237:1 1238:1 1245:1 1248:1 1249:1 1264:1
-1 157:1 226:2 343:1 418:2 524:1 591:1 598:4 625:3 748:1 868:1 1166:1 1182:2 1206:1 1216:1 1222:1 1223:1 1224:6 1226:4 1233:1 1236:2 1237:1 1238:2 1243:1 1245:3 1249:2 1260:1 1264:6
-1 236:1 418:1 552:1 591:1 598:1 621:1 625:1 748:1 897:1 1222:1 1224:1 1226:1 1237:1 1238:1 1241:1 1245:1 1264:1 1266:75
-1 591:1 598:1 1051:1 1222:1 1224:2 1226:1 1264:2
-1 418:1 524:1 598:1 892:1 1216:1 1224:1 1226:1 1238:1 1264:1
-1 118:1 153:1 174:1 193:1 217:1 235:1 279:1 344:1 377:1 411:1 460:1 467:1 475:1 520:1 540:1 544:1 578:1 657:1 673:1 678:1 684:1 707:1 730:1 774:1 775:1 791:1 794:1 826:1 859:1 963:1 973:1 1052:1 1084:1 1086:1 1106:1 1197:1 1214:1 1218:1 1224:2 1231:1 1251:1 1264:2
-1 222:1 1224:3 1235:1 1264:3
-1 418:1 598:1 1224:1 1226:1 1238:1 1264:1
-1 157:1 226:1 418:1 524:1 598:1 748:1 1182:1 1206:1 1216:1 1224:2 1226:1 1236:1 1237:1 1238:1 1243:1 1249:1 1260:1 1264:2
-1 174:1 226:1 418:1 524:1 574:1 598:1 1182:1 1216:1 1224:3 1226:1 1236:1 1238:1 1248:1 1249:1 1251:1 1264:3
-1 139:1 157:1 174:1 226:1 418:1 574:1 598:1 625:1 748:1 1182:1 1224:2 1226:1 1230:1 1236:1 1237:1 1238:1 1243:1 1245:1 1248:1 1249:1 1251:1 1264:2
-1 222:1 1224:3 1235:1 1264:3
-1 157:1 226:1 418:2 524:1 598:4 625:2 1182:2 1206:1 1216:1 1224:6 1226:4 1236:1 1238:2 1243:1 1245:2 1249:2 1260:1 1264:6
-1 157:1 418:2 524:1 598:3 625:1 1182:2 1216:1 1224:6 1226:3 1238:2 1243:1 1245:1 1249:2 1264:6
-1 139:1 174:1 418:1 574:1 598:1 791:1 927:1 958:1 963:1 1157:1 1206:1 1218:1 1224:2 1226:1 1230:1 1238:1 1239:1 1248:1 1251:1 1260:1 1264:2
-1 157:1 418:2 598:2 625:1 1182:2 1224:8 1226:2 1238:2 1243:1 1245:1 1249:2 1264:8
-1 174:1 226:1 418:1 598:1 1182:1 1224:4 1226:1 1236:1 1238:1 1249:1 1251:1 1264:4
-1 226:1 418:1 598:1 1224:2 1226:1 1236:1 1238:1 1264:2
-1 153:1 174:1 377:1 467:1 598:1 657:1 673:1 678:1 718:1 1224:2 1226:1 1251:1 1264:2
-1 157:1 226:1 236:1 418:1 524:1 598:1 748:1 868:1 895:1 1182:1 1216:1 1223:1 1224:2 1226:1 1236:1 1237:1 1238:1 1241:1 1243:1 1249:1 1264:2
-1 139:1 157:1 174:1 226:1 418:1 598:1 1182:1 1224:2 1226:1 1230:1 1236:1 1238:1 1243:1 1249:1 1251:1 1264:2
-1 447:1 598:1 1224:3 1226:1 1264:3
-1 174:2 598:1 1224:2 1226:1 1251:2 1264:2
-1 174:2 598:1 1224:2 1226:1 1251:2 1264:2
-1 157:1 418:2 598:2 625:1 1182:2 1224:7 1226:2 1238:2 1243:1 1245:1 1249:2 1264:7
-1 174:2 598:1 1224:2 1226:1 1251:2 1264:2
-1 174:2 598:1 1224:2 1226:1 1251:2 1264:2
-1 174:2 260:1 519:1 598:1 758:1 874:1 1224:6 1226:1 1251:2 1264:6
-1 174:1 290:1 598:1 1224:3 1226:1 1251:1 1264:3
-1 226:1 418:2 598:6 625:3 748:1 1182:1 1224:5 1226:6 1236:1 1237:1 1238:2 1245:3 1249:1 1264:5
-1 174:1 226:1 260:1 418:1 524:1 591:1 598:1 748:1 856:1 1182:1 1190:1 1216:1 1220:1 1222:1 1224:2 1226:1 1236:1 1237:1 1238:1 1249:1 1251:1 1264:2
-1 447:1 598:1 1224:3 1226:1 1264:3
-1 139:1 174:1 418:1 448:1 598:1 625:1 715:1 738:1 748:1 1182:1 1224:1 1226:1 1230:1 1237:1 1238:1 1245:1 1249:1 1251:1 1264:1
-1 153:1 174:1 204:1 279:1 344:1 377:1 418:1 467:1 598:1 625:1 657:1 673:1 678:1 684:1 718:1 748:1 775:1 973:1 1197:1 1224:1 1226:1 1237:1 1238:1 1245:1 1251:1 1264:1
-1 139:1 144:1 174:1 214:1 217:1 376:1 418:1 448:1 481:1 557:1 598:1 625:1 693:1 738:1 748:1 916:1 920:1 1182:1 1224:1 1226:1 1230:1 1231:1 1237:1 1238:1 1245:1 1249:1 1251:1 1258:1 1264:1 1266:18
-1 330:1 1224:1 1264:1
-1 598:1 1224:1 1226:1 1264:1
-1 174:1 418:1 598:1 997:1 1224:2 1226:1 1238:1 1251:1 1264:2
-1 157:1 418:1 524:1 598:1 1182:1 1216:1 1224:4 1226:1 1238:1 1243:1 1249:1 1264:4
-1 157:1 226:1 418:1 524:1 598:1 748:1 1182:1 1206:1 1216:1 1224:2 1226:1 1236:1 1237:1 1238:1 1243:1 1249:1 1260:1 1264:2
-1 153:1 174:1 256:1 362:1 377:1 467:1 657:1 673:1 678:1 1224:2 1251:1 1264:2
-1 226:1 418:1 496:1 573:1 591:1 598:1 752:1 791:1 1006:1 1199:1 1218:1 1222:1 1224:1 1226:1 1236:1 1238:1 1257:1 1264:1
-1 157:1 226:1 418:1 524:1 598:1 748:1 1182:1 1206:1 1216:1 1224:3 1226:1 1236:1 1237:1 1238:1 1243:1 1249:1 1260:1 1264:3
-1 157:1 418:2 598:2 625:1 1182:2 1224:6 1226:2 1238:2 1243:1 1245:1 1249:2 1264:6
-1 157:1 236:1 418:2 524:1 598:4 625:2 868:1 1182:2 1216:1 1223:1 1224:6 1226:4 1238:2 1241:1 1243:1 1245:2 1249:2 1264:6
-1 226:1 418:1 524:1 598:1 748:1 868:1 1182:1 1206:1 1216:1 1223:1 1224:2 1226:1 1236:1 1237:1 1238:1 1249:1 1260:1 1264:2
-1 222:1 1224:3 1235:1 1264:3
-1 139:1 153:1 169:1 174:1 193:1 279:1 344:1 377:1 460:1 467:1 657:1 673:1 678:1 684:1 718:1 774:1 775:1 794:1 887:1 1052:1 1099:1 1103:1 1197:1 1224:2 1230:1 1251:1 1264:2
-1 134:1 139:1 153:1 158:1 174:1 186:1 193:1 201:1 214:1 217:1 235:1 256:1 276:1 279:1 331:1 344:1 361:1 377:1 460:1 467:1 493:1 540:1 544:1 578:1 592:1 614:1 626:1 657:1 673:1 678:1 679:1 684:1 699:1 707:1 738:1 774:1 775:1 794:1 826:1 831:1 949:1 973:1 976:1 1002:1 1004:1 1028:1 1082:1 1086:1 1099:1 1197:1 1224:4 1230:1 1231:1 1251:1 1264:4
-1 139:1 153:1 158:1 174:1 279:1 361:1 377:1 460:1 467:1 493:1 544:1 626:1 657:1 673:1 678:1 679:1 684:1 733:1 774:1 794:1 831:1 976:1 1004:1 1082:1 1099:1 1197:1 1224:4 1230:1 1251:1 1264:4
-1 139:1 153:1 174:1 214:1 235:1 279:1 293:1 344:1 361:1 377:1 439:1 460:1 465:1 467:1 544:1 578:1 614:1 625:1 657:1 673:1 678:1 684:1 718:1 774:1 794:1 973:1 1099:1 1167:1 1224:4 1230:1 1245:1 1251:1 1264:4
-1 157:1 226:1 418:1 524:1 591:1 598:1 625:1 868:1 1182:1 1206:1 1216:1 1222:1 1223:1 1224:5 1226:1 1236:1 1238:1 1243:1 1245:1 1249:1 1260:1 1264:5
-1 139:1 153:1 169:1 174:1 193:1 217:1 235:1 279:1 344:1 361:1 377:1 460:1 467:1 540:1 544:1 578:1 625:1 657:1 673:1 678:1 684:1 718:1 738:1 774:1 775:1 794:1 834:1 973:1 1052:1 1086:1 1103:1 1197:1 1224:1 1230:1 1231:1 1245:1 1251:1 1264:1
-1 157:1 174:1 365:1 418:1 524:1 598:1 1182:1 1206:1 1216:1 1224:2 1226:1 1238:1 1243:1 1244:1 1249:1 1251:1 1260:1 1264:2
-1 123:1 139:1 157:1 174:1 226:1 418:1 524:1 543:1 574:1 591:1 598:1 605:1 625:1 705:1 715:1 748:1 773:1 791:1 868:1 1182:1 1216:1 1218:1 1222:1 1223:1 1224:1 1226:1 1227:1 1228:1 1230:1 1236:1 1237:1 1238:1 1243:1 1245:1 1248:1 1249:1 1251:1 1259:1 1264:1
-1 174:1 236:1 418:1 524:1 598:1 791:1 1182:1 1216:1 1218:1 1224:2 1226:1 1238:1 1241:1 1249:1 1251:1 1264:2
-1 139:1 174:1 418:1 574:1 598:1 791:1 1206:1 1218:1 1224:2 1226:1 1230:1 1238:1 1248:1 1251:1 1260:1 1264:2
-1 598:1 1224:1 1226:1 1264:1
-1 139:1 174:1 364:1 418:1 574:1 598:1 620:1 791:1 927:1 963:1 1182:1 1206:1 1218:1 1224:1 1226:1 1230:1 1238:1 1248:1 1249:1 1251:1 1260:1 1264:1
-1 418:1 524:1 598:1 791:1 868:1 1182:1 1206:1 1216:1 1218:1 1223:1 1224:1 1226:1 1238:1 1249:1 1260:1 1264:1
-1 174:1 226:1 418:1 524:1 574:1 598:1 625:1 748:1 1025:1 1182:1 1216:1 1224:1 1226:1 1236:1 1237:1 1238:1 1245:1 1248:1 1249:1 1251:1 1264:1
-1 222:1 1224:5 1235:1 1264:5
-1 222:1 1224:3 1235:1 1264:3
-1 139:1 145:1 153:1 169:1 174:1 235:1 259:1 263:1 279:1 344:1 361:1 377:1 456:1 460:1 461:1 465:1 467:1 482:1 504:1 513:1 520:1 540:1 544:1 551:1 618:1 625:1 626:1 657:1 673:1 678:1 684:1 699:1 705:1 718:1 736:1 738:1 774:1 775:1 794:1 798:1 799:1 818:1 959:1 973:1 976:1 1086:1 1099:1 1184:1 1197:1 1214:1 1224:2 1230:1 1245:1 1251:1 1259:1 1264:2
-1 139:1 145:1 153:1 174:1 217:1 235:1 256:1 279:1 344:1 361:1 365:1 377:1 411:1 460:1 467:1 526:1 544:1 614:1 657:1 673:1 678:1 684:1 738:1 774:1 775:1 794:1 834:1 973:1 1197:1 1224:2 1230:1 1231:1 1244:1 1251:1 1264:2
-1 260:1 418:1 524:1 598:1 1134:1 1190:1 1216:1 1224:3 1226:1 1238:1 1264:3
-1 157:1 418:2 598:4 625:1 1182:3 1224:5 1226:4 1238:2 1243:1 1245:1 1249:3 1264:5
-1 174:1 418:1 598:1 1224:5 1226:1 1238:1 1251:1 1264:5
-1 157:1 174:1 226:1 418:1 524:1 591:1 598:1 625:1 748:1 868:1 1182:1 1216:1 1222:1 1223:1 1224:2 1226:1 1236:1 1237:1 1238:1 1243:1 1245:1 1249:1 1251:1 1264:2
-1 222:1 1224:3 1235:1 1264:3
-1 153:1 174:1 279:1 377:1 425:1 461:1 467:1 544:1 551:1 657:1 673:1 678:1 684:1 718:1 775:1 798:1 959:1 1099:1 1224:2 1251:1 1264:2
-1 157:1 226:1 418:1 524:1 598:1 748:1 1182:1 1206:1 1216:1 1224:3 1226:1 1236:1 1237:1 1238:1 1243:1 1249:1 1260:1 1264:3
-1 157:1 226:1 418:1 524:1 598:1 748:1 1182:1 1206:1 1216:1 1224:2 1226:1 1236:1 1237:1 1238:1 1243:1 1249:1 1260:1 1264:2
-1 139:1 145:1 153:1 169:1 174:1 235:1 256:1 279:1 344:1 377:1 420:1 460:1 465:1 467:1 544:1 578:1 625:1 657:1 673:1 678:1 684:1 699:1 707:1 718:1 738:1 774:1 775:1 794:1 916:1 949:1 973:1 976:1 1002:1 1084:1 1197:1 1224:2 1230:1 1245:1 1251:1 1264:2
-1 157:1 226:1 418:1 524:1 598:1 748:1 1182:1 1206:1 1216:1 1224:3 1226:1 1236:1 1237:1 1238:1 1243:1 1249:1 1260:1 1264:3
-1 157:1 226:1 418:1 524:1 574:1 598:1 625:1 748:1 868:1 891:1 1182:1 1216:1 1223:1 1224:2 1226:1 1236:1 1237:1 1238:1 1243:1 1245:1 1248:1 1249:1 1264:2
-1 174:1 418:1 598:1 1224:5 1226:1 1238:1 1251:1 1264:5
-1 222:1 1224:4 1235:1 1264:4
-1 139:1 174:1 226:1 365:1 418:1 574:1 598:1 738:1 748:1 810:1 1182:1 1206:1 1224:2 1226:1 1230:1 1234:1 1236:1 1237:1 1238:1 1244:1 1248:1 1249:1 1251:1 1260:1 1264:2
-1 139:1 157:1 174:1 226:1 247:1 331:1 418:1 499:1 574:1 598:1 625:1 705:1 748:1 773:1 810:1 858:1 881:1 920:1 1085:1 1182:1 1206:1 1221:1 1224:1 1226:1 1229:1 1230:1 1234:1 1236:1 1237:1 1238:1 1243:1 1245:1 1248:1 1249:1 1251:1 1253:1 1258:1 1259:1 1260:1 1264:1
-1 157:1 174:1 418:1 524:1 598:1 1182:1 1206:1 1216:1 1224:2 1226:1 1238:1 1243:1 1249:1 1251:1 1260:1 1264:2
-1 139:1 153:1 174:1 377:1 418:1 467:1 598:1 625:1 657:1 673:1 678:1 691:1 718:1 748:1 959:1 1130:1 1224:2 1226:1 1230:1 1237:1 1238:1 1245:1 1251:1 1264:2
-1 222:1 1224:4 1235:1 1264:4
-1 222:1 1224:2 1235:1 1264:2
-1 222:1 1224:3 1235:1 1264:3
-1 222:1 1224:2 1235:1 1264:2
-1 157:1 226:1 343:1 418:1 524:1 574:1 598:1 625:1 748:1 868:1 891:1 1182:1 1216:1 1223:1 1224:2 1226:1 1236:1 1237:1 1238:1 1243:1 1245:1 1248:1 1249:1 1264:2
-1 153:1 169:1 174:1 377:1 461:1 467:1 657:1 673:1 678:1 959:1 976:1 1224:2 1251:1 1264:2
-1 153:1 174:1 279:1 377:1 467:1 544:1 657:1 673:1 678:1 684:1 718:1 775:1 1099:1 1130:1 1224:1 1251:1 1264:1
-1 174:1 418:1 598:1 1224:4 1226:1 1238:1 1251:1 1264:4
-1 222:1 1224:3 1235:1 1264:3
-1 157:1 226:1 418:1 524:1 598:1 748:1 1182:1 1206:1 1216:1 1224:3 1226:1 1236:1 1237:1 1238:1 1243:1 1249:1 1260:1 1264:3
-1 222:1 1224:3 1235:1 1264:3
-1 174:1 598:1 625:1 748:1 1224:2 1226:1 1237:1 1245:1 1251:1 1264:2
-1 157:1 174:1 226:1 418:1 524:1 598:1 748:1 1182:1 1216:1 1224:2 1226:1 1236:1 1237:1 1238:1 1243:1 1249:1 1251:1 1264:2
-1 157:1 174:1 418:1 524:1 598:1 748:1 1182:1 1216:1 1224:2 1226:1 1237:1 1238:1 1243:1 1249:1 1251:1 1264:2
-1 157:1 226:1 418:1 524:1 598:1 748:1 895:1 1182:1 1216:1 1224:2 1226:1 1236:1 1237:1 1238:1 1243:1 1249:1 1264:2
-1 157:1 418:1 524:1 598:1 621:1 748:1 1182:1 1216:1 1224:2 1226:1 1237:1 1238:1 1243:1 1249:1 1264:2
-1 157:1 226:1 418:1 524:1 598:1 748:1 1182:1 1216:1 1224:1 1226:1 1236:1 1237:1 1238:1 1243:1 1249:1 1264:1
-1 157:1 226:1 236:1 418:1 524:1 591:1 598:1 625:1 748:1 868:1 958:1 1182:1 1206:1 1216:1 1222:1 1223:1 1224:4 1226:1 1236:1 1237:1 1238:1 1239:1 1241:1 1243:1 1245:1 1249:1 1260:1 1264:4
-1 174:1 226:1 418:1 598:1 625:1 748:1 1224:2 1226:1 1236:1 1237:1 1238:1 1245:1 1251:1 1264:2
-1 226:1 418:1 524:1 574:1 598:1 625:1 748:1 791:1 1182:1 1216:1 1218:1 1224:2 1226:1 1236:1 1237:1 1238:1 1245:1 1248:1 1249:1 1264:2
-1 1224:2 1264:2
-1 129:1 134:1 139:1 153:1 169:1 174:1 193:1 217:1 235:1 258:1 279:1 328:1 344:1 361:1 377:1 437:1 460:1 465:1 467:1 475:1 544:1 559:1 592:1 618:1 626:1 657:1 673:1 678:1 679:1 684:1 707:1 719:1 733:1 738:1 764:1 774:1 775:1 794:1 826:1 834:1 859:1 877:1 949:1 961:1 973:1 975:1 1004:1 1065:1 1099:1 1103:1 1197:1 1224:1 1230:1 1231:1 1251:1 1264:1
-1 174:2 418:1 524:1 598:1 605:1 625:1 737:1 784:1 1013:1 1216:1 1224:2 1226:1 1228:1 1238:1 1245:1 1251:2 1264:2
-1 139:1 153:1 174:1 204:1 279:1 377:1 460:1 467:1 657:1 673:1 678:1 684:1 718:1 774:1 775:1 794:1 1052:1 1197:1 1224:3 1230:1 1251:1 1264:3
-1 157:1 226:1 343:1 418:1 524:1 574:1 591:1 598:1 605:1 625:1 748:1 791:1 868:1 891:1 1182:1 1188:1 1208:1 1216:1 1218:1 1222:1 1223:1 1224:1 1226:1 1228:1 1236:1 1237:1 1238:1 1243:1 1245:1 1248:1 1249:1 1261:1 1264:1
-1 454:1 1219:1 1224:1 1264:1
-1 222:1 1224:4 1235:1 1264:4
-1 157:1 226:1 418:1 524:1 543:1 598:1 868:1 1182:1 1216:1 1223:1 1224:1 1226:1 1227:1 1236:1 1238:1 1243:1 1249:1 1264:1
-1 157:1 226:2 418:2 524:1 598:4 625:2 748:1 868:1 1182:2 1206:1 1216:1 1223:1 1224:6 1226:4 1236:2 1237:1 1238:2 1243:1 1245:2 1249:2 1260:1 1264:6
-1 157:1 226:1 418:1 524:1 598:1 625:1 748:1 868:1 1182:1 1206:1 1216:1 1223:1 1224:5 1226:1 1236:1 1237:1 1238:1 1243:1 1245:1 1249:1 1260:1 1264:5
-1 157:1 226:1 418:1 524:1 543:1 574:1 598:1 625:1 748:1 868:1 1182:1 1216:1 1223:1 1224:2 1226:1 1227:1 1236:1 1237:1 1238:1 1243:1 1245:1 1248:1 1249:1 1264:2
-1 174:1 574:1 598:1 1224:2 1226:1 1248:1 1251:1 1264:2
-1 1224:2 1264:2
-1 145:1 154:1 169:1 174:1 235:1 279:1 305:1 328:1 377:1 467:1 471:1 629:1 673:1 684:1 711:1 774:1 794:1 913:1 982:1 1052:1 1197:1 1224:2 1251:1 1264:2 1266:2
-1 169:1 174:1 235:1 279:1 305:1 348:1 377:1 467:1 629:1 673:1 684:1 711:1 774:1 794:1 913:1 982:1 1052:1 1224:3 1251:1 1264:3
-1 139:1 174:1 226:1 392:1 418:1 448:1 524:1 531:1 574:1 591:1 598:1 605:1 625:1 738:1 748:1 833:1 1182:1 1206:1 1210:1 1216:1 1222:1 1224:2 1226:1 1228:1 1230:1 1236:1 1237:1 1238:1 1245:1 1248:1 1249:1 1251:1 1260:1 1264:2
-1 157:1 418:2 598:4 625:1 1182:3 1224:4 1226:4 1238:2 1243:1 1245:1 1249:3 1264:4
-1 454:1 1219:1 1224:1 1264:1
-1 222:1 1224:3 1235:1 1264:3
-1 157:1 226:1 418:1 524:1 598:1 748:1 1182:1 1206:1 1216:1 1224:3 1226:1 1236:1 1237:1 1238:1 1243:1 1249:1 1260:1 1264:3
-1 226:1 418:1 574:1 598:1 625:1 748:1 1182:1 1224:2 1226:1 1236:1 1237:1 1238:1 1245:1 1248:1 1249:1 1264:2
-1 153:1 174:1 226:1 377:1 418:1 467:1 598:1 657:1 673:1 678:1 1224:2 1226:1 1236:1 1238:1 1251:1 1264:2
-1 157:1 418:2 598:2 625:1 1182:2 1224:7 1226:2 1238:2 1243:1 1245:1 1249:2 1264:7
-1 371:1 598:1 1182:1 1224:2 1226:1 1249:1 1264:2 1266:3
-1 157:1 226:1 418:1 524:1 574:1 598:1 625:1 748:1 1216:1 1224:2 1226:1 1236:1 1237:1 1238:1 1243:1 1245:1 1248:1 1264:2
-1 174:2 226:1 418:1 524:1 598:1 868:1 1216:1 1223:1 1224:3 1226:1 1236:1 1238:1 1251:2 1264:3
-1 174:1 598:1 1096:1 1224:3 1226:1 1251:1 1264:3
-1 139:1 174:1 226:1 418:1 574:1 598:1 625:1 705:1 748:1 881:1 1049:1 1182:1 1224:2 1226:1 1229:1 1230:1 1236:1 1237:1 1238:1 1245:1 1248:1 1249:1 1251:1 1259:1 1264:2
-1 157:1 174:1 226:1 418:1 482:1 574:1 598:1 625:1 705:1 748:1 881:1 1182:1 1224:2 1226:1 1229:1 1236:1 1237:1 1238:1 1243:1 1245:1 1248:1 1249:1 1251:1 1259:1 1264:2
-1 139:1 153:1 169:1 174:1 279:1 344:1 377:1 460:1 465:1 467:1 544:1 657:1 673:1 678:1 684:1 764:1 794:1 973:1 1224:2 1230:1 1251:1 1264:2
-1 139:1 153:1 174:1 226:1 377:1 418:1 461:1 467:1 598:1 657:1 673:1 678:1 691:1 718:1 738:1 748:1 927:1 959:1 1182:1 1224:3 1226:1 1230:1 1236:1 1237:1 1238:1 1249:1 1251:1 1264:3
-1 134:1 139:1 153:1 169:1 174:1 204:1 235:1 279:1 344:1 377:1 411:1 460:1 467:1 540:1 544:1 657:1 673:1 678:1 684:1 718:1 774:1 775:1 794:1 973:1 1002:1 1052:1 1099:1 1103:1 1197:1 1224:2 1230:1 1251:1 1264:2 1266:191
-1 153:1 174:1 235:1 279:1 328:1 344:1 377:1 411:1 460:1 465:1 467:1 493:1 520:1 544:1 657:1 673:1 678:1 684:1 734:1 774:1 775:1 794:1 955:1 973:1 982:1 1002:1 1052:1 1099:1 1103:1 1197:1 1214:1 1224:1 1251:1 1264:1
-1 139:1 153:1 174:1 204:1 235:1 279:1 344:1 361:1 373:1 377:1 465:1 467:1 544:1 657:1 673:1 678:1 684:1 764:1 774:1 775:1 794:1 819:1 973:1 976:1 1197:1 1224:1 1230:1 1251:1 1264:1
-1 444:1 552:1 598:1 779:1 791:1 941:1 1120:1 1182:1 1218:1 1224:2 1226:1 1249:1 1264:2
-1 507:1 598:1 686:1 941:1 1182:1 1224:2 1226:1 1249:1 1264:2
-1 174:1 598:1 748:1 1224:2 1226:1 1237:1 1251:1 1264:2
-1 174:1 218:1 343:1 418:1 461:1 524:1 543:1 551:1 598:1 605:1 625:1 687:1 748:1 804:1 818:1 833:1 840:1 959:1 1182:1 1216:1 1224:3 1226:1 1227:1 1228:1 1237:1 1238:1 1245:1 1249:1 1251:1 1264:3
-1 139:1 174:1 226:1 235:1 236:1 418:1 505:1 520:1 524:1 574:1 598:1 625:1 748:1 858:1 920:1 1152:1 1182:1 1214:1 1216:1 1221:1 1224:1 1225:1 1226:1 1230:1 1236:1 1237:1 1238:1 1241:1 1245:1 1248:1 1249:1 1251:1 1258:1 1264:1
-1 174:1 598:1 1182:1 1224:3 1226:1 1249:1 1251:1 1264:3
-1 174:1 226:1 418:1 524:1 598:1 625:1 748:1 1182:1 1216:1 1224:1 1226:1 1236:1 1237:1 1238:1 1245:1 1249:1 1251:1 1264:1
-1 174:1 598:1 1224:3 1226:1 1251:1 1264:3
-1 174:1 418:1 524:1 574:1 598:1 605:1 625:1 748:1 1182:1 1216:1 1224:2 1226:1 1228:1 1237:1 1238:1 1245:1 1248:1 1249:1 1251:1 1264:2 1266:1
-1 157:1 418:2 598:2 625:1 1182:2 1224:6 1226:2 1238:2 1243:1 1245:1 1249:2 1264:6
-1 1224:1 1264:1
-1 139:1 144:1 157:1 174:1 226:1 418:1 499:1 505:1 524:1 574:1 591:1 598:1 625:1 738:1 748:1 773:1 868:1 1182:1 1216:1 1222:1 1223:1 1224:1 1226:1 1230:1 1236:1 1237:1 1238:1 1243:1 1245:1 1248:1 1249:1 1251:1 1253:1 1264:1
-1 222:1 1224:3 1235:1 1264:3
-1 174:1 221:1 226:1 598:1 625:1 718:1 1182:1 1198:1 1224:1 1226:1 1236:1 1245:1 1249:1 1251:1 1264:1
-1 157:1 418:2 524:1 598:5 625:2 1182:2 1206:1 1216:1 1224:6 1226:5 1238:2 1243:1 1245:2 1249:2 1260:1 1264:6
-1 418:1 419:1 440:1 598:1 668:1 762:1 777:1 791:1 810:1 1116:1 1182:1 1218:1 1224:1 1226:1 1234:1 1238:1 1249:1 1264:1
-1 118:1 139:1 153:1 216:1 226:1 271:1 377:1 461:1 467:1 551:1 574:1 598:1 617:1 657:1 673:1 678:1 718:1 741:1 774:1 775:1 834:1 849:1 858:1 959:1 971:1 973:1 976:1 990:1 1099:1 1182:1 1188:1 1221:1 1224:2 1226:1 1230:1 1236:1 1240:1 1248:1 1249:1 1262:1 1264:2
-1 139:1 153:1 193:1 216:1 235:1 271:1 279:1 293:1 344:1 377:1 460:1 461:1 467:1 540:1 544:1 626:1 657:1 673:1 678:1 684:1 718:1 741:1 774:1 775:1 794:1 959:1 973:1 976:1 990:1 1099:1 1197:1 1224:2 1230:1 1262:1 1264:2
-1 139:1 153:1 174:1 279:1 377:1 461:1 465:1 467:1 544:1 551:1 657:1 673:1 678:1 718:1 748:1 786:1 798:1 847:1 976:1 1224:1 1230:1 1237:1 1251:1 1264:1 1266:3
-1 174:1 226:1 418:1 448:1 574:1 598:1 625:1 748:1 1182:1 1224:2 1226:1 1236:1 1237:1 1238:1 1245:1 1248:1 1249:1 1251:1 1264:2
-1 174:1 365:1 418:1 598:1 1224:2 1226:1 1238:1 1244:1 1251:1 1264:2
-1 139:1 154:1 174:1 193:1 203:1 279:1 305:1 348:1 377:1 467:1 544:1 625:1 629:1 673:1 679:1 684:1 711:1 774:1 780:1 855:1 913:1 949:1 950:1 1099:1 1197:1 1224:1 1230:1 1245:1 1251:1 1264:1
-1 174:1 598:1 1096:1 1224:3 1226:1 1251:1 1264:3
-1 157:1 226:1 418:1 524:1 598:1 748:1 1182:1 1216:1 1224:2 1226:1 1236:1 1237:1 1238:1 1243:1 1249:1 1264:2
-1 236:1 598:1 1224:2 1226:1 1241:1 1264:2
-1 226:1 236:1 331:1 418:1 574:1 598:1 705:1 958:1 1182:1 1224:1 1226:1 1236:1 1238:1 1239:1 1241:1 1248:1 1249:1 1259:1 1264:1
-1 236:1 418:1 574:1 598:1 1182:1 1224:1 1226:1 1238:1 1241:1 1248:1 1249:1 1264:1
-1 157:1 226:1 418:1 524:1 574:1 598:1 625:1 748:1 1182:1 1216:1 1224:3 1226:1 1236:1 1237:1 1238:1 1243:1 1245:1 1248:1 1249:1 1264:3
-1 174:1 226:1 598:1 1224:2 1226:1 1236:1 1251:1 1264:2
-1 174:1 598:1 1224:3 1226:1 1251:1 1264:3
-1 222:1 1224:2 1235:1 1264:2
-1 153:1 174:1 226:1 377:1 461:1 467:1 574:1 598:1 657:1 673:1 678:1 718:1 786:1 959:1 1224:2 1226:1 1236:1 1248:1 1251:1 1264:2
-1 174:1 418:1 598:1 625:1 748:1 1182:1 1206:1 1224:1 1226:1 1237:1 1238:1 1245:1 1249:1 1251:1 1260:1 1264:1 1266:1
-1 169:1 174:1 235:1 305:1 348:1 377:1 467:1 471:1 673:1 684:1 711:1 794:1 913:1 950:1 1099:1 1224:2 1251:1 1264:2 1266:81
-1 134:1 139:1 153:1 174:1 203:1 279:1 377:1 460:1 465:1 467:1 544:1 598:1 657:1 673:1 678:1 774:1 794:1 949:1 976:1 1028:1 1224:3 1226:1 1230:1 1251:1 1264:3
-1 157:1 226:2 236:1 355:1 418:2 524:1 598:4 605:1 625:2 748:2 868:1 958:1 1182:2 1206:1 1208:1 1216:1 1223:1 1224:5 1226:4 1228:1 1236:2 1237:2 1238:2 1239:1 1241:1 1243:1 1245:2 1249:2 1260:1 1261:1 1264:5
-1 174:1 226:1 461:1 598:1 748:1 959:1 1182:1 1196:1 1224:2 1226:1 1236:1 1237:1 1249:1 1251:1 1264:2
-1 157:1 226:1 418:1 524:1 574:1 598:1 748:1 1216:1 1224:2 1226:1 1236:1 1237:1 1238:1 1243:1 1248:1 1264:2
-1 226:1 418:1 574:1 598:1 625:1 748:1 1182:1 1224:1 1226:1 1236:1 1237:1 1238:1 1245:1 1248:1 1249:1 1264:1
-1 174:2 236:1 598:1 1224:3 1226:1 1241:1 1251:2 1264:3
-1 153:1 174:1 279:1 296:1 377:1 467:1 626:1 657:1 673:1 678:1 684:1 718:1 1224:2 1251:1 1264:2
-1 153:1 169:1 174:1 377:1 467:1 657:1 673:1 678:1 684:1 718:1 774:1 1197:1 1224:3 1251:1 1264:3
-1 139:1 145:1 153:1 169:1 279:1 344:1 345:1 361:1 377:1 460:1 467:1 513:1 540:1 544:1 626:1 657:1 673:1 678:1 684:1 689:1 700:1 718:1 733:1 738:1 774:1 973:1 976:1 1102:1 1224:3 1230:1 1264:3 1266:1
-1 139:1 157:1 174:1 226:1 418:1 524:1 574:1 598:1 625:1 718:1 1152:1 1158:1 1182:1 1216:1 1224:2 1225:1 1226:1 1230:1 1236:1 1238:1 1243:1 1245:1 1248:1 1249:1 1251:1 1264:2
-1 139:1 153:1 169:1 174:1 180:1 235:1 279:1 344:1 361:1 362:1 377:1 425:1 460:1 467:1 493:1 544:1 551:1 626:1 657:1 673:1 678:1 684:1 707:1 774:1 775:1 793:1 794:1 798:1 818:1 837:1 929:1 973:1 976:1 1000:1 1004:1 1099:1 1154:1 1197:1 1224:1 1230:1 1251:1 1264:1
-1 157:1 418:2 598:4 625:1 1182:3 1224:5 1226:4 1238:2 1243:1 1245:1 1249:3 1264:5
-1 157:1 159:1 226:1 281:1 418:1 483:1 524:1 598:1 748:1 868:1 888:1 1113:1 1182:1 1216:1 1223:1 1224:2 1226:1 1236:1 1237:1 1238:1 1243:1 1249:1 1264:2
-1 157:1 418:2 598:4 625:1 1182:3 1224:5 1226:4 1238:2 1243:1 1245:1 1249:3 1264:5
-1 157:1 418:2 598:2 625:1 1182:2 1224:7 1226:2 1238:2 1243:1 1245:1 1249:2 1264:7
-1 157:1 174:1 226:1 418:1 486:1 524:1 598:1 748:1 868:1 902:1 1182:1 1216:1 1223:1 1224:2 1226:1 1236:1 1237:1 1238:1 1243:1 1249:1 1251:1 1264:2
-1 174:1 226:1 418:1 598:1 881:1 1182:1 1224:1 1226:1 1229:1 1236:1 1238:1 1249:1 1251:1 1264:1
-1 157:1 226:1 236:1 418:1 524:1 598:1 625:1 748:1 791:1 868:1 1182:1 1206:1 1216:1 1218:1 1223:1 1224:5 1226:1 1236:1 1237:1 1238:1 1241:1 1243:1 1245:1 1249:1 1260:1 1264:5
-1 174:1 236:1 591:1 598:1 1222:1 1224:4 1226:1 1241:1 1251:1 1264:4
-1 174:2 598:1 1224:2 1226:1 1251:2 1264:2
-1 174:1 269:1 598:1 1224:5 1226:1 1251:1 1264:5
-1 157:1 174:1 226:1 418:3 524:1 598:5 625:3 748:1 868:1 920:1 1182:3 1206:1 1216:1 1223:1 1224:4 1226:5 1236:1 1237:1 1238:3 1243:1 1245:3 1249:3 1251:1 1258:1 1260:1 1264:4 1266:3
-1 139:1 153:1 174:1 279:1 344:1 377:1 467:1 544:1 657:1 673:1 678:1 684:1 738:1 775:1 973:1 1099:1 1224:1 1230:1 1251:1 1264:1
-1 222:1 1224:2 1235:1 1264:2
-1 134:1 139:1 153:1 174:1 377:1 460:1 467:1 479:1 490:1 657:1 673:1 678:1 684:1 774:1 1224:2 1230:1 1251:1 1264:2
-1 157:1 174:1 226:1 418:1 524:1 591:1 598:1 1182:1 1208:1 1216:1 1222:1 1224:4 1226:1 1236:1 1238:1 1243:1 1249:1 1251:1 1261:1 1264:4
-1 157:1 174:1 226:1 418:1 524:1 591:1 598:1 1182:1 1208:1 1216:1 1222:1 1224:4 1226:1 1236:1 1238:1 1243:1 1249:1 1251:1 1261:1 1264:4
-1 226:1 333:1 371:1 418:1 524:1 598:1 625:1 748:1 957:1 1182:1 1216:1 1224:2 1226:1 1236:1 1237:1 1238:1 1245:1 1249:1 1264:2 1266:4
-1 1224:2 1264:2
-1 598:1 1224:1 1226:1 1264:1
-1 174:2 236:1 598:1 1224:3 1226:1 1241:1 1251:2 1264:3
-1 174:2 236:1 598:1 1182:1 1224:3 1226:1 1241:1 1249:1 1251:2 1264:3 1266:256
-1 174:1 986:1 1224:2 1251:1 1264:2
-1 174:1 418:1 598:1 1182:1 1224:2 1226:1 1238:1 1249:1 1251:1 1264:2
-1 174:2 598:1 1182:1 1224:3 1226:1 1249:1 1251:2 1264:3
-1 222:1 1224:3 1235:1 1264:3
-1 222:1 1224:3 1235:1 1264:3
-1 222:1 1224:3 1235:1 1264:3
-1 157:1 226:1 418:1 524:1 598:1 748:1 1182:1 1206:1 1216:1 1224:2 1226:1 1236:1 1237:1 1238:1 1243:1 1249:1 1260:1 1264:2
-1 222:1 1224:2 1235:1 1264:2
-1 598:1 1182:1 1224:3 1226:1 1249:1 1264:3 1266:46
-1 139:1 157:1 174:1 226:1 249:1 295:1 364:1 418:1 516:1 524:1 591:1 598:1 605:1 748:1 963:1 1182:1 1216:1 1222:1 1224:1 1226:1 1228:1 1230:1 1236:1 1237:1 1238:1 1243:1 1249:1 1251:1 1254:1 1264:1
-1 157:1 418:2 598:2 625:1 1182:2 1224:7 1226:2 1238:2 1243:1 1245:1 1249:2 1264:7
-1 222:1 1224:3 1235:1 1264:3
-1 174:1 407:1 418:1 480:1 598:1 740:1 1182:1 1224:2 1226:1 1238:1 1249:1 1251:1 1264:2
-1 174:1 290:1 418:1 524:1 598:1 856:1 1114:1 1182:1 1216:1 1220:1 1224:2 1226:1 1238:1 1249:1 1251:1 1264:2
-1 153:1 169:1 174:1 293:1 344:1 377:1 411:1 418:1 467:1 544:1 579:1 625:1 657:1 673:1 678:1 718:1 775:1 1099:1 1103:1 1197:1 1224:1 1238:1 1245:1 1251:1 1264:1
-1 174:1 418:1 598:1 1224:6 1226:1 1238:1 1251:1 1264:6
-1 157:1 226:1 418:1 422:1 524:1 598:1 625:1 748:1 868:1 1182:1 1206:1 1216:1 1223:1 1224:5 1226:1 1236:1 1237:1 1238:1 1243:1 1245:1 1249:1 1260:1 1264:5
-1 454:1 1219:1 1224:1 1264:1
-1 418:1 598:1 1224:3 1226:1 1238:1 1264:3
-1 157:1 226:1 418:1 524:1 598:1 748:1 1182:1 1206:1 1216:1 1224:2 1226:1 1236:1 1237:1 1238:1 1243:1 1249:1 1260:1 1264:2
-1 371:1 598:1 1224:2 1226:1 1264:2
-1 157:1 418:2 598:2 625:1 1182:2 1224:7 1226:2 1238:2 1243:1 1245:1 1249:2 1264:7
-1 157:1 226:1 260:1 343:1 418:1 524:1 543:1 574:1 591:1 598:1 605:1 625:1 748:1 891:1 1182:1 1188:1 1208:1 1216:1 1222:1 1224:3 1226:1 1227:1 1228:1 1236:1 1237:1 1238:1 1243:1 1245:1 1248:1 1249:1 1261:1 1264:3
-1 454:1 1219:1 1224:1 1264:1
-1 157:1 226:1 418:1 524:1 598:1 748:1 1182:1 1206:1 1216:1 1224:2 1226:1 1236:1 1237:1 1238:1 1243:1 1249:1 1260:1 1264:2
-1 418:1 598:1 1182:1 1224:1 1226:1 1238:1 1249:1 1264:1
-1 222:1 1224:4 1235:1 1264:4
-1 454:1 1219:1 1224:1 1264:1
-1 157:1 418:2 598:2 625:1 1182:2 1224:7 1226:2 1238:2 1243:1 1245:1 1249:2 1264:7
-1 157:1 226:1 418:1 524:1 598:1 748:1 1182:1 1206:1 1216:1 1224:3 1226:1 1236:1 1237:1 1238:1 1243:1 1249:1 1260:1 1264:3
