1 154:1 1252:1 1282:4
1 318:1 324:1 336:1 423:1 440:1 450:1 455:1 621:1 697:1 715:1 900:1 914:1 927:1 957:1 1044:1 1080:1 1177:1 1215:1 1217:1 1218:1 1222:1 1234:1 1240:1 1246:1 1247:1 1248:1 1251:1 1258:1 1259:1 1260:1 1266:1 1274:1 1278:1 1280:1 1282:3
1 154:1 1252:1 1282:3
1 900:1 1080:1 1177:1 1246:1 1247:1 1278:1 1282:2
1 640:1 1261:1 1282:2
1 336:3 423:1 440:1 583:1 621:2 806:1 900:2 1080:4 1177:2 1234:3 1235:1 1246:2 1247:2 1248:2 1260:1 1272:1 1274:1 1278:4 1282:7
1 319:1 328:1 336:1 351:1 423:1 440:1 583:1 621:1 715:1 806:1 900:1 957:1 1044:1 1080:1 1134:1 1171:1 1176:1 1177:1 1217:1 1219:1 1227:1 1234:1 1235:1 1239:1 1243:1 1246:1 1247:1 1248:1 1251:1 1254:1 1258:1 1260:1 1267:1 1272:1 1274:1 1278:1 1282:2
1 154:1 1252:1 1282:6
1 336:3 423:1 440:1 621:1 806:1 900:2 1080:4 1177:2 1234:3 1235:1 1246:2 1247:2 1248:1 1260:1 1274:1 1278:4 1282:6
1 154:1 1252:1 1282:4
1 154:1 1252:1 1282:4
1 154:1 1252:1 1282:4
1 336:3 621:6 715:4 900:2 1080:6 1177:2 1234:3 1246:2 1247:2 1248:6 1258:4 1278:6 1282:7
1 154:1 1252:1 1282:5
1 154:1 1252:1 1282:4
1 423:1 440:1 621:1 715:1 806:1 900:1 1080:1 1177:1 1235:1 1246:1 1247:1 1248:1 1258:1 1260:1 1274:1 1278:1 1282:3
1 140:1 423:1 684:1 710:1 715:1 816:1 900:1 1080:1 1177:1 1229:1 1244:1 1245:1 1246:1 1247:1 1253:1 1258:1 1260:1 1278:1 1282:3
1 140:1 423:1 684:1 710:1 715:1 816:1 900:1 1080:1 1177:1 1229:1 1244:1 1245:1 1246:1 1247:1 1253:1 1258:1 1260:1 1278:1 1282:4
1 154:1 1252:1 1282:4
1 154:1 1252:1 1282:4
1 336:3 423:1 440:1 455:1 621:1 684:1 806:1 900:2 1044:1 1080:4 1177:3 1215:1 1229:1 1234:3 1235:1 1238:1 1246:3 1247:2 1248:1 1251:1 1260:1 1274:1 1278:4 1282:6
1 336:3 423:1 440:1 583:1 621:1 806:1 900:2 1080:4 1177:3 1234:3 1235:1 1238:1 1246:3 1247:2 1248:1 1260:1 1272:1 1274:1 1278:4 1282:6
1 336:2 423:1 440:1 583:1 621:1 806:1 900:2 1080:4 1177:2 1234:2 1235:1 1246:2 1247:2 1248:1 1260:1 1272:1 1274:1 1278:4 1282:7
1 140:1 423:1 684:1 710:1 715:1 816:1 900:1 1080:1 1177:1 1229:1 1244:1 1245:1 1246:1 1247:1 1253:1 1258:1 1260:1 1278:1 1282:4
1 154:1 1252:1 1282:4
1 640:1 1261:1 1282:3
1 140:1 423:1 684:1 710:1 715:1 816:1 900:1 1080:1 1177:1 1229:1 1244:1 1245:1 1246:1 1247:1 1253:1 1258:1 1260:1 1278:1 1282:5
1 336:1 423:1 684:1 715:1 900:1 1080:1 1176:1 1177:1 1229:1 1234:1 1243:1 1246:1 1247:1 1258:1 1260:1 1278:1 1282:2 1284:1
1 140:1 423:1 684:1 710:1 715:1 816:1 900:1 1080:1 1177:1 1229:1 1244:1 1245:1 1246:1 1247:1 1253:1 1258:1 1260:1 1278:1 1282:4
1 154:1 1252:1 1282:5
1 640:1 1261:1 1282:1
1 154:1 1252:1 1282:4
1 140:1 423:1 684:1 710:1 715:1 816:1 900:1 1080:1 1177:1 1229:1 1244:1 1245:1 1246:1 1247:1 1253:1 1258:1 1260:1 1278:1 1282:4
1 640:1 1261:1 1282:4
1 336:1 423:1 440:1 583:1 806:1 900:1 1080:1 1177:1 1234:1 1235:1 1246:1 1247:1 1260:1 1272:1 1274:1 1278:1 1282:5
1 154:1 1252:1 1282:4
1 914:1 1080:1 1259:1 1278:1 1282:1
1 154:1 1252:1 1282:3
1 336:3 423:1 440:1 621:1 806:1 900:2 1080:4 1177:3 1234:3 1235:1 1238:1 1246:3 1247:2 1248:1 1260:1 1274:1 1278:4 1282:6
1 154:1 1252:1 1282:4
1 154:1 1252:1 1282:4
1 154:1 1252:1 1282:4
1 140:1 423:1 684:1 710:1 715:1 816:1 900:1 1080:1 1177:1 1229:1 1244:1 1245:1 1246:1 1247:1 1253:1 1258:1 1260:1 1278:1 1282:5
1 154:1 1252:1 1282:5
1 336:1 423:1 1080:1 1234:1 1260:1 1278:1 1282:315 1284:1
1 154:1 1252:1 1282:4
1 154:1 1252:1 1282:4
1 640:1 1261:1 1282:3
1 154:1 1252:1 1282:2
1 1282:2
1 154:1 1252:1 1282:3
1 140:1 423:1 684:1 710:1 715:1 816:1 900:1 1080:1 1177:1 1229:1 1244:1 1245:1 1246:1 1247:1 1253:1 1258:1 1260:1 1278:1 1282:5
1 154:1 1252:1 1282:3
1 423:1 440:1 621:1 715:1 900:1 1080:1 1177:1 1246:1 1247:1 1248:1 1258:1 1260:1 1274:1 1278:1 1282:4
1 332:1 393:1 402:1 423:1 621:1 684:1 775:1 1080:1 1229:1 1230:1 1231:1 1237:1 1248:1 1260:1 1265:1 1271:1 1278:1 1282:2
1 154:1 1252:1 1282:5
1 640:1 1261:1 1282:4
1 140:1 423:1 684:1 710:1 715:1 816:1 900:1 1080:1 1177:1 1229:1 1244:1 1245:1 1246:1 1247:1 1253:1 1258:1 1260:1 1278:1 1282:4
1 154:1 1252:1 1282:4
1 319:1 328:1 336:1 351:1 423:1 440:1 583:1 621:1 715:1 806:1 900:1 957:1 1044:1 1080:1 1134:1 1171:1 1176:1 1177:1 1217:1 1219:1 1227:1 1234:1 1235:1 1239:1 1243:1 1246:1 1247:1 1248:1 1251:1 1254:1 1258:1 1260:1 1267:1 1272:1 1274:1 1278:1 1282:2
1 423:1 440:1 621:1 715:1 900:1 1080:1 1177:1 1246:1 1247:1 1248:1 1258:1 1260:1 1274:1 1278:1 1282:3
1 336:1 423:1 440:1 806:1 900:1 1080:1 1177:1 1234:1 1235:1 1246:1 1247:1 1260:1 1274:1 1278:1 1282:6
1 154:1 1252:1 1282:3
1 640:1 1261:1 1282:1
1 423:1 440:1 621:1 715:1 900:1 1080:1 1177:1 1246:1 1247:1 1248:1 1258:1 1260:1 1274:1 1278:1 1282:4
1 914:1 1080:1 1259:1 1278:1 1282:2
1 154:1 1252:1 1282:3
1 640:1 1261:1 1282:4
1 154:1 1252:1 1282:4
1 154:1 1252:1 1282:4
1 336:1 423:1 621:1 715:1 743:1 900:1 1044:1 1080:1 1134:1 1177:1 1226:1 1234:1 1246:1 1247:1 1248:1 1251:1 1258:1 1260:1 1267:1 1278:1 1282:5
1 319:1 328:1 336:1 351:1 423:1 440:1 583:1 621:1 715:1 806:1 900:1 957:1 1044:1 1080:1 1134:1 1171:1 1176:1 1177:1 1217:1 1219:1 1227:1 1234:1 1235:1 1239:1 1243:1 1246:1 1247:1 1248:1 1251:1 1254:1 1258:1 1260:1 1267:1 1272:1 1274:1 1278:1 1282:2
1 154:1 1252:1 1282:4
1 154:1 1252:1 1282:3
1 1080:1 1278:1 1282:5
1 319:1 328:1 336:1 351:1 423:1 440:1 583:1 621:1 715:1 806:1 900:1 957:1 1044:1 1080:1 1134:1 1171:1 1176:1 1177:1 1217:1 1219:1 1227:1 1234:1 1235:1 1239:1 1243:1 1246:1 1247:1 1248:1 1251:1 1254:1 1258:1 1260:1 1267:1 1272:1 1274:1 1278:1 1282:1
1 154:1 1252:1 1282:5
1 154:1 1252:1 1282:4
1 140:1 423:1 684:1 710:1 715:1 816:1 900:1 1080:1 1177:1 1229:1 1244:1 1245:1 1246:1 1247:1 1253:1 1258:1 1260:1 1278:1 1282:4
1 154:1 1252:1 1282:4
1 710:1 1080:1 1253:1 1278:1 1282:6
1 154:1 1252:1 1282:3
1 324:1 336:1 423:1 450:1 455:1 621:1 697:1 715:1 900:1 914:1 927:1 957:1 1044:1 1080:1 1177:1 1215:1 1217:1 1222:1 1234:1 1240:1 1246:1 1247:1 1248:1 1251:1 1258:1 1259:1 1260:1 1266:1 1278:1 1280:1 1282:2
1 154:1 1252:1 1282:4
1 154:1 1252:1 1282:4
1 154:1 1252:1 1282:4
1 154:1 1252:1 1282:5
1 154:1 1252:1 1282:4
1 154:1 1252:1 1282:4
1 336:1 423:1 440:1 583:1 621:1 806:1 900:1 1080:1 1177:1 1234:1 1235:1 1246:1 1247:1 1248:1 1260:1 1272:1 1274:1 1278:1 1282:5
1 154:1 1252:1 1282:4
1 154:1 1252:1 1282:4
1 154:1 1252:1 1282:3
1 1080:1 1278:1 1282:2
1 336:3 423:1 440:1 621:1 806:1 900:2 1080:4 1177:2 1234:3 1235:1 1246:2 1247:2 1248:1 1260:1 1274:1 1278:4 1282:7
1 336:1 423:1 440:1 583:1 806:1 900:1 1080:1 1177:1 1234:1 1235:1 1246:1 1247:1 1260:1 1272:1 1274:1 1278:1 1282:5
1 154:1 1252:1 1282:4
1 154:1 1252:1 1282:4
1 319:1 328:1 336:1 351:1 423:1 440:1 583:1 621:1 715:1 806:1 900:1 957:1 1044:1 1080:1 1134:1 1171:1 1176:1 1177:1 1217:1 1219:1 1227:1 1234:1 1235:1 1239:1 1243:1 1246:1 1247:1 1248:1 1251:1 1254:1 1258:1 1260:1 1267:1 1272:1 1274:1 1278:1 1282:2
1 154:1 1252:1 1282:3
1 336:3 423:1 440:1 621:1 806:1 900:2 1080:4 1177:2 1234:3 1235:1 1246:2 1247:2 1248:1 1260:1 1274:1 1278:4 1282:6
1 140:1 423:1 684:1 710:1 715:1 816:1 900:1 1080:1 1177:1 1229:1 1244:1 1245:1 1246:1 1247:1 1253:1 1258:1 1260:1 1278:1 1282:5
1 318:1 336:3 423:1 440:1 621:1 806:1 900:2 1080:4 1177:2 1218:1 1234:3 1235:1 1246:2 1247:2 1248:1 1255:1 1260:1 1274:1 1278:4 1282:6
1 140:1 423:1 684:1 710:1 715:1 816:1 900:1 1080:1 1177:1 1229:1 1244:1 1245:1 1246:1 1247:1 1253:1 1258:1 1260:1 1278:1 1282:3
1 154:1 1252:1 1282:4
1 154:1 1252:1 1282:5
1 316:1 423:1 440:1 710:1 806:1 900:1 1080:1 1177:1 1216:1 1235:1 1246:1 1247:1 1253:1 1260:1 1274:1 1278:1 1282:2
1 154:1 1252:1 1282:4
1 336:3 423:1 440:1 621:1 806:1 900:2 1044:1 1080:4 1177:2 1234:3 1235:1 1246:2 1247:2 1248:1 1251:1 1260:1 1274:1 1278:4 1282:6
1 154:1 1252:1 1282:3
1 423:1 440:1 477:1 583:1 621:1 900:1 1080:1 1177:1 1241:1 1246:1 1247:1 1248:1 1260:1 1272:1 1274:1 1278:1 1282:3
1 336:2 423:1 440:1 806:1 900:2 1080:4 1177:2 1234:2 1235:1 1246:2 1247:2 1260:1 1274:1 1278:4 1282:7
1 140:1 423:1 684:1 710:1 715:1 816:1 900:1 1080:1 1177:1 1229:1 1244:1 1245:1 1246:1 1247:1 1253:1 1258:1 1260:1 1278:1 1282:3
1 154:1 1252:1 1282:3
1 154:1 1252:1 1282:6
1 324:1 336:1 423:1 440:1 450:1 455:1 583:1 621:1 697:1 715:1 900:1 914:1 927:1 1044:1 1080:1 1177:1 1215:1 1222:1 1234:1 1240:1 1246:1 1247:1 1248:1 1251:1 1258:1 1259:1 1260:1 1266:1 1272:1 1274:1 1278:1 1280:1 1282:1
1 154:1 1252:1 1282:5
1 154:1 1252:1 1282:4
1 154:1 1252:1 1282:4
1 154:1 1252:1 1282:3
1 154:1 1252:1 1282:4
1 154:1 1252:1 1282:4
1 140:1 423:1 684:1 710:1 715:1 816:1 900:1 1080:1 1177:1 1229:1 1244:1 1245:1 1246:1 1247:1 1253:1 1258:1 1260:1 1278:1 1282:3
1 140:1 423:1 684:1 710:1 715:1 816:1 900:1 1080:1 1177:1 1229:1 1244:1 1245:1 1246:1 1247:1 1253:1 1258:1 1260:1 1278:1 1282:4
1 900:1 1080:1 1247:1 1278:1 1282:3 1284:1
1 336:3 423:1 440:1 621:1 806:1 900:2 1080:4 1177:2 1234:3 1235:1 1246:2 1247:2 1248:1 1260:1 1274:1 1278:4 1282:7
1 423:1 440:1 583:1 621:1 710:1 715:1 806:1 900:1 914:1 1080:1 1177:1 1235:1 1246:1 1247:1 1248:1 1253:1 1258:1 1259:1 1260:1 1272:1 1274:1 1278:1 1282:1
1 423:1 440:1 621:1 715:1 900:1 1080:1 1177:1 1246:1 1247:1 1248:1 1258:1 1260:1 1274:1 1278:1 1282:3
1 140:1 423:1 684:1 710:1 715:1 900:1 1080:1 1177:1 1229:1 1244:1 1246:1 1247:1 1253:1 1258:1 1260:1 1278:1 1282:3
1 640:1 1261:1 1282:1
1 154:1 1252:1 1282:3
1 319:1 328:1 336:1 351:1 423:1 440:1 583:1 621:1 715:1 806:1 900:1 957:1 1044:1 1080:1 1134:1 1171:1 1176:1 1177:1 1217:1 1219:1 1227:1 1234:1 1235:1 1239:1 1243:1 1246:1 1247:1 1248:1 1251:1 1254:1 1258:1 1260:1 1267:1 1272:1 1274:1 1278:1 1282:2
1 324:1 336:1 423:1 440:1 450:1 455:1 583:1 621:1 697:1 715:1 900:1 914:1 927:1 1044:1 1080:1 1177:1 1215:1 1222:1 1234:1 1240:1 1246:1 1247:1 1248:1 1251:1 1258:1 1259:1 1260:1 1266:1 1272:1 1274:1 1278:1 1280:1 1282:1
1 154:1 1252:1 1282:4
1 423:1 440:1 621:1 715:1 806:1 900:1 1080:1 1177:1 1235:1 1246:1 1247:1 1248:1 1258:1 1260:1 1274:1 1278:1 1282:3
1 154:1 1252:1 1282:4
1 140:1 423:1 684:1 710:1 715:1 816:1 900:1 1080:1 1177:1 1229:1 1244:1 1245:1 1246:1 1247:1 1253:1 1258:1 1260:1 1278:1 1282:4
1 319:1 328:1 336:1 351:1 423:1 440:1 583:1 621:1 715:1 806:1 900:1 957:1 1044:1 1080:1 1134:1 1171:1 1176:1 1177:1 1217:1 1219:1 1227:1 1234:1 1235:1 1239:1 1243:1 1246:1 1247:1 1248:1 1251:1 1254:1 1258:1 1260:1 1267:1 1272:1 1274:1 1278:1 1282:2
1 336:1 423:1 440:1 450:1 583:1 621:1 684:1 715:1 806:1 900:1 1080:1 1177:1 1229:1 1234:1 1235:1 1246:1 1247:1 1248:1 1258:1 1260:1 1272:1 1274:1 1278:1 1280:1 1282:2 1284:6
1 336:2 423:1 440:1 583:1 806:1 900:2 1080:4 1177:2 1234:2 1235:1 1246:2 1247:2 1260:1 1272:1 1274:1 1278:4 1282:6
1 154:1 1252:1 1282:4
1 154:1 1252:1 1282:4
1 640:1 1261:1 1282:2
1 140:1 423:1 684:1 710:1 715:1 816:1 900:1 1080:1 1177:1 1229:1 1244:1 1245:1 1246:1 1247:1 1253:1 1258:1 1260:1 1278:1 1282:3
1 154:1 1252:1 1282:5
1 336:2 423:1 440:1 583:1 806:1 900:2 1080:4 1177:2 1234:2 1235:1 1246:2 1247:2 1260:1 1272:1 1274:1 1278:4 1282:7
1 324:1 336:1 423:1 450:1 455:1 621:1 697:1 715:1 900:1 914:1 927:1 957:1 1044:1 1080:1 1177:1 1215:1 1217:1 1222:1 1234:1 1240:1 1246:1 1247:1 1248:1 1251:1 1258:1 1259:1 1260:1 1266:1 1278:1 1280:1 1282:2
1 154:1 1252:1 1282:5
1 154:1 1252:1 1282:4
1 154:1 1252:1 1282:3
1 154:1 1252:1 1282:4
1 154:1 1252:1 1282:4
1 154:1 1252:1 1282:4
1 154:1 1252:1 1282:5
1 154:1 1252:1 1282:4
1 336:2 423:1 440:1 477:1 583:1 806:1 900:2 1080:4 1177:2 1234:2 1235:1 1241:1 1246:2 1247:2 1260:1 1272:1 1274:1 1278:4 1282:7
1 336:2 423:1 440:1 806:1 900:2 1080:4 1177:2 1234:2 1235:1 1246:2 1247:2 1260:1 1274:1 1278:4 1282:7
1 336:2 423:1 440:1 583:1 806:1 900:2 1080:4 1177:3 1234:2 1235:1 1238:1 1246:3 1247:2 1260:1 1272:1 1274:1 1278:4 1282:6
1 140:1 423:1 684:1 710:1 715:1 816:1 900:1 1080:1 1177:1 1229:1 1244:1 1245:1 1246:1 1247:1 1253:1 1258:1 1260:1 1278:1 1282:4
1 336:3 423:1 440:1 621:1 806:1 900:2 1080:4 1177:2 1234:3 1235:1 1246:2 1247:2 1248:1 1260:1 1274:1 1278:4 1282:6
1 640:1 1261:1 1282:1
1 158:1 177:1 324:1 336:1 423:1 440:1 544:1 621:1 710:1 715:1 843:1 900:1 914:1 957:1 1080:1 1177:1 1217:1 1222:1 1232:1 1234:1 1246:1 1247:1 1248:1 1253:1 1256:1 1258:1 1259:1 1260:1 1264:1 1274:1 1278:1 1281:1 1282:2
1 324:1 336:1 423:1 440:1 450:1 455:1 477:1 621:1 697:1 715:1 900:1 914:1 927:1 957:1 1044:1 1080:1 1145:1 1177:1 1215:1 1217:1 1222:1 1234:1 1240:1 1241:1 1246:1 1247:1 1248:1 1251:1 1258:1 1259:1 1260:1 1266:1 1274:1 1278:1 1279:1 1280:1 1282:3
1 154:1 1252:1 1282:4
1 154:1 1252:1 1282:4
1 154:1 1252:1 1282:4
1 140:1 423:1 684:1 710:1 715:1 816:1 900:1 1080:1 1177:1 1229:1 1244:1 1245:1 1246:1 1247:1 1253:1 1258:1 1260:1 1278:1 1282:3
1 1080:1 1278:1 1282:9
1 154:1 1252:1 1282:5
1 154:1 1252:1 1282:4
1 324:1 336:1 423:1 440:1 450:1 455:1 621:1 697:1 715:1 900:1 914:1 927:1 957:1 1044:1 1080:1 1177:1 1215:1 1217:1 1222:1 1234:1 1240:1 1246:1 1247:1 1248:1 1251:1 1258:1 1259:1 1260:1 1266:1 1274:1 1278:1 1280:1 1282:3
1 336:3 423:1 440:1 621:1 806:1 900:2 1080:4 1177:2 1234:3 1235:1 1246:2 1247:2 1248:1 1260:1 1274:1 1278:4 1282:6
1 900:1 1080:1 1247:1 1278:1 1282:3 1284:1
1 140:1 423:1 684:1 710:1 715:1 816:1 900:1 1080:1 1177:1 1229:1 1244:1 1245:1 1246:1 1247:1 1253:1 1258:1 1260:1 1278:1 1282:3
1 154:1 1252:1 1282:2
1 154:1 1252:1 1282:4
1 336:3 423:1 440:1 621:1 806:1 900:2 1044:1 1080:4 1177:2 1234:3 1235:1 1246:2 1247:2 1248:1 1251:1 1260:1 1274:1 1278:4 1282:6
1 154:1 1252:1 1282:3
1 154:1 1252:1 1282:5
1 319:1 328:1 336:1 351:1 423:1 440:1 583:1 621:1 715:1 806:1 900:1 957:1 1044:1 1080:1 1134:1 1171:1 1176:1 1177:1 1217:1 1219:1 1227:1 1234:1 1235:1 1239:1 1243:1 1246:1 1247:1 1248:1 1251:1 1254:1 1258:1 1260:1 1267:1 1272:1 1274:1 1278:1 1282:2
1 154:1 1252:1 1282:4
1 154:1 1252:1 1282:4
1 336:3 423:1 440:1 621:1 806:1 900:2 1044:1 1080:4 1177:2 1234:3 1235:1 1246:2 1247:2 1248:1 1251:1 1260:1 1274:1 1278:4 1282:6
1 1282:3
1 154:1 1252:1 1282:3
1 640:1 1080:1 1261:1 1278:1 1282:2
1 154:1 1252:1 1282:5
1 336:1 423:1 440:1 621:1 715:1 806:1 900:1 1080:1 1177:1 1234:1 1235:1 1246:1 1247:1 1248:1 1258:1 1260:1 1274:1 1278:1 1282:5
1 336:2 423:1 440:1 715:2 806:1 900:2 1044:1 1080:4 1177:2 1234:2 1235:1 1246:2 1247:2 1251:1 1258:2 1260:1 1274:1 1278:4 1282:6
1 154:1 1252:1 1282:3
1 154:1 1252:1 1282:5
1 319:1 328:1 336:1 351:1 423:1 440:1 583:1 621:1 715:1 806:1 900:1 957:1 1044:1 1080:1 1134:1 1171:1 1176:1 1177:1 1217:1 1219:1 1227:1 1234:1 1235:1 1239:1 1243:1 1246:1 1247:1 1248:1 1251:1 1254:1 1258:1 1260:1 1267:1 1272:1 1274:1 1278:1 1282:2
1 154:1 1252:1 1282:4
1 336:3 351:1 423:1 440:1 583:1 621:1 715:1 806:1 900:2 1080:4 1177:2 1234:3 1235:1 1246:2 1247:2 1248:1 1254:1 1258:1 1260:1 1272:1 1274:1 1278:4 1282:6
1 336:2 423:1 440:1 806:1 900:2 1080:5 1177:2 1234:2 1235:1 1246:2 1247:2 1260:1 1274:1 1278:5 1282:7
1 1282:3
1 154:1 1252:1 1282:3
1 640:1 1261:1 1282:3
1 336:3 423:1 440:1 583:1 621:1 806:1 900:2 1080:4 1177:2 1234:3 1235:1 1246:2 1247:2 1248:1 1260:1 1272:1 1274:1 1278:4 1282:6
1 154:1 1252:1 1282:4
1 914:1 1080:1 1259:1 1278:1 1282:2
1 154:1 1252:1 1282:3
1 336:3 423:1 440:1 455:1 621:1 715:1 806:1 900:2 1044:1 1080:4 1177:2 1215:1 1234:3 1235:1 1246:2 1247:2 1248:1 1251:1 1258:1 1260:1 1274:1 1278:4 1282:6
1 423:1 440:1 715:1 900:1 1080:1 1177:1 1246:1 1247:1 1258:1 1260:1 1274:1 1278:1 1282:4
1 914:1 1080:1 1259:1 1278:1 1282:2
1 154:1 1252:1 1282:4
1 140:1 423:1 684:1 710:1 715:1 816:1 900:1 1080:1 1177:1 1229:1 1244:1 1245:1 1246:1 1247:1 1253:1 1258:1 1260:1 1278:1 1282:4
1 154:1 1252:1 1282:4
1 154:1 1252:1 1282:5
1 914:1 1080:1 1259:1 1278:1 1282:2
1 140:1 423:1 684:1 710:1 715:1 816:1 900:1 1080:1 1177:1 1229:1 1244:1 1245:1 1246:1 1247:1 1253:1 1258:1 1260:1 1278:1 1282:4
1 640:1 1261:1 1282:1
1 154:1 1252:1 1282:5
1 154:1 1252:1 1282:3
1 154:1 1252:1 1282:4
1 914:1 1080:1 1259:1 1278:1 1282:2
1 154:1 1252:1 1282:6
1 319:1 336:1 351:1 423:1 440:1 583:1 621:1 715:1 806:1 900:1 1044:1 1080:1 1134:1 1171:1 1176:1 1177:1 1219:1 1234:1 1235:1 1239:1 1243:1 1246:1 1247:1 1248:1 1251:1 1254:1 1258:1 1260:1 1267:1 1272:1 1274:1 1278:1 1282:3
1 154:1 1252:1 1282:4
1 336:3 423:1 440:1 583:1 621:1 806:1 900:2 1080:4 1177:3 1234:3 1235:1 1238:1 1246:3 1247:2 1248:1 1260:1 1272:1 1274:1 1278:4 1282:6
1 154:1 1252:1 1282:3
1 423:1 440:1 621:1 715:1 900:1 1080:1 1177:1 1246:1 1247:1 1248:1 1258:1 1260:1 1274:1 1278:1 1282:3
1 319:1 328:1 336:1 351:1 423:1 440:1 583:1 621:1 715:1 806:1 900:1 957:1 1044:1 1080:1 1134:1 1171:1 1176:1 1177:1 1217:1 1219:1 1227:1 1234:1 1235:1 1239:1 1243:1 1246:1 1247:1 1248:1 1251:1 1254:1 1258:1 1260:1 1267:1 1272:1 1274:1 1278:1 1282:3
1 154:1 1252:1 1282:4
1 710:2 715:1 900:1 1080:1 1247:1 1253:2 1258:1 1278:1 1282:5
1 154:1 1252:1 1282:5
1 154:1 1252:1 1282:4
1 336:2 423:1 440:1 583:1 806:1 900:2 1080:4 1177:2 1234:2 1235:1 1246:2 1247:2 1260:1 1272:1 1274:1 1278:4 1282:6
1 154:1 1252:1 1282:4
1 154:1 1252:1 1282:5
1 140:1 423:1 684:1 710:1 715:1 816:1 900:1 1080:1 1177:1 1229:1 1244:1 1245:1 1246:1 1247:1 1253:1 1258:1 1260:1 1278:1 1282:5
1 316:1 423:1 440:1 710:1 806:1 900:1 1080:1 1177:1 1216:1 1235:1 1246:1 1247:1 1253:1 1260:1 1274:1 1278:1 1282:3
1 154:1 1252:1 1282:4
1 336:1 423:1 621:1 715:1 743:1 900:1 1044:1 1080:1 1134:1 1177:1 1226:1 1234:1 1246:1 1247:1 1248:1 1251:1 1258:1 1260:1 1267:1 1278:1 1282:5
1 140:1 423:1 684:1 710:1 715:1 816:1 900:1 1080:1 1177:1 1229:1 1244:1 1245:1 1246:1 1247:1 1253:1 1258:1 1260:1 1278:1 1282:4
1 319:1 328:1 336:1 351:1 423:1 440:1 583:1 621:1 715:1 806:1 900:1 957:1 1044:1 1080:1 1134:1 1171:1 1176:1 1177:1 1217:1 1219:1 1227:1 1234:1 1235:1 1239:1 1243:1 1246:1 1247:1 1248:1 1251:1 1254:1 1258:1 1260:1 1267:1 1272:1 1274:1 1278:1 1282:2
1 336:1 423:1 440:1 583:1 621:1 715:1 806:1 816:1 900:1 1080:1 1177:1 1234:1 1235:1 1245:1 1246:1 1247:1 1248:1 1258:1 1260:1 1272:1 1274:1 1278:1 1282:4 1284:4
1 423:1 440:1 621:1 715:1 806:1 900:1 1080:1 1177:1 1235:1 1246:1 1247:1 1248:1 1258:1 1260:1 1274:1 1278:1 1282:3
1 154:1 1252:1 1282:4
1 140:1 423:1 684:1 710:1 715:1 816:1 900:1 1080:1 1177:1 1229:1 1244:1 1245:1 1246:1 1247:1 1253:1 1258:1 1260:1 1278:1 1282:5
1 154:1 1252:1 1282:5
1 154:1 1252:1 1282:4
1 154:1 1252:1 1282:4
1 154:1 1252:1 1282:4
1 423:1 440:1 621:1 715:1 806:1 900:1 1080:1 1177:1 1235:1 1246:1 1247:1 1248:1 1258:1 1260:1 1274:1 1278:1 1282:3
1 154:1 1252:1 1282:4
1 336:3 423:1 440:1 621:1 806:1 900:2 1080:4 1177:3 1234:3 1235:1 1238:1 1246:3 1247:2 1248:1 1260:1 1274:1 1278:4 1282:6
1 154:1 1252:1 1282:6
1 336:3 423:1 440:1 621:1 806:1 900:2 1080:4 1177:2 1234:3 1235:1 1246:2 1247:2 1248:1 1260:1 1274:1 1278:4 1282:6
1 140:1 423:1 684:1 710:1 715:1 816:1 900:1 1080:1 1177:1 1229:1 1244:1 1245:1 1246:1 1247:1 1253:1 1258:1 1260:1 1278:1 1282:4
1 336:3 423:1 440:1 621:1 806:1 900:2 1080:4 1177:2 1234:3 1235:1 1246:2 1247:2 1248:1 1260:1 1274:1 1278:4 1282:6
1 336:2 423:1 440:1 806:1 900:2 1080:4 1177:2 1234:2 1235:1 1246:2 1247:2 1260:1 1274:1 1278:4 1282:6
1 423:1 440:1 715:1 900:1 1080:1 1177:1 1246:1 1247:1 1258:1 1260:1 1274:1 1278:1 1282:3
1 140:1 423:1 684:1 710:1 715:1 816:1 900:1 1080:1 1177:1 1229:1 1244:1 1245:1 1246:1 1247:1 1253:1 1258:1 1260:1 1278:1 1282:4
1 154:1 1252:1 1282:4
1 640:1 1261:1 1282:1
1 319:1 328:1 336:1 351:1 423:1 440:1 583:1 621:1 715:1 806:1 900:1 957:1 1044:1 1080:1 1134:1 1171:1 1176:1 1177:1 1217:1 1219:1 1227:1 1234:1 1235:1 1239:1 1243:1 1246:1 1247:1 1248:1 1251:1 1254:1 1258:1 1260:1 1267:1 1272:1 1274:1 1278:1 1282:4
1 154:1 1252:1 1282:5
1 230:1 332:1 583:1 710:1 715:1 900:1 1044:1 1080:1 1231:1 1247:1 1251:1 1253:1 1258:1 1271:1 1272:1 1273:1 1278:1 1282:3
1 140:1 423:1 684:1 710:1 715:1 816:1 900:1 1080:1 1177:1 1229:1 1244:1 1245:1 1246:1 1247:1 1253:1 1258:1 1260:1 1278:1 1282:4
1 423:1 440:1 621:1 715:1 900:1 1080:1 1177:1 1246:1 1247:1 1248:1 1258:1 1260:1 1274:1 1278:1 1282:3
1 914:1 1080:1 1259:1 1278:1 1282:2
1 640:1 1261:1 1282:3
1 140:1 423:1 684:1 710:1 715:1 816:1 900:1 1080:1 1177:1 1229:1 1244:1 1245:1 1246:1 1247:1 1253:1 1258:1 1260:1 1278:1 1282:4
1 140:1 423:1 684:1 710:1 715:1 816:1 900:1 1080:1 1177:1 1229:1 1244:1 1245:1 1246:1 1247:1 1253:1 1258:1 1260:1 1278:1 1282:4
1 423:1 440:1 621:1 715:1 900:1 1080:1 1177:1 1246:1 1247:1 1248:1 1258:1 1260:1 1274:1 1278:1 1282:3
1 1282:3
1 154:1 1252:1 1282:2
1 900:1 1080:1 1247:1 1278:1 1282:2 1284:1
1 1282:3
1 154:1 1252:1 1282:4
1 423:1 440:1 621:1 715:1 900:1 1080:1 1177:1 1246:1 1247:1 1248:1 1258:1 1260:1 1274:1 1278:1 1282:4
1 1080:1 1278:1 1282:2
1 154:1 1252:1 1282:3
1 140:1 423:1 684:1 710:1 715:1 816:1 900:1 1080:1 1177:1 1229:1 1244:1 1245:1 1246:1 1247:1 1253:1 1258:1 1260:1 1278:1 1282:4
1 154:1 1252:1 1282:4
1 423:1 440:1 583:1 621:1 710:1 715:1 806:1 900:1 914:1 1080:1 1177:1 1235:1 1246:1 1247:1 1248:1 1253:1 1258:1 1259:1 1260:1 1272:1 1274:1 1278:1 1282:1
1 154:1 1252:1 1282:4
1 154:1 1252:1 1282:5
1 140:1 423:1 684:1 710:1 715:1 816:1 900:1 1080:1 1177:1 1229:1 1244:1 1245:1 1246:1 1247:1 1253:1 1258:1 1260:1 1278:1 1282:4
1 140:1 423:1 684:1 710:1 715:1 816:1 900:1 1080:1 1177:1 1229:1 1244:1 1245:1 1246:1 1247:1 1253:1 1258:1 1260:1 1278:1 1282:5
1 336:2 423:1 440:1 583:1 806:1 900:2 1080:4 1177:2 1234:2 1235:1 1246:2 1247:2 1260:1 1272:1 1274:1 1278:4 1282:7
1 319:1 328:1 336:1 351:1 423:1 440:1 583:1 621:1 715:1 806:1 900:1 957:1 1044:1 1080:1 1134:1 1171:1 1176:1 1177:1 1217:1 1219:1 1227:1 1234:1 1235:1 1239:1 1243:1 1246:1 1247:1 1248:1 1251:1 1254:1 1258:1 1260:1 1267:1 1272:1 1274:1 1278:1 1282:2
1 423:1 440:1 621:1 715:1 900:1 1080:1 1177:1 1246:1 1247:1 1248:1 1258:1 1260:1 1274:1 1278:1 1282:3
1 319:1 328:1 336:1 351:1 423:1 440:1 583:1 621:1 715:1 806:1 900:1 957:1 1044:1 1080:1 1134:1 1171:1 1176:1 1177:1 1217:1 1219:1 1227:1 1234:1 1235:1 1239:1 1243:1 1246:1 1247:1 1248:1 1251:1 1254:1 1258:1 1260:1 1267:1 1272:1 1274:1 1278:1 1282:2
1 336:2 423:1 440:1 806:1 900:2 1080:4 1177:2 1234:2 1235:1 1246:2 1247:2 1260:1 1274:1 1278:4 1282:5
1 154:1 1252:1 1282:3
1 336:1 423:1 440:1 900:1 1080:1 1177:1 1234:1 1246:1 1247:1 1260:1 1274:1 1278:1 1282:4 1284:165
1 154:1 1252:1 1282:4
1 640:1 1261:1 1282:4
1 154:1 1252:1 1282:5
1 336:1 423:1 1080:1 1234:1 1260:1 1278:1 1282:314 1284:1
1 140:1 423:1 684:1 710:1 715:1 816:1 900:1 1080:1 1177:1 1229:1 1244:1 1245:1 1246:1 1247:1 1253:1 1258:1 1260:1 1278:1 1282:4
1 154:1 1252:1 1282:4
1 154:1 1252:1 1282:4
1 154:1 1252:1 1282:3
1 154:1 1252:1 1282:3
1 140:1 423:1 684:1 710:1 715:1 816:1 900:1 1080:1 1177:1 1229:1 1244:1 1245:1 1246:1 1247:1 1253:1 1258:1 1260:1 1278:1 1282:4
1 319:1 328:1 336:1 351:1 423:1 440:1 583:1 621:1 715:1 806:1 900:1 957:1 1044:1 1080:1 1134:1 1171:1 1176:1 1177:1 1217:1 1219:1 1227:1 1234:1 1235:1 1239:1 1243:1 1246:1 1247:1 1248:1 1251:1 1254:1 1258:1 1260:1 1267:1 1272:1 1274:1 1278:1 1282:2
1 154:1 1252:1 1282:4
1 140:1 423:1 684:1 710:1 715:1 816:1 900:1 1080:1 1177:1 1229:1 1244:1 1245:1 1246:1 1247:1 1253:1 1258:1 1260:1 1278:1 1282:5
1 640:1 1080:1 1177:1 1246:1 1261:1 1278:1 1282:2
1 319:1 328:1 336:1 351:1 423:1 440:1 583:1 621:1 715:1 806:1 900:1 957:1 1044:1 1080:1 1134:1 1171:1 1176:1 1177:1 1217:1 1219:1 1227:1 1234:1 1235:1 1239:1 1243:1 1246:1 1247:1 1248:1 1251:1 1254:1 1258:1 1260:1 1267:1 1272:1 1274:1 1278:1 1282:2
1 640:1 1261:1 1282:1
1 154:1 1252:1 1282:4
1 154:1 1252:1 1282:4
1 914:1 1080:1 1259:1 1278:1 1282:2
1 154:1 1252:1 1282:5
1 154:1 1252:1 1282:4
1 140:1 423:1 684:1 710:1 715:1 816:1 900:1 1080:1 1177:1 1229:1 1244:1 1245:1 1246:1 1247:1 1253:1 1258:1 1260:1 1278:1 1282:4
1 154:1 1252:1 1282:5
1 336:3 423:1 440:1 621:1 806:1 900:2 1080:4 1177:2 1234:3 1235:1 1246:2 1247:2 1248:1 1260:1 1274:1 1278:4 1282:6
1 914:1 1080:1 1259:1 1278:1 1282:2
1 154:1 1252:1 1282:6
1 621:1 900:1 1080:1 1247:1 1248:1 1278:1 1282:2
1 154:1 1252:1 1282:4
1 423:1 440:1 621:1 715:1 900:1 1080:1 1177:1 1246:1 1247:1 1248:1 1258:1 1260:1 1274:1 1278:1 1282:3
1 154:1 1252:1 1282:4
1 140:1 324:1 423:1 621:1 684:1 715:1 816:1 900:1 1080:1 1177:1 1222:1 1229:1 1244:1 1245:1 1246:1 1247:1 1248:1 1258:1 1260:1 1278:1 1282:2
1 154:1 1252:1 1282:4
1 914:1 1080:1 1259:1 1278:1 1282:2
1 324:1 621:1 684:1 715:1 816:1 900:1 1080:1 1177:1 1222:1 1229:1 1245:1 1246:1 1247:1 1248:1 1258:1 1278:1 1282:2
1 140:1 423:1 684:1 710:1 715:1 816:1 900:1 1080:1 1177:1 1229:1 1244:1 1245:1 1246:1 1247:1 1253:1 1258:1 1260:1 1278:1 1282:4
1 154:1 1252:1 1282:3
1 914:1 1080:1 1259:1 1278:1 1282:2
1 154:1 1252:1 1282:4
1 154:1 1252:1 1282:4
1 140:1 621:1 1080:1 1177:1 1244:1 1246:1 1248:1 1278:1 1282:6 1284:1
1 140:1 324:1 423:1 621:1 684:1 715:1 816:1 900:1 1080:1 1177:1 1222:1 1229:1 1244:1 1245:1 1246:1 1247:1 1248:1 1258:1 1260:1 1278:1 1282:2
1 154:1 1252:1 1282:4
1 154:1 1252:1 1282:4
1 154:1 1252:1 1282:3
1 154:1 1252:1 1282:4
1 336:1 423:1 440:1 621:1 715:1 806:1 900:1 1080:1 1177:1 1234:1 1235:1 1246:1 1247:1 1248:1 1258:1 1260:1 1274:1 1278:1 1282:5
1 640:1 1261:1 1282:1
1 154:1 1252:1 1282:5
1 640:1 1261:1 1282:2
1 336:2 351:1 423:1 440:1 806:1 900:2 1080:4 1177:2 1234:2 1235:1 1246:2 1247:2 1254:1 1260:1 1274:1 1278:4 1282:7
1 154:1 1252:1 1282:4
1 914:1 1080:1 1259:1 1278:1 1282:2
1 154:1 1252:1 1282:4
1 154:1 1252:1 1282:4
1 140:1 423:1 684:1 710:1 715:1 816:1 900:1 1080:1 1177:1 1229:1 1244:1 1245:1 1246:1 1247:1 1253:1 1258:1 1260:1 1278:1 1282:3
1 900:1 1080:1 1177:1 1246:1 1247:1 1278:1 1282:3
1 336:2 423:1 440:1 583:1 806:1 900:2 1044:1 1080:4 1177:3 1234:2 1235:1 1238:1 1246:3 1247:2 1251:1 1260:1 1272:1 1274:1 1278:4 1282:6
1 140:1 423:1 684:1 710:1 715:1 816:1 900:1 1080:1 1177:1 1229:1 1244:1 1245:1 1246:1 1247:1 1253:1 1258:1 1260:1 1278:1 1282:4
1 900:1 1080:1 1247:1 1278:1 1282:3 1284:1
1 154:1 1252:1 1282:5
1 336:2 423:1 440:1 806:1 900:2 1080:4 1177:2 1234:2 1235:1 1246:2 1247:2 1260:1 1274:1 1278:4 1282:6
1 154:1 1252:1 1282:5
1 336:3 423:1 440:1 455:1 621:1 715:1 806:1 900:2 1044:1 1080:4 1177:2 1215:1 1234:3 1235:1 1246:2 1247:2 1248:1 1251:1 1258:1 1260:1 1274:1 1278:4 1282:6
1 154:1 1252:1 1282:4
1 1080:1 1278:1 1282:2
1 154:1 1252:1 1282:5
1 336:3 423:1 440:1 621:1 806:1 900:2 1080:4 1177:2 1234:3 1235:1 1246:2 1247:2 1248:1 1260:1 1274:1 1278:4 1282:6
1 319:1 336:3 423:1 440:1 621:1 715:1 806:1 900:2 1044:1 1080:4 1177:2 1219:1 1234:3 1235:1 1246:2 1247:2 1248:1 1251:1 1258:1 1260:1 1274:1 1278:4 1282:6
1 336:2 423:1 440:1 583:1 806:1 900:2 1080:4 1177:2 1234:2 1235:1 1246:2 1247:2 1260:1 1272:1 1274:1 1278:4 1282:7
1 140:1 423:1 684:1 710:1 715:1 816:1 900:1 1080:1 1177:1 1229:1 1244:1 1245:1 1246:1 1247:1 1253:1 1258:1 1260:1 1278:1 1282:5
1 140:1 423:1 684:1 710:1 715:1 816:1 900:1 1080:1 1177:1 1229:1 1244:1 1245:1 1246:1 1247:1 1253:1 1258:1 1260:1 1278:1 1282:4
1 336:3 423:1 440:1 621:1 806:1 900:2 1080:5 1177:2 1234:3 1235:1 1246:2 1247:2 1248:1 1260:1 1274:1 1278:5 1282:7
1 640:1 1261:1 1282:2
1 154:1 1252:1 1282:5
1 154:1 1252:1 1282:3
1 140:1 423:1 684:1 710:1 715:1 816:1 900:1 1080:1 1177:1 1229:1 1244:1 1245:1 1246:1 1247:1 1253:1 1258:1 1260:1 1278:1 1282:4
1 1282:2
1 154:1 1252:1 1282:4
1 154:1 1252:1 1282:4
1 336:4 423:1 440:1 621:1 715:1 806:1 900:2 1080:2 1177:2 1234:4 1235:1 1246:2 1247:2 1248:1 1258:1 1260:1 1274:1 1278:2 1282:12
1 336:2 423:1 440:1 806:1 900:2 1080:4 1177:2 1234:2 1235:1 1246:2 1247:2 1260:1 1274:1 1278:4 1282:6
1 154:1 1252:1 1282:4
1 154:1 1252:1 1282:4
1 336:2 423:1 440:1 583:1 806:1 900:2 1080:4 1177:2 1234:2 1235:1 1246:2 1247:2 1260:1 1272:1 1274:1 1278:4 1282:7
1 154:1 1252:1 1282:5
1 140:1 423:1 684:1 710:1 715:1 816:1 900:1 1080:1 1177:1 1229:1 1244:1 1245:1 1246:1 1247:1 1253:1 1258:1 1260:1 1278:1 1282:5
1 319:1 328:1 336:1 351:1 423:1 440:1 583:1 621:1 715:1 806:1 900:1 957:1 1044:1 1080:1 1134:1 1171:1 1176:1 1177:1 1217:1 1219:1 1227:1 1234:1 1235:1 1239:1 1243:1 1246:1 1247:1 1248:1 1251:1 1254:1 1258:1 1260:1 1267:1 1272:1 1274:1 1278:1 1282:5
1 154:1 1252:1 1282:4
1 154:1 1252:1 1282:4
1 423:1 440:1 621:1 715:1 806:1 900:1 1080:1 1177:1 1235:1 1246:1 1247:1 1248:1 1258:1 1260:1 1274:1 1278:1 1282:3
1 336:3 423:1 440:1 621:1 715:1 806:1 900:2 1044:1 1080:4 1177:3 1234:3 1235:1 1246:3 1247:2 1248:1 1251:1 1258:1 1260:1 1274:1 1278:4 1282:6
1 154:1 1252:1 1282:4
1 140:1 423:1 684:1 710:1 715:1 816:1 900:1 1080:1 1177:1 1229:1 1244:1 1245:1 1246:1 1247:1 1253:1 1258:1 1260:1 1278:1 1282:4
1 154:1 1252:1 1282:4
1 154:1 1252:1 1282:3
1 140:1 423:1 684:1 710:1 715:1 816:1 900:1 1080:1 1177:1 1229:1 1244:1 1245:1 1246:1 1247:1 1253:1 1258:1 1260:1 1278:1 1282:5
1 140:1 423:1 684:1 710:1 715:1 816:1 900:1 1080:1 1177:1 1229:1 1244:1 1245:1 1246:1 1247:1 1253:1 1258:1 1260:1 1278:1 1282:4
1 640:1 1261:1 1282:2
1 423:1 684:1 710:1 715:1 816:1 900:1 1080:1 1177:1 1229:1 1245:1 1246:1 1247:1 1253:1 1258:1 1260:1 1278:1 1282:3
1 154:1 1252:1 1282:4
1 140:1 423:1 684:1 710:1 715:1 816:1 900:1 1080:1 1177:1 1229:1 1244:1 1245:1 1246:1 1247:1 1253:1 1258:1 1260:1 1278:1 1282:4
1 336:3 423:1 440:1 621:1 806:1 900:2 1080:4 1177:2 1234:3 1235:1 1246:2 1247:2 1248:1 1260:1 1274:1 1278:4 1282:6
1 640:1 1261:1 1282:3
1 324:1 621:1 684:1 715:1 816:1 900:1 1080:1 1177:1 1222:1 1229:1 1245:1 1246:1 1247:1 1248:1 1258:1 1278:1 1282:2
1 140:1 423:1 684:1 710:1 715:1 816:1 900:1 1080:1 1177:1 1229:1 1244:1 1245:1 1246:1 1247:1 1253:1 1258:1 1260:1 1278:1 1282:4
1 423:1 440:1 621:1 715:1 806:1 900:1 1080:1 1177:1 1235:1 1246:1 1247:1 1248:1 1258:1 1260:1 1274:1 1278:1 1282:3
1 336:3 423:1 440:1 621:1 806:1 900:2 1044:1 1080:4 1177:2 1234:3 1235:1 1246:2 1247:2 1248:1 1251:1 1260:1 1274:1 1278:4 1282:6
1 640:1 1261:1 1282:1
1 324:1 336:1 423:1 440:1 450:1 455:1 621:1 697:1 715:1 900:1 914:1 927:1 957:1 1044:1 1080:1 1177:1 1215:1 1217:1 1222:1 1234:1 1240:1 1246:1 1247:1 1248:1 1251:1 1258:1 1259:1 1260:1 1266:1 1274:1 1278:1 1280:1 1282:2
1 154:1 1252:1 1282:5
1 423:1 440:1 621:1 715:1 900:1 1080:1 1177:1 1246:1 1247:1 1248:1 1258:1 1260:1 1274:1 1278:1 1282:3
1 154:1 1252:1 1282:3
1 324:1 621:1 684:1 715:1 816:1 900:1 1080:1 1177:1 1222:1 1229:1 1245:1 1246:1 1247:1 1248:1 1258:1 1278:1 1282:2
1 640:1 1261:1 1282:1
1 154:1 1252:1 1282:3
1 154:1 1252:1 1282:3
1 336:1 423:1 440:1 621:1 684:1 715:1 806:1 900:1 1044:1 1080:1 1177:1 1229:1 1234:1 1235:1 1246:1 1247:1 1248:1 1251:1 1258:1 1260:1 1274:1 1278:1 1282:2 1284:6
1 140:1 423:1 684:1 710:1 715:1 816:1 900:1 1080:1 1177:1 1229:1 1244:1 1245:1 1246:1 1247:1 1253:1 1258:1 1260:1 1278:1 1282:4
1 154:1 1252:1 1282:4
1 154:1 1252:1 1282:3
1 140:1 423:1 684:1 710:1 715:1 816:1 900:1 1080:1 1177:1 1229:1 1244:1 1245:1 1246:1 1247:1 1253:1 1258:1 1260:1 1278:1 1282:5
1 914:1 1080:1 1259:1 1278:1 1282:2
1 154:1 1252:1 1282:6
1 319:1 328:1 336:1 351:1 423:1 440:1 583:1 621:1 715:1 806:1 900:1 957:1 1044:1 1080:1 1134:1 1171:1 1176:1 1177:1 1217:1 1219:1 1227:1 1234:1 1235:1 1239:1 1243:1 1246:1 1247:1 1248:1 1251:1 1254:1 1258:1 1260:1 1267:1 1272:1 1274:1 1278:1 1282:2
1 154:1 1252:1 1282:3
1 1282:3
1 140:1 423:1 684:1 710:1 715:1 816:1 900:1 1080:1 1177:1 1229:1 1244:1 1245:1 1246:1 1247:1 1253:1 1258:1 1260:1 1278:1 1282:4
1 140:1 423:1 684:1 710:1 715:1 816:1 900:1 1080:1 1177:1 1229:1 1244:1 1245:1 1246:1 1247:1 1253:1 1258:1 1260:1 1278:1 1282:4
1 640:1 1261:1 1282:1
1 319:1 328:1 336:1 351:1 423:1 440:1 583:1 621:1 715:1 806:1 900:1 957:1 1044:1 1080:1 1134:1 1171:1 1176:1 1177:1 1217:1 1219:1 1227:1 1234:1 1235:1 1239:1 1243:1 1246:1 1247:1 1248:1 1251:1 1254:1 1258:1 1260:1 1267:1 1272:1 1274:1 1278:1 1282:2
1 154:1 1252:1 1282:4
1 154:1 1252:1 1282:4
1 140:1 423:1 684:1 710:1 715:1 816:1 900:1 1080:1 1177:1 1229:1 1244:1 1245:1 1246:1 1247:1 1253:1 1258:1 1260:1 1278:1 1282:4
1 319:1 328:1 336:1 351:1 423:1 440:1 583:1 621:1 715:1 806:1 900:1 957:1 1044:1 1080:1 1134:1 1171:1 1176:1 1177:1 1217:1 1219:1 1227:1 1234:1 1235:1 1239:1 1243:1 1246:1 1247:1 1248:1 1251:1 1254:1 1258:1 1260:1 1267:1 1272:1 1274:1 1278:1 1282:2
1 336:3 423:1 440:1 583:1 621:1 806:1 900:2 1080:4 1134:1 1177:2 1234:3 1235:1 1246:2 1247:2 1248:1 1260:1 1267:1 1272:1 1274:1 1278:4 1282:6
1 140:1 423:1 684:1 710:1 715:1 816:1 900:1 1080:1 1177:1 1229:1 1244:1 1245:1 1246:1 1247:1 1253:1 1258:1 1260:1 1278:1 1282:4
1 140:1 423:1 684:1 710:1 715:1 816:1 900:1 1080:1 1177:1 1229:1 1244:1 1245:1 1246:1 1247:1 1253:1 1258:1 1260:1 1278:1 1282:5
1 154:1 1252:1 1282:4
1 154:1 1252:1 1282:3
1 154:1 1252:1 1282:5
1 154:1 1252:1 1282:5
1 154:1 1252:1 1282:5
1 336:2 423:1 440:1 715:1 806:1 900:2 1080:4 1177:2 1234:2 1235:1 1246:2 1247:2 1258:1 1260:1 1274:1 1278:4 1282:6
1 423:1 440:1 621:1 715:1 806:1 900:1 1080:1 1177:1 1235:1 1246:1 1247:1 1248:1 1258:1 1260:1 1274:1 1278:1 1282:3
1 140:1 423:1 684:1 710:1 715:1 816:1 900:1 1080:1 1177:1 1229:1 1244:1 1245:1 1246:1 1247:1 1253:1 1258:1 1260:1 1278:1 1282:4
1 640:1 1261:1 1282:1
1 1282:3
1 154:1 1252:1 1282:4
1 140:1 423:1 684:1 710:1 715:1 816:1 900:1 1080:1 1177:1 1229:1 1244:1 1245:1 1246:1 1247:1 1253:1 1258:1 1260:1 1278:1 1282:4
1 154:1 1252:1 1282:4
1 360:1 423:1 440:1 463:1 547:1 621:1 710:1 715:1 754:1 766:1 843:1 900:1 914:1 1044:1 1080:1 1177:1 1223:1 1233:1 1236:1 1246:1 1247:1 1248:1 1251:1 1253:1 1257:1 1258:1 1259:1 1260:1 1264:1 1268:1 1274:1 1278:1 1282:2
1 140:1 423:1 684:1 710:1 715:1 816:1 900:1 1080:1 1177:1 1229:1 1244:1 1245:1 1246:1 1247:1 1253:1 1258:1 1260:1 1278:1 1282:4
1 336:3 423:1 440:1 583:1 621:1 806:1 900:2 1080:4 1177:2 1234:3 1235:1 1246:2 1247:2 1248:1 1260:1 1272:1 1274:1 1278:4 1282:6
1 154:1 1252:1 1282:4
1 140:1 423:1 684:1 710:1 715:1 816:1 900:1 1080:1 1177:1 1229:1 1244:1 1245:1 1246:1 1247:1 1253:1 1258:1 1260:1 1278:1 1282:5
1 172:1 336:1 423:1 440:1 455:1 584:1 621:1 697:1 710:1 715:1 843:1 900:1 914:1 957:1 1080:1 1177:1 1215:1 1217:1 1234:1 1240:1 1246:1 1247:1 1248:1 1253:1 1258:1 1259:1 1260:1 1264:1 1274:1 1275:1 1276:1 1278:1 1282:3 1284:1
1 154:1 1252:1 1282:4
1 423:1 440:1 715:1 900:1 1080:1 1177:1 1246:1 1247:1 1258:1 1260:1 1274:1 1278:1 1282:3
1 336:2 423:1 440:1 583:1 806:1 900:2 1044:1 1080:4 1177:3 1234:2 1235:1 1238:1 1246:3 1247:2 1251:1 1260:1 1272:1 1274:1 1278:4 1282:6
1 154:1 1252:1 1282:5
1 336:2 423:1 440:1 806:1 900:2 1080:4 1177:2 1234:2 1235:1 1246:2 1247:2 1260:1 1274:1 1278:4 1282:6
1 154:1 1252:1 1282:5
1 154:1 1252:1 1282:3
1 154:1 1252:1 1282:4
1 154:1 1252:1 1282:4
1 154:1 1252:1 1282:3
1 914:1 1080:1 1259:1 1278:1 1282:2
1 423:1 440:1 621:1 715:1 900:1 1080:1 1177:1 1246:1 1247:1 1248:1 1258:1 1260:1 1274:1 1278:1 1282:3
1 154:1 1252:1 1282:3
1 640:1 1080:1 1177:1 1246:1 1261:1 1278:1 1282:2
1 336:3 351:1 423:1 440:1 621:1 806:1 900:2 1080:4 1177:2 1234:3 1235:1 1246:2 1247:2 1248:1 1254:1 1260:1 1274:1 1278:4 1282:6
1 140:1 423:1 684:1 710:1 715:1 816:1 900:1 1080:1 1177:1 1229:1 1244:1 1245:1 1246:1 1247:1 1253:1 1258:1 1260:1 1278:1 1282:3
1 914:1 1080:1 1259:1 1278:1 1282:2
1 900:1 1080:1 1247:1 1278:1 1282:3
1 640:1 1080:1 1261:1 1278:1 1282:4
1 319:1 328:1 336:1 351:1 423:1 440:1 583:1 621:1 715:1 806:1 900:1 957:1 1044:1 1080:1 1134:1 1171:1 1176:1 1177:1 1217:1 1219:1 1227:1 1234:1 1235:1 1239:1 1243:1 1246:1 1247:1 1248:1 1251:1 1254:1 1258:1 1260:1 1267:1 1272:1 1274:1 1278:1 1282:2
1 154:1 1252:1 1282:4
1 154:1 1252:1 1282:4
1 336:3 351:1 423:1 440:1 583:1 621:1 806:1 900:2 1044:1 1080:4 1177:2 1234:3 1235:1 1246:2 1247:2 1248:1 1251:1 1254:1 1260:1 1272:1 1274:1 1278:4 1282:6
1 154:1 1252:1 1282:4
1 640:1 1261:1 1282:2
1 154:1 1252:1 1282:4
1 140:1 423:1 684:1 710:1 715:1 816:1 900:1 1080:1 1177:1 1229:1 1244:1 1245:1 1246:1 1247:1 1253:1 1258:1 1260:1 1278:1 1282:5
1 154:1 1252:1 1282:3
1 336:1 423:1 440:1 583:1 806:1 900:1 1080:1 1177:1 1234:1 1235:1 1246:1 1247:1 1260:1 1272:1 1274:1 1278:1 1282:5
1 914:1 1080:1 1259:1 1278:1 1282:2
1 154:1 1252:1 1282:5
1 640:1 1261:1 1282:1
1 154:1 1252:1 1282:4
1 140:1 423:1 684:1 710:1 715:1 816:1 900:1 1080:1 1177:1 1229:1 1244:1 1245:1 1246:1 1247:1 1253:1 1258:1 1260:1 1278:1 1282:4
1 319:1 328:1 336:1 351:1 423:1 440:1 583:1 621:1 715:1 806:1 900:1 957:1 1044:1 1080:1 1134:1 1171:1 1176:1 1177:1 1217:1 1219:1 1227:1 1234:1 1235:1 1239:1 1243:1 1246:1 1247:1 1248:1 1251:1 1254:1 1258:1 1260:1 1267:1 1272:1 1274:1 1278:1 1282:2
1 140:1 423:1 684:1 710:1 715:1 816:1 900:1 1080:1 1177:1 1229:1 1244:1 1245:1 1246:1 1247:1 1253:1 1258:1 1260:1 1278:1 1282:4
1 336:3 423:1 440:1 583:1 621:1 806:1 900:2 1044:1 1080:4 1177:3 1234:3 1235:1 1238:1 1246:3 1247:2 1248:1 1251:1 1260:1 1272:1 1274:1 1278:4 1282:6
1 140:1 423:1 684:1 710:1 715:1 900:1 1080:1 1177:1 1229:1 1244:1 1246:1 1247:1 1253:1 1258:1 1260:1 1278:1 1282:3
1 154:1 1252:1 1282:4
1 336:3 423:1 440:1 621:1 715:2 806:1 900:2 1080:4 1177:2 1234:3 1235:1 1246:2 1247:2 1248:1 1258:2 1260:1 1274:1 1278:4 1282:7
1 154:1 1252:1 1282:4
1 319:1 336:2 423:1 440:1 477:1 806:1 900:2 1080:4 1177:2 1219:1 1234:2 1235:1 1241:1 1246:2 1247:2 1260:1 1274:1 1278:4 1282:7
1 140:1 423:1 684:1 710:1 715:1 816:1 900:1 1080:1 1177:1 1229:1 1244:1 1245:1 1246:1 1247:1 1253:1 1258:1 1260:1 1278:1 1282:5
1 319:1 336:3 423:1 440:1 621:1 715:1 806:1 900:2 1080:4 1177:2 1219:1 1234:3 1235:1 1246:2 1247:2 1248:1 1258:1 1260:1 1274:1 1278:4 1282:7
1 640:1 1261:1 1282:1
1 154:1 1252:1 1282:5
1 154:1 1252:1 1282:3
1 154:1 1252:1 1282:3
1 640:1 1080:1 1261:1 1278:1 1282:4
1 1282:2
1 154:1 1252:1 1282:4
1 154:1 1252:1 1282:5
1 154:1 1252:1 1282:5
1 640:1 1261:1 1282:4
1 154:1 1252:1 1282:3
1 140:1 423:1 684:1 710:1 715:1 816:1 900:1 1080:1 1177:1 1229:1 1244:1 1245:1 1246:1 1247:1 1253:1 1258:1 1260:1 1278:1 1282:4
1 154:1 1252:1 1282:3
1 154:1 1252:1 1282:4
1 423:1 440:1 621:1 715:1 900:1 1080:1 1177:1 1246:1 1247:1 1248:1 1258:1 1260:1 1274:1 1278:1 1282:3
1 154:1 1252:1 1282:3
1 319:1 328:1 336:1 351:1 423:1 440:1 583:1 621:1 715:1 806:1 900:1 957:1 1044:1 1080:1 1134:1 1171:1 1176:1 1177:1 1217:1 1219:1 1227:1 1234:1 1235:1 1239:1 1243:1 1246:1 1247:1 1248:1 1251:1 1254:1 1258:1 1260:1 1267:1 1272:1 1274:1 1278:1 1282:2
1 154:1 1252:1 1282:4
1 140:1 423:1 684:1 710:1 715:1 816:1 900:1 1080:1 1177:1 1229:1 1244:1 1245:1 1246:1 1247:1 1253:1 1258:1 1260:1 1278:1 1282:4
1 154:1 1252:1 1282:2
1 154:1 1252:1 1282:5
1 154:1 1252:1 1282:4
1 640:1 1261:1 1282:1
1 154:1 1252:1 1282:4
1 319:1 336:2 423:1 440:1 477:1 806:1 900:2 1080:4 1177:2 1219:1 1234:2 1235:1 1241:1 1246:2 1247:2 1260:1 1274:1 1278:4 1282:6
1 154:1 1252:1 1282:4
1 140:1 423:1 684:1 710:1 715:1 816:1 900:1 1080:1 1177:1 1229:1 1244:1 1245:1 1246:1 1247:1 1253:1 1258:1 1260:1 1278:1 1282:5
1 336:3 423:1 440:1 621:1 806:1 900:2 1080:4 1177:2 1234:3 1235:1 1246:2 1247:2 1248:1 1260:1 1274:1 1278:4 1282:6
1 154:1 1252:1 1282:4
1 154:1 1252:1 1282:5
1 154:1 1252:1 1282:4
1 154:1 1252:1 1282:5
1 1282:3
1 336:2 423:1 440:1 806:1 900:2 1080:4 1177:2 1234:2 1235:1 1246:2 1247:2 1260:1 1274:1 1278:4 1282:7
1 154:1 1252:1 1282:4
1 640:1 1261:1 1282:1
1 621:1 900:1 1080:1 1177:1 1246:1 1247:1 1248:1 1278:1 1282:3
1 154:1 1252:1 1282:5
1 140:1 423:1 684:1 710:1 715:1 816:1 900:1 1080:1 1177:1 1229:1 1244:1 1245:1 1246:1 1247:1 1253:1 1258:1 1260:1 1278:1 1282:4
1 423:1 621:1 647:1 715:1 900:1 1044:1 1080:1 1177:1 1246:1 1247:1 1248:1 1251:1 1258:1 1260:1 1269:1 1278:1 1282:3
1 336:3 423:1 440:1 621:1 806:1 900:2 1080:4 1177:2 1234:3 1235:1 1246:2 1247:2 1248:1 1260:1 1274:1 1278:4 1282:6
1 900:1 1080:1 1247:1 1278:1 1282:3 1284:1
1 154:1 1252:1 1282:4
1 154:1 1252:1 1282:4
1 319:1 328:1 336:1 351:1 423:1 440:1 583:1 621:1 715:1 806:1 900:1 957:1 1044:1 1080:1 1134:1 1171:1 1176:1 1177:1 1217:1 1219:1 1227:1 1234:1 1235:1 1239:1 1243:1 1246:1 1247:1 1248:1 1251:1 1254:1 1258:1 1260:1 1267:1 1272:1 1274:1 1278:1 1282:2
1 640:1 1080:1 1261:1 1278:1 1282:4
1 154:1 1252:1 1282:4
1 423:1 684:1 710:1 715:1 816:1 900:1 1080:1 1177:1 1229:1 1245:1 1246:1 1247:1 1253:1 1258:1 1260:1 1278:1 1282:3
1 640:1 1261:1 1282:2
1 154:1 1252:1 1282:5
1 914:1 1080:1 1259:1 1278:1 1282:2
1 140:1 423:1 684:1 710:1 715:1 816:1 900:1 1080:1 1177:1 1229:1 1244:1 1245:1 1246:1 1247:1 1253:1 1258:1 1260:1 1278:1 1282:4
1 336:2 423:1 440:1 583:1 806:1 900:2 1080:4 1177:2 1234:2 1235:1 1246:2 1247:2 1260:1 1272:1 1274:1 1278:4 1282:6
1 423:1 440:1 621:1 715:1 900:1 1080:1 1177:1 1246:1 1247:1 1248:1 1258:1 1260:1 1274:1 1278:1 1282:3
1 336:3 423:1 440:1 621:1 715:1 806:1 900:2 1080:4 1177:3 1234:3 1235:1 1238:1 1246:3 1247:2 1248:1 1258:1 1260:1 1274:1 1278:4 1282:6
1 140:1 423:1 684:1 710:1 715:1 816:1 900:1 1080:1 1177:1 1229:1 1244:1 1245:1 1246:1 1247:1 1253:1 1258:1 1260:1 1278:1 1282:4
1 154:1 1252:1 1282:3
1 140:1 423:1 684:1 710:1 715:1 816:1 900:1 1080:1 1177:1 1229:1 1244:1 1245:1 1246:1 1247:1 1253:1 1258:1 1260:1 1278:1 1282:4
1 140:1 423:1 684:1 710:1 715:1 816:1 900:1 1080:1 1177:1 1229:1 1244:1 1245:1 1246:1 1247:1 1253:1 1258:1 1260:1 1278:1 1282:4
1 336:3 423:1 440:1 477:1 583:1 621:1 806:1 900:2 1080:4 1177:2 1234:3 1235:1 1241:1 1246:2 1247:2 1248:1 1260:1 1272:1 1274:1 1278:4 1282:7
1 154:1 1252:1 1282:5
1 154:1 1252:1 1282:5
1 154:1 1252:1 1282:4
1 640:1 1080:1 1261:1 1278:1 1282:4
1 336:1 423:1 440:1 621:1 715:1 806:1 900:1 1080:1 1177:1 1234:1 1235:1 1246:1 1247:1 1248:1 1258:1 1260:1 1274:1 1278:1 1282:5
1 319:1 328:1 336:1 351:1 423:1 440:1 583:1 621:1 715:1 806:1 900:1 957:1 1044:1 1080:1 1134:1 1171:1 1176:1 1177:1 1217:1 1219:1 1227:1 1234:1 1235:1 1239:1 1243:1 1246:1 1247:1 1248:1 1251:1 1254:1 1258:1 1260:1 1267:1 1272:1 1274:1 1278:1 1282:2
1 154:1 1252:1 1282:4
1 914:1 1080:1 1259:1 1278:1 1282:2
1 154:1 1252:1 1282:4
1 423:1 440:1 621:1 715:1 806:1 900:1 1080:1 1177:1 1235:1 1246:1 1247:1 1248:1 1258:1 1260:1 1274:1 1278:1 1282:3
1 154:1 1252:1 1282:5
1 154:1 1252:1 1282:3
1 336:3 423:1 440:1 621:1 806:1 900:2 1044:1 1080:4 1177:3 1234:3 1235:1 1246:3 1247:2 1248:1 1251:1 1260:1 1274:1 1278:4 1282:6
1 140:1 423:1 684:1 710:1 715:1 816:1 900:1 1080:1 1177:1 1229:1 1244:1 1245:1 1246:1 1247:1 1253:1 1258:1 1260:1 1278:1 1282:5
1 914:1 1080:1 1259:1 1278:1 1282:2
1 154:1 1252:1 1282:4
1 336:3 423:1 440:1 621:1 806:1 900:2 1080:4 1177:2 1234:3 1235:1 1246:2 1247:2 1248:1 1260:1 1274:1 1278:4 1282:6
1 154:1 1252:1 1282:4
1 423:1 440:1 621:1 715:1 900:1 1080:1 1177:1 1246:1 1247:1 1248:1 1258:1 1260:1 1274:1 1278:1 1282:3
1 140:1 423:1 684:1 710:1 715:1 816:1 900:1 1080:1 1177:1 1229:1 1244:1 1245:1 1246:1 1247:1 1253:1 1258:1 1260:1 1278:1 1282:4
1 154:1 1252:1 1282:4
1 220:1 336:3 423:1 440:1 621:2 715:1 806:1 900:2 914:1 1080:4 1177:2 1234:3 1235:1 1246:2 1247:2 1248:2 1258:1 1259:1 1260:1 1270:1 1274:1 1278:4 1282:6
1 914:1 1080:1 1259:1 1278:1 1282:2
1 914:1 1080:1 1259:1 1278:1 1282:2
1 423:1 440:1 583:1 621:1 710:1 715:1 806:1 900:1 914:1 1080:1 1177:1 1235:1 1246:1 1247:1 1248:1 1253:1 1258:1 1259:1 1260:1 1272:1 1274:1 1278:1 1282:1
1 423:1 440:1 621:1 715:1 900:1 1080:1 1177:1 1246:1 1247:1 1248:1 1258:1 1260:1 1274:1 1278:1 1282:3
1 154:1 1252:1 1282:5
1 336:2 423:1 440:1 806:1 900:2 1080:4 1177:2 1234:2 1235:1 1246:2 1247:2 1260:1 1274:1 1278:4 1282:7
1 423:1 440:1 715:1 900:1 1080:1 1177:1 1246:1 1247:1 1258:1 1260:1 1274:1 1278:1 1282:4
1 319:1 328:1 336:1 351:1 423:1 440:1 583:1 621:1 715:1 806:1 900:1 957:1 1044:1 1080:1 1134:1 1171:1 1176:1 1177:1 1217:1 1219:1 1227:1 1234:1 1235:1 1239:1 1243:1 1246:1 1247:1 1248:1 1251:1 1254:1 1258:1 1260:1 1267:1 1272:1 1274:1 1278:1 1282:2
1 914:1 1080:1 1259:1 1278:1 1282:2
1 914:1 1080:1 1259:1 1278:1 1282:2
1 336:3 423:1 440:1 621:1 806:1 900:2 1044:1 1080:4 1177:2 1234:3 1235:1 1246:2 1247:2 1248:1 1251:1 1260:1 1274:1 1278:4 1282:6
1 154:1 1252:1 1282:4
1 621:1 1080:1 1177:1 1246:1 1248:1 1278:1 1282:2
1 336:3 423:1 440:1 455:1 621:1 806:1 900:2 1044:1 1080:4 1177:2 1215:1 1234:3 1235:1 1246:2 1247:2 1248:1 1251:1 1260:1 1274:1 1278:4 1282:6
1 336:3 423:1 440:1 621:1 806:1 900:2 1080:4 1177:2 1234:3 1235:1 1246:2 1247:2 1248:1 1260:1 1274:1 1278:4 1282:7
1 172:1 336:1 423:1 440:1 455:1 584:1 621:1 697:1 710:1 715:1 843:1 900:1 914:1 957:1 1080:1 1177:1 1215:1 1217:1 1234:1 1240:1 1246:1 1247:1 1248:1 1253:1 1258:1 1259:1 1260:1 1264:1 1274:1 1275:1 1276:1 1278:1 1282:2 1284:1
1 140:1 423:1 684:1 710:1 715:1 816:1 900:1 1080:1 1177:1 1229:1 1244:1 1245:1 1246:1 1247:1 1253:1 1258:1 1260:1 1278:1 1282:4
1 640:1 1261:1 1282:4
1 154:1 1252:1 1282:4
1 914:1 1080:1 1259:1 1278:1 1282:2
1 621:1 1080:1 1177:1 1246:1 1248:1 1278:1 1282:2
1 140:1 423:1 684:1 710:1 715:1 816:1 900:1 1080:1 1177:1 1229:1 1244:1 1245:1 1246:1 1247:1 1253:1 1258:1 1260:1 1278:1 1282:4
1 154:1 1252:1 1282:4
1 154:1 1252:1 1282:5
1 140:1 423:1 684:1 710:1 715:1 816:1 900:1 1080:1 1177:1 1229:1 1244:1 1245:1 1246:1 1247:1 1253:1 1258:1 1260:1 1278:1 1282:5
1 423:1 440:1 621:1 715:1 900:1 1080:1 1177:1 1246:1 1247:1 1248:1 1258:1 1260:1 1274:1 1278:1 1282:4
1 154:1 1252:1 1282:4
1 336:3 423:1 440:1 455:1 583:1 621:1 697:1 806:1 900:2 1044:1 1080:4 1177:2 1215:1 1234:3 1235:1 1240:1 1246:2 1247:2 1248:1 1251:1 1260:1 1272:1 1274:1 1278:4 1282:7
1 1080:1 1278:1 1282:2
1 423:1 440:1 621:1 715:1 900:1 1080:1 1177:1 1246:1 1247:1 1248:1 1258:1 1260:1 1274:1 1278:1 1282:4
1 336:3 423:1 440:1 621:1 806:1 900:2 1080:4 1177:3 1234:3 1235:1 1238:1 1246:3 1247:2 1248:1 1260:1 1274:1 1278:4 1282:6
1 154:1 1252:1 1282:5
1 140:1 423:1 684:1 710:1 715:1 816:1 900:1 1080:1 1177:1 1229:1 1244:1 1245:1 1246:1 1247:1 1253:1 1258:1 1260:1 1278:1 1282:4
1 140:1 423:1 684:1 710:1 715:1 816:1 900:1 1080:1 1177:1 1229:1 1244:1 1245:1 1246:1 1247:1 1253:1 1258:1 1260:1 1278:1 1282:4
1 154:1 1252:1 1282:3
1 154:1 1252:1 1282:5
1 154:1 1252:1 1282:4
1 640:1 1261:1 1282:2
1 423:1 684:1 900:1 1080:1 1229:1 1247:1 1260:1 1278:1 1282:3
1 154:1 1252:1 1282:3
1 140:1 423:1 684:1 710:1 715:1 816:1 900:1 1080:1 1177:1 1229:1 1244:1 1245:1 1246:1 1247:1 1253:1 1258:1 1260:1 1278:1 1282:3
1 154:1 1252:1 1282:4
1 914:1 1080:1 1259:1 1278:1 1282:2
1 640:1 1261:1 1282:2
1 154:1 1252:1 1282:4
1 1282:2
1 154:1 1252:1 1282:3
1 172:1 336:1 423:1 440:1 455:1 584:1 621:1 697:1 710:1 715:1 843:1 900:1 914:1 957:1 1080:1 1177:1 1215:1 1217:1 1234:1 1240:1 1246:1 1247:1 1248:1 1253:1 1258:1 1259:1 1260:1 1264:1 1274:1 1275:1 1276:1 1278:1 1282:3 1284:1
1 423:1 440:1 621:1 715:1 900:1 1080:1 1177:1 1246:1 1247:1 1248:1 1258:1 1260:1 1274:1 1278:1 1282:3
1 914:1 1080:1 1259:1 1278:1 1282:2
1 423:1 440:1 621:1 715:1 900:1 1080:1 1177:1 1246:1 1247:1 1248:1 1258:1 1260:1 1274:1 1278:1 1282:3
1 154:1 1252:1 1282:4
1 154:1 1252:1 1282:4
1 154:1 1252:1 1282:4
1 640:1 1261:1 1282:3
1 154:1 1252:1 1282:3
1 914:1 1080:1 1259:1 1278:1 1282:2
1 154:1 1252:1 1282:3
1 319:1 328:1 336:1 351:1 423:1 440:1 583:1 621:1 715:1 806:1 900:1 957:1 1044:1 1080:1 1134:1 1171:1 1176:1 1177:1 1217:1 1219:1 1227:1 1234:1 1235:1 1239:1 1243:1 1246:1 1247:1 1248:1 1251:1 1254:1 1258:1 1260:1 1267:1 1272:1 1274:1 1278:1 1282:2
1 140:1 324:1 423:1 621:1 684:1 710:1 715:1 816:1 900:1 1080:1 1177:1 1222:1 1229:1 1244:1 1245:1 1246:1 1247:1 1248:1 1253:1 1258:1 1260:1 1278:1 1282:6
1 154:1 1252:1 1282:2
1 154:1 1252:1 1282:3
1 914:1 1080:1 1259:1 1278:1 1282:2
1 154:1 1252:1 1282:4
1 154:1 1252:1 1282:2
1 154:1 1252:1 1282:4
1 154:1 1252:1 1282:4
1 140:1 423:1 684:1 710:1 715:1 816:1 900:1 1080:1 1177:1 1229:1 1244:1 1245:1 1246:1 1247:1 1253:1 1258:1 1260:1 1278:1 1282:4
1 140:1 423:1 684:1 710:1 715:1 816:1 900:1 1080:1 1177:1 1229:1 1244:1 1245:1 1246:1 1247:1 1253:1 1258:1 1260:1 1278:1 1282:4
1 154:1 1252:1 1282:4
1 154:1 1252:1 1282:3
1 640:1 1080:1 1177:1 1246:1 1261:1 1278:1 1282:2
1 154:1 1252:1 1282:4
1 640:1 1261:1 1282:1
1 154:1 1252:1 1282:4
1 154:1 1252:1 1282:4
1 154:1 1252:1 1282:4
1 154:1 1252:1 1282:3
1 154:1 1252:1 1282:4
1 154:1 1252:1 1282:2
1 423:1 440:1 621:1 715:1 900:1 1080:1 1177:1 1246:1 1247:1 1248:1 1258:1 1260:1 1274:1 1278:1 1282:3
1 336:2 423:1 440:1 583:1 806:1 900:2 1080:4 1177:2 1234:2 1235:1 1246:2 1247:2 1260:1 1272:1 1274:1 1278:4 1282:7
1 140:1 423:1 684:1 710:1 715:1 816:1 900:1 1080:1 1177:1 1229:1 1244:1 1245:1 1246:1 1247:1 1253:1 1258:1 1260:1 1278:1 1282:4
1 336:3 423:1 440:1 621:1 806:1 900:2 1080:4 1177:3 1234:3 1235:1 1238:1 1246:3 1247:2 1248:1 1260:1 1274:1 1278:4 1282:6
1 154:1 1252:1 1282:3
1 154:1 1252:1 1282:4
1 154:1 1252:1 1282:4
1 640:1 1261:1 1282:1
1 154:1 1252:1 1282:3
1 154:1 1252:1 1282:4
1 640:1 1261:1 1282:1
1 154:1 1252:1 1282:4
1 154:1 1252:1 1282:5
1 154:1 1252:1 1282:4
1 324:1 336:1 423:1 440:1 450:1 455:1 621:1 697:1 715:1 900:1 914:1 927:1 957:1 1044:1 1080:1 1177:1 1215:1 1217:1 1222:1 1234:1 1240:1 1246:1 1247:1 1248:1 1251:1 1258:1 1259:1 1260:1 1266:1 1274:1 1278:1 1280:1 1282:3
1 140:1 423:1 684:1 710:1 715:1 816:1 900:1 1080:1 1177:1 1229:1 1244:1 1245:1 1246:1 1247:1 1253:1 1258:1 1260:1 1278:1 1282:4
1 423:1 440:1 621:1 715:1 806:1 900:1 1080:1 1177:1 1235:1 1246:1 1247:1 1248:1 1258:1 1260:1 1274:1 1278:1 1282:3
1 154:1 1252:1 1282:4
1 640:1 1261:1 1282:2
1 220:1 336:3 423:1 440:1 621:2 715:1 806:1 900:2 914:1 1080:4 1177:2 1234:3 1235:1 1246:2 1247:2 1248:2 1258:1 1259:1 1260:1 1270:1 1274:1 1278:4 1282:6
1 154:1 1252:1 1282:4
1 154:1 1252:1 1282:4
1 336:2 423:1 440:1 583:1 806:1 900:2 1043:1 1080:4 1177:2 1234:2 1235:1 1246:2 1247:2 1249:1 1260:1 1272:1 1274:1 1278:4 1282:6
1 640:1 1261:1 1282:2
1 154:1 1252:1 1282:4
1 140:1 423:1 684:1 710:1 715:1 816:1 900:1 1080:1 1177:1 1229:1 1244:1 1245:1 1246:1 1247:1 1253:1 1258:1 1260:1 1278:1 1282:4
1 640:1 1261:1 1282:2
1 154:1 1252:1 1282:4
1 640:1 1261:1 1282:2
1 154:1 1252:1 1282:3
1 336:2 423:1 440:1 583:1 806:1 900:2 1080:4 1177:3 1234:2 1235:1 1238:1 1246:3 1247:2 1260:1 1272:1 1274:1 1278:4 1282:7
1 640:1 843:1 1080:1 1177:1 1246:1 1261:1 1264:1 1278:1 1282:1
1 715:1 900:1 1080:1 1247:1 1258:1 1278:1 1282:3
1 336:3 423:1 440:1 621:1 806:1 900:2 1044:1 1080:4 1177:3 1234:3 1235:1 1238:1 1246:3 1247:2 1248:1 1251:1 1260:1 1274:1 1278:4 1282:6
1 423:1 440:1 621:1 715:1 900:1 1080:1 1177:1 1246:1 1247:1 1248:1 1258:1 1260:1 1274:1 1278:1 1282:3
1 154:1 1252:1 1282:5
1 154:1 1252:1 1282:4
1 336:2 423:1 440:1 806:1 900:2 1080:4 1177:2 1234:2 1235:1 1246:2 1247:2 1260:1 1274:1 1278:4 1282:7
1 640:1 1261:1 1282:2
1 140:1 423:1 684:1 710:1 715:1 816:1 900:1 1080:1 1177:1 1229:1 1244:1 1245:1 1246:1 1247:1 1253:1 1258:1 1260:1 1278:1 1282:4
1 140:1 423:1 684:1 710:1 715:1 816:1 900:1 1080:1 1177:1 1229:1 1244:1 1245:1 1246:1 1247:1 1253:1 1258:1 1260:1 1278:1 1282:4
1 336:1 621:1 1080:1 1234:1 1248:1 1278:1 1282:3
1 154:1 1252:1 1282:4
1 154:1 1252:1 1282:4
1 154:1 1252:1 1282:4
1 423:1 440:1 621:1 715:1 900:1 1080:1 1177:1 1246:1 1247:1 1248:1 1258:1 1260:1 1274:1 1278:1 1282:3
1 154:1 1252:1 1282:3
1 336:3 423:1 440:1 621:1 806:1 900:2 1080:4 1177:2 1234:3 1235:1 1246:2 1247:2 1248:1 1260:1 1274:1 1278:4 1282:6
1 640:1 1261:1 1282:1
1 640:1 1261:1 1282:4
1 336:3 423:1 440:1 621:1 806:1 900:2 1080:4 1177:2 1234:3 1235:1 1246:2 1247:2 1248:1 1260:1 1274:1 1278:4 1282:7
1 324:1 621:1 684:1 715:1 816:1 900:1 1080:1 1177:1 1222:1 1229:1 1245:1 1246:1 1247:1 1248:1 1258:1 1278:1 1282:2
1 423:1 440:1 583:1 621:1 710:1 715:1 806:1 900:1 914:1 1080:1 1177:1 1235:1 1246:1 1247:1 1248:1 1253:1 1258:1 1259:1 1260:1 1272:1 1274:1 1278:1 1282:1
1 423:1 440:1 621:1 715:1 900:1 1080:1 1177:1 1246:1 1247:1 1248:1 1258:1 1260:1 1274:1 1278:1 1282:3
1 621:1 900:1 1080:1 1177:1 1246:1 1247:1 1248:1 1278:1 1282:3
1 154:1 1252:1 1282:5
1 336:2 423:1 440:1 583:1 621:1 806:1 900:2 1080:4 1177:2 1234:2 1235:1 1246:2 1247:2 1248:1 1260:1 1272:1 1274:1 1278:4 1282:7
1 154:1 1252:1 1282:4
1 336:3 423:1 440:1 583:1 621:1 806:1 900:2 1080:4 1177:2 1234:3 1235:1 1246:2 1247:2 1248:1 1260:1 1272:1 1274:1 1278:4 1282:6
1 423:1 440:1 621:1 715:1 806:1 900:1 1080:1 1177:1 1235:1 1246:1 1247:1 1248:1 1258:1 1260:1 1274:1 1278:1 1282:3
1 154:1 1252:1 1282:4
1 336:3 423:1 440:1 621:1 806:1 900:2 1080:5 1177:2 1234:3 1235:1 1246:2 1247:2 1248:1 1260:1 1274:1 1278:5 1282:7
1 140:1 423:1 684:1 710:1 715:1 816:1 900:1 1080:1 1177:1 1229:1 1244:1 1245:1 1246:1 1247:1 1253:1 1258:1 1260:1 1278:1 1282:5
1 154:1 1252:1 1282:4
1 583:1 900:1 1080:1 1247:1 1272:1 1278:1 1282:2
1 319:1 328:1 336:1 351:1 423:1 440:1 583:1 621:1 715:1 806:1 900:1 957:1 1044:1 1080:1 1134:1 1171:1 1176:1 1177:1 1217:1 1219:1 1227:1 1234:1 1235:1 1239:1 1243:1 1246:1 1247:1 1248:1 1251:1 1254:1 1258:1 1260:1 1267:1 1272:1 1274:1 1278:1 1282:5
1 336:3 423:1 440:1 621:1 806:1 900:2 1080:4 1177:2 1234:3 1235:1 1246:2 1247:2 1248:1 1260:1 1274:1 1278:4 1282:7
1 154:1 1252:1 1282:4
1 154:1 1252:1 1282:4
1 140:1 423:1 684:1 710:1 715:1 816:1 900:1 1080:1 1177:1 1229:1 1244:1 1245:1 1246:1 1247:1 1253:1 1258:1 1260:1 1278:1 1282:4
1 154:1 1252:1 1282:3
1 336:2 423:1 440:1 806:1 900:2 1080:4 1177:2 1234:2 1235:1 1246:2 1247:2 1260:1 1274:1 1278:4 1282:7
1 220:1 336:1 423:1 440:1 450:1 583:1 621:1 900:1 1080:1 1177:1 1234:1 1246:1 1247:1 1248:1 1260:1 1270:1 1272:1 1274:1 1278:1 1280:1 1282:3
1 154:1 1252:1 1282:4
1 154:1 1252:1 1282:5
1 140:1 423:1 684:1 710:1 715:1 816:1 900:1 1080:1 1177:1 1229:1 1244:1 1245:1 1246:1 1247:1 1253:1 1258:1 1260:1 1278:1 1282:5
1 154:1 1252:1 1282:6
1 154:1 1252:1 1282:3
1 140:1 423:1 684:1 710:1 715:1 816:1 900:1 1080:1 1177:1 1229:1 1244:1 1245:1 1246:1 1247:1 1253:1 1258:1 1260:1 1278:1 1282:5
1 336:1 423:1 440:1 621:1 715:1 806:1 900:1 1080:1 1177:1 1234:1 1235:1 1246:1 1247:1 1248:1 1258:1 1260:1 1274:1 1278:1 1282:5
1 154:1 1252:1 1282:3
1 336:2 423:1 440:1 583:1 697:1 806:1 900:2 1080:4 1177:2 1234:2 1235:1 1240:1 1246:2 1247:2 1260:1 1272:1 1274:1 1278:4 1282:6
1 154:1 1252:1 1282:4
1 154:1 1252:1 1282:4
1 140:1 423:1 684:1 710:1 715:1 816:1 900:1 1080:1 1177:1 1229:1 1244:1 1245:1 1246:1 1247:1 1253:1 1258:1 1260:1 1278:1 1282:4
1 154:1 1252:1 1282:5
1 140:1 423:1 684:1 710:1 715:1 816:1 900:1 1080:1 1177:1 1229:1 1244:1 1245:1 1246:1 1247:1 1253:1 1258:1 1260:1 1278:1 1282:3
1 154:1 1252:1 1282:5
1 154:1 1252:1 1282:5
1 423:1 440:1 621:1 715:1 900:1 1080:1 1177:1 1246:1 1247:1 1248:1 1258:1 1260:1 1274:1 1278:1 1282:3
1 900:1 1080:1 1247:1 1278:1 1282:3 1284:1
1 140:1 423:1 684:1 710:1 715:1 816:1 900:1 1080:1 1177:1 1229:1 1244:1 1245:1 1246:1 1247:1 1253:1 1258:1 1260:1 1278:1 1282:4
1 336:2 423:1 440:1 583:1 806:1 900:2 1080:4 1177:2 1234:2 1235:1 1246:2 1247:2 1260:1 1272:1 1274:1 1278:4 1282:7
1 154:1 1252:1 1282:4
1 154:1 1252:1 1282:4
1 154:1 1252:1 1282:3
1 154:1 1252:1 1282:3
1 140:1 423:1 684:1 710:1 715:1 816:1 900:1 1080:1 1177:1 1229:1 1244:1 1245:1 1246:1 1247:1 1253:1 1258:1 1260:1 1278:1 1282:4
1 154:1 1252:1 1282:3
1 140:1 423:1 684:1 710:1 715:1 816:1 900:1 1080:1 1177:1 1229:1 1244:1 1245:1 1246:1 1247:1 1253:1 1258:1 1260:1 1278:1 1282:5
1 336:2 423:1 440:1 806:1 900:2 1080:4 1177:2 1234:2 1235:1 1246:2 1247:2 1260:1 1274:1 1278:4 1282:7
1 154:1 1252:1 1282:4
1 319:1 328:1 336:1 351:1 423:1 440:1 583:1 621:1 715:1 806:1 900:1 957:1 1044:1 1080:1 1134:1 1171:1 1176:1 1177:1 1217:1 1219:1 1227:1 1234:1 1235:1 1239:1 1243:1 1246:1 1247:1 1248:1 1251:1 1254:1 1258:1 1260:1 1267:1 1272:1 1274:1 1278:1 1282:2
1 154:1 1252:1 1282:4
1 324:1 621:1 684:1 715:1 816:1 900:1 1080:1 1177:1 1222:1 1229:1 1245:1 1246:1 1247:1 1248:1 1258:1 1278:1 1282:2
1 336:2 423:1 440:1 583:1 806:1 900:2 1080:4 1177:2 1234:2 1235:1 1246:2 1247:2 1260:1 1272:1 1274:1 1278:4 1282:6
1 154:1 1252:1 1282:4
1 140:1 423:1 684:1 710:1 715:1 816:1 900:1 1080:1 1177:1 1229:1 1244:1 1245:1 1246:1 1247:1 1253:1 1258:1 1260:1 1278:1 1282:4
1 1282:2
1 154:1 1252:1 1282:5
1 336:2 423:1 440:1 715:1 806:1 900:2 1080:4 1177:2 1234:2 1235:1 1246:2 1247:2 1258:1 1260:1 1274:1 1278:4 1282:6
1 154:1 1252:1 1282:4
1 336:3 423:1 440:1 621:1 806:1 900:2 1044:1 1080:4 1177:3 1234:3 1235:1 1246:3 1247:2 1248:1 1251:1 1260:1 1274:1 1278:4 1282:6
1 640:1 1261:1 1282:2
1 154:1 1252:1 1282:3
1 336:2 423:1 440:1 806:1 900:2 1080:4 1177:2 1234:2 1235:1 1246:2 1247:2 1260:1 1274:1 1278:4 1282:6
1 154:1 1252:1 1282:3
1 336:2 423:1 440:1 583:1 806:1 900:2 1080:4 1177:2 1234:2 1235:1 1246:2 1247:2 1260:1 1272:1 1274:1 1278:4 1282:7
1 154:1 1252:1 1282:2
1 154:1 1252:1 1282:3
1 154:1 1252:1 1282:4
1 154:1 1252:1 1282:4
1 154:1 1252:1 1282:5
1 914:1 1080:1 1259:1 1278:1 1282:2
1 154:1 1252:1 1282:4
1 316:1 336:2 423:2 440:1 621:2 715:3 900:3 1044:1 1080:4 1177:3 1216:1 1234:2 1246:3 1247:3 1248:2 1251:1 1258:3 1260:2 1274:1 1278:4 1282:6
1 336:2 351:1 423:1 440:1 806:1 900:2 1080:4 1177:2 1234:2 1235:1 1246:2 1247:2 1254:1 1260:1 1274:1 1278:4 1282:6
1 914:1 1080:1 1259:1 1278:1 1282:2
1 140:1 423:1 684:1 710:1 715:1 816:1 900:1 1080:1 1177:1 1229:1 1244:1 1245:1 1246:1 1247:1 1253:1 1258:1 1260:1 1278:1 1282:4
1 140:1 423:1 684:1 710:1 715:1 900:1 1080:1 1177:1 1229:1 1244:1 1246:1 1247:1 1253:1 1258:1 1260:1 1278:1 1282:3
1 336:3 423:1 440:1 621:1 806:1 900:2 1080:4 1177:3 1234:3 1235:1 1246:3 1247:2 1248:1 1260:1 1274:1 1278:4 1282:6
1 336:3 423:1 440:1 621:1 806:1 900:2 1080:4 1177:2 1234:3 1235:1 1246:2 1247:2 1248:1 1260:1 1274:1 1278:4 1282:7
1 336:3 423:1 440:1 583:1 621:1 715:1 806:1 900:3 1080:4 1177:2 1234:3 1235:1 1246:2 1247:3 1248:1 1258:1 1260:1 1272:1 1274:1 1278:4 1282:7
1 154:1 1252:1 1282:3
1 154:1 1252:1 1282:5
1 423:1 440:1 697:1 715:1 900:1 1080:1 1240:1 1247:1 1258:1 1260:1 1274:1 1278:1 1282:3
1 360:1 423:1 440:1 463:1 547:1 621:1 710:1 715:1 754:1 766:1 843:1 900:1 914:1 1044:1 1080:1 1177:1 1223:1 1233:1 1236:1 1246:1 1247:1 1248:1 1251:1 1253:1 1257:1 1258:1 1259:1 1260:1 1264:1 1268:1 1274:1 1278:1 1282:2
1 336:3 423:1 440:1 621:1 806:1 900:2 1044:1 1080:4 1177:2 1234:3 1235:1 1246:2 1247:2 1248:1 1251:1 1260:1 1274:1 1278:4 1282:6
1 914:1 1080:1 1259:1 1278:1 1282:2
1 140:1 423:1 684:1 710:1 715:1 816:1 900:1 1080:1 1177:1 1229:1 1244:1 1245:1 1246:1 1247:1 1253:1 1258:1 1260:1 1278:1 1282:4
1 121:1 162:1 230:1 393:1 423:1 1043:1 1080:1 1134:1 1190:1 1220:1 1230:1 1249:1 1260:1 1262:1 1263:1 1267:1 1271:1 1273:1 1278:1 1282:3
1 154:1 1252:1 1282:4
1 154:1 1252:1 1282:4
1 154:1 1252:1 1282:3
1 154:1 1252:1 1282:5
1 640:1 1261:1 1282:1
1 154:1 1252:1 1282:4
1 1282:3
1 140:1 423:1 684:1 710:1 715:1 816:1 900:1 1080:1 1177:1 1229:1 1244:1 1245:1 1246:1 1247:1 1253:1 1258:1 1260:1 1278:1 1282:4
1 154:1 1252:1 1282:4
1 336:1 423:1 440:1 450:1 621:1 684:1 715:1 806:1 900:1 1080:1 1177:1 1229:1 1234:1 1235:1 1246:1 1247:1 1248:1 1258:1 1260:1 1274:1 1278:1 1280:1 1282:2 1284:6
1 154:1 1252:1 1282:3
1 154:1 1252:1 1282:3
1 154:1 1252:1 1282:4
1 621:1 900:1 1080:1 1177:1 1246:1 1247:1 1248:1 1278:1 1282:2
1 154:1 1252:1 1282:4
1 140:1 324:1 423:1 621:1 684:1 715:1 816:1 900:1 1080:1 1177:1 1222:1 1229:1 1244:1 1245:1 1246:1 1247:1 1248:1 1258:1 1260:1 1278:1 1282:2
1 336:1 423:1 440:1 583:1 621:1 806:1 900:1 1080:1 1177:1 1234:1 1235:1 1246:1 1247:1 1248:1 1260:1 1272:1 1274:1 1278:1 1282:5
1 154:1 1252:1 1282:3
1 423:1 684:1 710:1 715:1 816:1 900:1 1080:1 1177:1 1229:1 1245:1 1246:1 1247:1 1253:1 1258:1 1260:1 1278:1 1282:3
1 154:1 1252:1 1282:6
1 154:1 1252:1 1282:4
1 423:1 440:1 715:1 900:1 1080:1 1177:1 1246:1 1247:1 1258:1 1260:1 1274:1 1278:1 1282:3
1 319:1 328:1 336:1 351:1 423:1 440:1 583:1 621:1 715:1 806:1 900:1 957:1 1044:1 1080:1 1134:1 1171:1 1176:1 1177:1 1217:1 1219:1 1227:1 1234:1 1235:1 1239:1 1243:1 1246:1 1247:1 1248:1 1251:1 1254:1 1258:1 1260:1 1267:1 1272:1 1274:1 1278:1 1282:5
1 621:1 900:1 1080:1 1177:1 1246:1 1247:1 1248:1 1278:1 1282:2
1 154:1 1252:1 1282:3
1 140:1 423:1 684:1 710:1 715:1 816:1 900:1 1080:1 1177:1 1229:1 1244:1 1245:1 1246:1 1247:1 1253:1 1258:1 1260:1 1278:1 1282:4
1 640:1 1261:1 1282:4
1 336:3 423:1 440:1 621:1 806:1 900:2 1080:4 1177:3 1234:3 1235:1 1246:3 1247:2 1248:1 1260:1 1274:1 1278:4 1282:7
1 336:2 423:1 440:1 583:1 621:1 806:1 900:2 1080:4 1177:2 1234:2 1235:1 1246:2 1247:2 1248:1 1260:1 1272:1 1274:1 1278:4 1282:6
1 140:1 324:1 423:1 621:1 684:1 715:1 816:1 900:1 1080:1 1177:1 1222:1 1229:1 1244:1 1245:1 1246:1 1247:1 1248:1 1258:1 1260:1 1278:1 1282:2
1 324:1 621:1 684:1 715:1 816:1 900:1 1080:1 1177:1 1222:1 1229:1 1245:1 1246:1 1247:1 1248:1 1258:1 1278:1 1282:2
1 154:1 1252:1 1282:4
1 154:1 1252:1 1282:4
1 154:1 1252:1 1282:4
1 140:1 423:1 684:1 710:1 715:1 816:1 900:1 1080:1 1177:1 1229:1 1244:1 1245:1 1246:1 1247:1 1253:1 1258:1 1260:1 1278:1 1282:4
1 154:1 1252:1 1282:4
1 140:1 324:1 423:1 621:1 684:1 715:1 816:1 900:1 1080:1 1177:1 1222:1 1229:1 1244:1 1245:1 1246:1 1247:1 1248:1 1258:1 1260:1 1278:1 1282:2
1 336:3 423:1 440:1 583:1 621:1 806:1 900:2 1080:4 1177:2 1234:3 1235:1 1246:2 1247:2 1248:1 1260:1 1272:1 1274:1 1278:4 1282:8
1 154:1 1252:1 1282:3
1 423:1 440:1 621:1 715:1 900:1 1080:1 1177:1 1246:1 1247:1 1248:1 1258:1 1260:1 1274:1 1278:1 1282:4
1 640:1 1261:1 1282:1
1 154:1 1252:1 1282:4
1 154:1 1252:1 1282:4
1 140:1 324:1 423:1 621:1 684:1 715:1 816:1 900:1 1080:1 1177:1 1222:1 1229:1 1244:1 1245:1 1246:1 1247:1 1248:1 1258:1 1260:1 1278:1 1282:2
1 154:1 1252:1 1282:5
1 140:1 423:1 684:1 710:2 715:1 816:1 900:1 1080:1 1177:1 1229:1 1244:1 1245:1 1246:1 1247:1 1253:2 1258:1 1260:1 1278:1 1282:5
1 154:1 1252:1 1282:4
1 336:3 423:1 440:1 455:1 621:1 806:1 900:2 1044:1 1080:4 1177:2 1215:1 1234:3 1235:1 1246:2 1247:2 1248:1 1251:1 1260:1 1274:1 1278:4 1282:6
1 154:1 1252:1 1282:5
1 154:1 1252:1 1282:4
1 1282:2
1 914:1 1080:1 1259:1 1278:1 1282:2
1 319:1 328:1 336:1 351:1 423:1 440:1 583:1 621:1 715:1 806:1 900:1 957:1 1044:1 1080:1 1134:1 1171:1 1176:1 1177:1 1217:1 1219:1 1227:1 1234:1 1235:1 1239:1 1243:1 1246:1 1247:1 1248:1 1251:1 1254:1 1258:1 1260:1 1267:1 1272:1 1274:1 1278:1 1282:2
1 154:1 1252:1 1282:4
1 140:1 423:1 684:1 710:1 715:1 816:1 900:1 1080:1 1177:1 1229:1 1244:1 1245:1 1246:1 1247:1 1253:1 1258:1 1260:1 1278:1 1282:5
1 423:1 440:1 621:1 715:1 806:1 900:1 1080:1 1177:1 1235:1 1246:1 1247:1 1248:1 1258:1 1260:1 1274:1 1278:1 1282:3
1 336:2 423:1 440:1 715:1 806:1 843:1 900:2 1080:5 1177:2 1234:2 1235:1 1246:2 1247:2 1258:1 1260:1 1264:1 1274:1 1278:5 1282:6
1 640:1 1261:1 1282:2
1 140:1 423:1 684:1 710:1 715:1 816:1 900:1 1080:1 1177:1 1229:1 1244:1 1245:1 1246:1 1247:1 1253:1 1258:1 1260:1 1278:1 1282:5
1 140:1 423:1 684:1 710:1 715:1 816:1 900:1 1080:1 1177:1 1229:1 1244:1 1245:1 1246:1 1247:1 1253:1 1258:1 1260:1 1278:1 1282:4
1 154:1 1252:1 1282:3
1 640:1 1261:1 1282:1
1 154:1 1252:1 1282:4
1 230:1 252:1 324:1 583:1 621:1 1080:1 1222:1 1228:1 1242:1 1248:1 1272:1 1273:1 1278:1 1282:3
1 154:1 1252:1 1282:4
1 154:1 1252:1 1282:4
1 154:1 1252:1 1282:4
1 914:1 1080:1 1259:1 1278:1 1282:2
1 640:1 1261:1 1282:1
1 154:1 1252:1 1282:4
1 154:1 1252:1 1282:5
1 640:1 1261:1 1282:1
1 154:1 1252:1 1282:4
1 914:1 1080:1 1259:1 1278:1 1282:2
1 423:1 440:1 621:1 715:1 900:1 1080:1 1177:1 1246:1 1247:1 1248:1 1258:1 1260:1 1274:1 1278:1 1282:3
1 336:2 423:1 440:1 806:1 900:2 1044:1 1080:4 1177:2 1234:2 1235:1 1246:2 1247:2 1251:1 1260:1 1274:1 1278:4 1282:6
1 640:1 1261:1 1282:2
1 336:3 423:1 440:1 583:1 621:1 715:2 806:1 900:2 1080:4 1177:2 1234:3 1235:1 1246:2 1247:2 1248:1 1258:2 1260:1 1272:1 1274:1 1278:4 1282:7
1 154:1 1252:1 1282:4
1 319:1 328:1 336:1 351:1 423:1 440:1 583:1 621:1 715:1 806:1 900:1 957:1 1044:1 1080:1 1134:1 1171:1 1176:1 1177:1 1217:1 1219:1 1227:1 1234:1 1235:1 1239:1 1243:1 1246:1 1247:1 1248:1 1251:1 1254:1 1258:1 1260:1 1267:1 1272:1 1274:1 1278:1 1282:2
1 140:1 423:1 684:1 710:1 715:1 816:1 900:1 1080:1 1177:1 1229:1 1244:1 1245:1 1246:1 1247:1 1253:1 1258:1 1260:1 1278:1 1282:2
1 154:1 1252:1 1282:4
1 423:1 440:1 621:1 715:1 900:1 1080:1 1177:1 1246:1 1247:1 1248:1 1258:1 1260:1 1274:1 1278:1 1282:3
1 1282:3
1 621:1 900:1 1080:1 1177:1 1246:1 1247:1 1248:1 1278:1 1282:3
1 1282:3
1 154:1 1252:1 1282:4
1 319:1 328:1 336:1 351:1 423:1 440:1 583:1 621:1 715:1 806:1 900:1 957:1 1044:1 1080:1 1134:1 1171:1 1176:1 1177:1 1217:1 1219:1 1227:1 1234:1 1235:1 1239:1 1243:1 1246:1 1247:1 1248:1 1251:1 1254:1 1258:1 1260:1 1267:1 1272:1 1274:1 1278:1 1282:2
1 154:1 1252:1 1282:5
1 336:3 423:1 440:1 583:1 621:1 715:2 806:1 900:2 1080:5 1177:2 1234:3 1235:1 1246:2 1247:2 1248:1 1258:2 1260:1 1272:1 1274:1 1278:5 1282:6
1 336:3 423:1 440:1 621:1 684:1 806:1 900:2 1080:4 1177:2 1229:1 1234:3 1235:1 1238:1 1246:2 1247:2 1248:1 1260:1 1274:1 1278:4 1282:6
1 154:1 1252:1 1282:3
1 154:1 1252:1 1282:4
1 621:1 900:1 1080:1 1177:1 1246:1 1247:1 1248:1 1278:1 1282:3
1 154:1 1252:1 1282:4
1 154:1 1252:1 1282:4
1 154:1 1252:1 1282:4
1 154:1 1252:1 1282:4
1 336:3 423:1 440:1 621:1 806:1 900:2 1080:4 1177:2 1234:3 1235:1 1246:2 1247:2 1248:1 1260:1 1274:1 1278:4 1282:6
1 154:1 1252:1 1282:4
1 324:1 336:1 423:1 440:1 583:1 621:1 715:1 900:1 1080:1 1177:1 1222:1 1234:1 1246:1 1247:1 1248:1 1258:1 1260:1 1272:1 1274:1 1278:1 1282:3
1 154:1 1252:1 1282:4
1 319:1 328:1 336:1 351:1 423:1 440:1 583:1 621:1 715:1 806:1 900:1 957:1 1044:1 1080:1 1134:1 1171:1 1176:1 1177:1 1217:1 1219:1 1227:1 1234:1 1235:1 1239:1 1243:1 1246:1 1247:1 1248:1 1251:1 1254:1 1258:1 1260:1 1267:1 1272:1 1274:1 1278:1 1282:2
1 154:1 1252:1 1282:4
1 1080:1 1278:1 1282:2
1 140:1 423:1 684:1 710:1 715:1 900:1 1080:1 1177:1 1229:1 1244:1 1246:1 1247:1 1253:1 1258:1 1260:1 1278:1 1282:2
1 140:1 423:1 684:1 710:1 715:1 816:1 900:1 1080:1 1177:1 1229:1 1244:1 1245:1 1246:1 1247:1 1253:1 1258:1 1260:1 1278:1 1282:4
1 1080:1 1278:1 1282:2
1 154:1 1252:1 1282:4
1 324:1 621:1 684:1 715:1 816:1 900:1 1080:1 1177:1 1222:1 1229:1 1245:1 1246:1 1247:1 1248:1 1258:1 1278:1 1282:2
1 423:1 440:1 621:1 715:1 806:1 900:1 1080:1 1177:1 1235:1 1246:1 1247:1 1248:1 1258:1 1260:1 1274:1 1278:1 1282:3
1 640:1 1080:1 1261:1 1278:1 1282:4
1 154:1 1252:1 1282:5
1 154:1 1252:1 1282:5
1 336:2 423:1 440:1 583:1 621:1 715:1 806:1 900:2 1080:4 1177:3 1234:2 1235:1 1246:3 1247:2 1248:1 1258:1 1260:1 1272:1 1274:1 1278:4 1282:6
1 710:1 1080:1 1253:1 1278:1 1282:6
1 154:1 1252:1 1282:3
1 640:1 1261:1 1282:4
1 423:1 440:1 621:1 715:1 806:1 900:1 1080:1 1177:1 1235:1 1246:1 1247:1 1248:1 1258:1 1260:1 1274:1 1278:1 1282:3
1 640:1 1261:1 1282:2
1 154:1 1252:1 1282:5
1 900:1 1080:1 1247:1 1278:1 1282:2
1 154:1 1252:1 1282:4
1 319:1 328:1 336:1 351:1 423:1 440:1 583:1 621:1 715:1 806:1 900:1 957:1 1044:1 1080:1 1134:1 1171:1 1176:1 1177:1 1217:1 1219:1 1227:1 1234:1 1235:1 1239:1 1243:1 1246:1 1247:1 1248:1 1251:1 1254:1 1258:1 1260:1 1267:1 1272:1 1274:1 1278:1 1282:2
1 154:1 1252:1 1282:5
1 154:1 1252:1 1282:4
1 140:1 423:1 684:1 710:1 715:1 816:1 900:1 1080:1 1177:1 1229:1 1244:1 1245:1 1246:1 1247:1 1253:1 1258:1 1260:1 1278:1 1282:4
1 154:1 1252:1 1282:4
1 393:1 423:1 715:1 1080:1 1230:1 1258:1 1260:1 1271:1 1278:1 1282:3
1 319:1 328:1 336:1 351:1 423:1 440:1 583:1 621:1 715:1 806:1 900:1 957:1 1044:1 1080:1 1134:1 1171:1 1176:1 1177:1 1217:1 1219:1 1227:1 1234:1 1235:1 1239:1 1243:1 1246:1 1247:1 1248:1 1251:1 1254:1 1258:1 1260:1 1267:1 1272:1 1274:1 1278:1 1282:2
1 154:1 1252:1 1282:3
1 640:1 1261:1 1282:3
1 324:1 336:1 621:1 684:1 715:1 816:1 878:1 900:1 1044:1 1080:1 1177:1 1222:1 1224:1 1229:1 1234:1 1245:1 1246:1 1247:1 1248:1 1251:1 1258:1 1278:1 1282:2
1 154:1 1252:1 1282:4
1 140:1 423:1 684:1 710:1 715:1 816:1 900:1 1080:1 1177:1 1229:1 1244:1 1245:1 1246:1 1247:1 1253:1 1258:1 1260:1 1278:1 1282:2
1 640:1 1261:1 1282:4
1 154:1 1252:1 1282:4
1 154:1 1252:1 1282:4
1 336:3 423:1 440:1 583:1 621:1 806:1 900:2 1080:4 1177:2 1234:3 1235:1 1246:2 1247:2 1248:1 1260:1 1272:1 1274:1 1278:4 1282:7
1 336:2 423:1 440:1 583:1 806:1 900:2 1080:4 1177:2 1234:2 1235:1 1246:2 1247:2 1260:1 1272:1 1274:1 1278:4 1282:6
1 154:1 1252:1 1282:5
1 154:1 1252:1 1282:5
1 775:1 1080:1 1265:1 1278:1 1282:2
1 1282:3
1 336:3 351:1 423:1 440:1 621:1 806:1 900:2 1080:4 1177:2 1234:3 1235:1 1246:2 1247:2 1248:1 1254:1 1260:1 1274:1 1278:4 1282:6
1 319:1 328:1 336:1 351:1 423:1 440:1 583:1 621:1 715:1 806:1 900:1 957:1 1044:1 1080:1 1134:1 1171:1 1176:1 1177:1 1217:1 1219:1 1227:1 1234:1 1235:1 1239:1 1243:1 1246:1 1247:1 1248:1 1251:1 1254:1 1258:1 1260:1 1267:1 1272:1 1274:1 1278:1 1282:2
1 319:1 328:1 336:1 351:1 423:1 440:1 583:1 621:1 715:1 806:1 900:1 957:1 1044:1 1080:1 1134:1 1171:1 1176:1 1177:1 1217:1 1219:1 1227:1 1234:1 1235:1 1239:1 1243:1 1246:1 1247:1 1248:1 1251:1 1254:1 1258:1 1260:1 1267:1 1272:1 1274:1 1278:1 1282:5
1 154:1 1252:1 1282:5
1 154:1 1252:1 1282:5
1 140:1 423:1 684:1 710:1 715:1 816:1 900:1 1080:1 1177:1 1229:1 1244:1 1245:1 1246:1 1247:1 1253:1 1258:1 1260:1 1278:1 1282:4
1 140:1 423:1 684:1 710:1 715:1 816:1 900:1 1080:1 1177:1 1229:1 1244:1 1245:1 1246:1 1247:1 1253:1 1258:1 1260:1 1278:1 1282:5
1 154:1 1252:1 1282:4
1 154:1 1252:1 1282:3
1 154:1 1252:1 1282:5
1 154:1 1252:1 1282:4
1 336:2 423:1 440:1 806:1 900:2 1080:4 1177:3 1234:2 1235:1 1238:1 1246:3 1247:2 1260:1 1274:1 1278:4 1282:6
1 154:1 1252:1 1282:3
1 336:3 423:1 440:1 621:1 806:1 900:2 1080:4 1177:2 1234:3 1235:1 1246:2 1247:2 1248:1 1260:1 1274:1 1278:4 1282:6
1 140:1 423:1 684:1 710:1 715:1 816:1 900:1 1080:1 1177:1 1229:1 1244:1 1245:1 1246:1 1247:1 1253:1 1258:1 1260:1 1278:1 1282:3
1 154:1 1252:1 1282:4
1 140:1 423:1 684:1 710:1 715:1 816:1 900:1 1080:1 1177:1 1229:1 1244:1 1245:1 1246:1 1247:1 1253:1 1258:1 1260:1 1278:1 1282:5
1 154:1 1252:1 1282:4
1 154:1 1252:1 1282:5
1 154:1 1252:1 1282:3
1 140:1 423:1 684:1 710:1 715:1 816:1 900:1 1080:1 1177:1 1229:1 1244:1 1245:1 1246:1 1247:1 1253:1 1258:1 1260:1 1278:1 1282:3
1 154:1 1252:1 1282:4
1 324:1 336:1 423:1 455:1 621:1 697:1 715:1 900:1 914:1 927:1 957:1 1044:1 1080:1 1177:1 1215:1 1217:1 1222:1 1234:1 1240:1 1246:1 1247:1 1248:1 1251:1 1258:1 1259:1 1260:1 1266:1 1278:1 1282:3
1 154:1 1252:1 1282:4
1 154:1 1252:1 1282:4
1 154:1 1252:1 1282:3
1 336:3 423:1 440:1 621:1 806:1 900:2 1080:4 1177:3 1234:3 1235:1 1238:1 1246:3 1247:2 1248:1 1260:1 1274:1 1278:4 1282:6
1 154:1 1252:1 1282:4
1 154:1 1252:1 1282:3
1 319:1 328:1 336:1 351:1 423:1 440:1 583:1 621:1 715:1 806:1 900:1 957:1 1044:1 1080:1 1134:1 1171:1 1176:1 1177:1 1217:1 1219:1 1227:1 1234:1 1235:1 1239:1 1243:1 1246:1 1247:1 1248:1 1251:1 1254:1 1258:1 1260:1 1267:1 1272:1 1274:1 1278:1 1282:2
1 154:1 1252:1 1282:5
1 336:3 423:1 440:1 583:1 621:1 806:1 900:2 1080:4 1177:2 1234:3 1235:1 1246:2 1247:2 1248:1 1260:1 1272:1 1274:1 1278:4 1282:7
1 154:1 1252:1 1282:5
1 640:1 1261:1 1282:1
1 154:1 1252:1 1282:4
1 324:1 621:1 715:1 900:1 1080:1 1177:1 1222:1 1246:1 1247:1 1248:1 1258:1 1278:1 1282:2
1 336:3 423:1 440:1 621:1 806:1 900:2 1080:4 1177:2 1234:3 1235:1 1246:2 1247:2 1248:1 1260:1 1274:1 1278:4 1282:6
1 640:1 1261:1 1282:2
1 154:1 1252:1 1282:4
1 154:1 1252:1 1282:3
1 423:1 440:1 621:1 715:1 900:1 1080:1 1177:1 1246:1 1247:1 1248:1 1258:1 1260:1 1274:1 1278:1 1282:3
1 140:1 324:1 423:1 621:1 684:1 715:1 816:1 900:1 1080:1 1177:1 1222:1 1229:1 1244:1 1245:1 1246:1 1247:1 1248:1 1258:1 1260:1 1278:1 1282:2
1 154:1 1252:1 1282:4
1 914:1 1080:1 1259:1 1278:1 1282:2
1 336:2 351:1 423:1 440:1 806:1 900:2 1080:4 1177:2 1234:2 1235:1 1246:2 1247:2 1254:1 1260:1 1274:1 1278:4 1282:6
1 154:1 1252:1 1282:5
1 336:3 423:1 440:1 455:1 583:1 621:1 806:1 900:2 1044:1 1080:5 1177:2 1215:1 1234:3 1235:1 1246:2 1247:2 1248:1 1251:1 1260:1 1272:1 1274:1 1278:5 1282:6
1 154:1 1252:1 1282:2
1 154:1 1252:1 1282:4
1 140:1 423:1 684:1 710:1 715:1 816:1 900:1 1080:1 1177:1 1229:1 1244:1 1245:1 1246:1 1247:1 1253:1 1258:1 1260:1 1278:1 1282:4
1 140:1 423:1 684:1 710:1 715:1 816:1 900:1 1080:1 1177:1 1229:1 1244:1 1245:1 1246:1 1247:1 1253:1 1258:1 1260:1 1278:1 1282:4
1 423:1 900:1 1080:1 1247:1 1260:1 1278:1 1282:2
1 154:1 1252:1 1282:4
1 715:1 900:1 1080:1 1247:1 1258:1 1278:1 1282:2
1 640:1 1261:1 1282:2
1 621:1 900:1 1080:1 1177:1 1246:1 1247:1 1248:1 1278:1 1282:3
1 154:1 1252:1 1282:4
1 154:1 1252:1 1282:3
1 154:1 1252:1 1282:3
1 640:1 1261:1 1282:2
1 154:1 1252:1 1282:4
1 154:1 1252:1 1282:5
1 336:1 423:1 440:1 583:1 621:1 806:1 900:1 1080:1 1177:1 1234:1 1235:1 1246:1 1247:1 1248:1 1260:1 1272:1 1274:1 1278:1 1282:5
1 336:3 423:1 440:1 583:1 621:1 715:2 806:1 900:2 1080:5 1177:2 1234:3 1235:1 1246:2 1247:2 1248:1 1258:2 1260:1 1272:1 1274:1 1278:5 1282:7
1 319:1 328:1 336:1 351:1 423:1 440:1 583:1 621:1 715:1 806:1 900:1 957:1 1044:1 1080:1 1134:1 1171:1 1176:1 1177:1 1217:1 1219:1 1227:1 1234:1 1235:1 1239:1 1243:1 1246:1 1247:1 1248:1 1251:1 1254:1 1258:1 1260:1 1267:1 1272:1 1274:1 1278:1 1282:2
1 154:1 1252:1 1282:4
1 336:3 423:1 440:1 621:1 806:1 900:2 1080:4 1177:2 1234:3 1235:1 1246:2 1247:2 1248:1 1260:1 1274:1 1278:4 1282:7
1 336:3 423:1 440:1 621:1 806:1 900:2 1080:4 1177:2 1234:3 1235:1 1246:2 1247:2 1248:1 1260:1 1274:1 1278:4 1282:7
1 154:1 1252:1 1282:2
1 154:1 1252:1 1282:4
1 914:1 1080:1 1259:1 1278:1 1282:2
1 423:1 440:1 697:1 715:1 900:1 1080:1 1240:1 1247:1 1258:1 1260:1 1274:1 1278:1 1282:3
1 154:1 1252:1 1282:4
1 640:1 1261:1 1282:2
1 336:3 423:1 440:1 583:1 621:1 806:1 900:2 1080:5 1177:2 1234:3 1235:1 1246:2 1247:2 1248:1 1260:1 1272:1 1274:1 1278:5 1282:6
1 140:1 423:1 684:1 710:1 715:1 816:1 900:1 1080:1 1177:1 1229:1 1244:1 1245:1 1246:1 1247:1 1253:1 1258:1 1260:1 1278:1 1282:4
1 154:1 1252:1 1282:3
1 140:1 423:1 684:1 710:1 715:1 816:1 900:1 1080:1 1177:1 1229:1 1244:1 1245:1 1246:1 1247:1 1253:1 1258:1 1260:1 1278:1 1282:4
1 1080:1 1278:1 1282:2 1284:1
1 336:2 900:2 1080:4 1177:1 1234:2 1246:1 1247:2 1278:4 1282:6
1 640:1 1261:1 1282:2
1 423:1 440:1 621:1 715:1 806:1 900:1 1080:1 1177:1 1235:1 1246:1 1247:1 1248:1 1258:1 1260:1 1274:1 1278:1 1282:3
1 154:1 1252:1 1282:3
1 154:1 1252:1 1282:3
1 640:1 1261:1 1282:1
1 154:1 1252:1 1282:3
1 640:1 1261:1 1282:2
1 154:1 1252:1 1282:4
1 154:1 1252:1 1282:4
1 154:1 1252:1 1282:3
1 423:1 440:1 583:1 621:1 710:1 715:1 806:1 900:1 914:1 1080:1 1177:1 1235:1 1246:1 1247:1 1248:1 1253:1 1258:1 1259:1 1260:1 1272:1 1274:1 1278:1 1282:1
1 154:1 1252:1 1282:4
1 154:1 1252:1 1282:5
1 336:3 423:1 440:1 583:1 621:1 715:1 806:1 900:2 1080:4 1177:2 1234:3 1235:1 1246:2 1247:2 1248:1 1258:1 1260:1 1272:1 1274:1 1278:4 1282:6
1 154:1 1252:1 1282:4
1 423:1 440:1 621:1 715:1 900:1 1080:1 1177:1 1246:1 1247:1 1248:1 1258:1 1260:1 1274:1 1278:1 1282:3
1 154:1 1252:1 1282:4
1 154:1 1252:1 1282:5
1 154:1 1252:1 1282:4
1 154:1 1252:1 1282:4
1 423:1 684:1 710:1 715:1 816:1 900:1 1080:1 1177:1 1229:1 1245:1 1246:1 1247:1 1253:1 1258:1 1260:1 1278:1 1282:3
1 154:1 1252:1 1282:3
1 154:1 1252:1 1282:5
1 1080:1 1278:1 1282:2
1 914:1 1080:1 1259:1 1278:1 1282:2
1 423:1 440:1 621:1 715:1 900:1 1080:1 1177:1 1246:1 1247:1 1248:1 1258:1 1260:1 1274:1 1278:1 1282:3
1 140:1 423:1 684:1 710:1 715:1 816:1 900:1 1080:1 1177:1 1229:1 1244:1 1245:1 1246:1 1247:1 1253:1 1258:1 1260:1 1278:1 1282:4
1 1080:1 1278:1 1282:3
1 423:1 440:1 621:1 715:1 900:1 1080:1 1177:1 1246:1 1247:1 1248:1 1258:1 1260:1 1274:1 1278:1 1282:2
1 154:1 1252:1 1282:5
1 154:1 1252:1 1282:5
1 621:1 900:1 1080:1 1177:1 1246:1 1247:1 1248:1 1278:1 1282:3
1 154:1 1252:1 1282:4
1 336:1 423:1 440:1 621:1 715:1 806:1 900:1 1080:1 1177:1 1234:1 1235:1 1246:1 1247:1 1248:1 1258:1 1260:1 1274:1 1278:1 1282:5
1 140:1 423:1 684:1 710:1 715:1 816:1 900:1 1080:1 1177:1 1229:1 1244:1 1245:1 1246:1 1247:1 1253:1 1258:1 1260:1 1278:1 1282:5
1 154:1 1252:1 1282:4
1 336:3 423:1 440:1 621:1 806:1 900:2 1080:4 1177:2 1234:3 1235:1 1246:2 1247:2 1248:1 1260:1 1274:1 1278:4 1282:6
1 154:1 1252:1 1282:4
1 140:1 423:1 684:1 710:1 715:1 816:1 900:1 1080:1 1177:1 1229:1 1244:1 1245:1 1246:1 1247:1 1253:1 1258:1 1260:1 1278:1 1282:3
1 336:3 423:1 440:1 621:1 806:1 900:3 1080:4 1177:2 1234:3 1235:1 1246:2 1247:3 1248:1 1260:1 1274:1 1278:4 1282:8
1 336:3 423:1 440:1 621:1 806:1 900:2 1080:4 1177:2 1234:3 1235:1 1246:2 1247:2 1248:1 1260:1 1274:1 1278:4 1282:6
1 154:1 1252:1 1282:4
1 715:1 900:1 1080:1 1177:1 1246:1 1247:1 1258:1 1278:1 1282:3
1 154:1 1252:1 1282:4
1 140:1 423:1 684:1 710:1 715:1 816:1 900:1 1080:1 1177:1 1229:1 1244:1 1245:1 1246:1 1247:1 1253:1 1258:1 1260:1 1278:1 1282:4
1 640:1 1261:1 1282:2
1 319:1 328:1 336:1 351:1 423:1 440:1 583:1 621:1 715:1 806:1 900:1 957:1 1044:1 1080:1 1134:1 1171:1 1176:1 1177:1 1217:1 1219:1 1227:1 1234:1 1235:1 1239:1 1243:1 1246:1 1247:1 1248:1 1251:1 1254:1 1258:1 1260:1 1267:1 1272:1 1274:1 1278:1 1282:3
1 640:1 1261:1 1282:1
1 172:1 336:1 423:1 440:1 455:1 584:1 621:1 697:1 710:1 715:1 843:1 900:1 914:1 957:1 1080:1 1177:1 1215:1 1217:1 1234:1 1240:1 1246:1 1247:1 1248:1 1253:1 1258:1 1259:1 1260:1 1264:1 1274:1 1275:1 1276:1 1278:1 1282:2 1284:1
1 914:1 1080:1 1259:1 1278:1 1282:2
1 914:1 1080:1 1259:1 1278:1 1282:2
1 140:1 423:1 684:1 710:1 715:1 816:1 900:1 1080:1 1177:1 1229:1 1244:1 1245:1 1246:1 1247:1 1253:1 1258:1 1260:1 1278:1 1282:3
1 154:1 1252:1 1282:4
1 154:1 1252:1 1282:4
1 336:3 423:1 440:1 621:1 715:1 806:1 900:2 1044:1 1080:4 1134:1 1177:2 1234:3 1235:1 1246:2 1247:2 1248:1 1251:1 1258:1 1260:1 1267:1 1274:1 1278:4 1282:6
1 154:1 1252:1 1282:4
1 914:1 1080:1 1259:1 1278:1 1282:2
1 154:1 1252:1 1282:5
1 154:1 1252:1 1282:3
1 154:1 1252:1 1282:4
1 336:3 423:1 440:1 621:1 715:1 806:1 900:2 1044:1 1080:4 1177:2 1234:3 1235:1 1246:2 1247:2 1248:1 1251:1 1258:1 1260:1 1274:1 1278:4 1282:6
1 154:1 1252:1 1282:4
1 154:1 1252:1 1282:4
1 154:1 1252:1 1282:4
1 900:1 1080:1 1247:1 1278:1 1282:3 1284:1
1 154:1 1252:1 1282:5
1 336:3 423:1 440:1 621:1 715:1 806:1 900:2 1044:1 1080:4 1177:3 1234:3 1235:1 1246:3 1247:2 1248:1 1251:1 1258:1 1260:1 1274:1 1278:4 1282:6
1 336:1 423:1 1080:1 1234:1 1260:1 1278:1 1282:314 1284:1
1 121:1 252:1 402:1 423:1 715:1 1080:1 1220:1 1228:1 1237:1 1242:1 1258:1 1260:1 1278:1 1282:3
1 140:1 423:1 684:1 710:1 715:1 816:1 900:1 1080:1 1177:1 1229:1 1244:1 1245:1 1246:1 1247:1 1253:1 1258:1 1260:1 1278:1 1282:2
1 140:1 423:1 684:1 710:1 715:1 816:1 900:1 1080:1 1177:1 1229:1 1244:1 1245:1 1246:1 1247:1 1253:1 1258:1 1260:1 1278:1 1282:4
1 154:1 1252:1 1282:3
1 140:1 246:1 324:1 423:1 621:1 684:1 715:1 816:1 900:3 1080:3 1177:1 1221:1 1222:1 1229:1 1244:1 1245:1 1246:1 1247:3 1248:1 1258:1 1260:1 1278:3 1282:7
1 154:1 1252:1 1282:4
1 154:1 1252:1 1282:6
1 140:1 423:1 684:1 710:1 715:1 816:1 900:1 1080:1 1177:1 1229:1 1244:1 1245:1 1246:1 1247:1 1253:1 1258:1 1260:1 1278:1 1282:5
1 140:1 423:1 684:1 710:1 715:1 816:1 900:1 1080:1 1177:1 1229:1 1244:1 1245:1 1246:1 1247:1 1253:1 1258:1 1260:1 1278:1 1282:4
1 140:1 423:1 684:1 710:1 715:1 816:1 900:1 1080:1 1177:1 1229:1 1244:1 1245:1 1246:1 1247:1 1253:1 1258:1 1260:1 1278:1 1282:4
1 336:3 423:1 440:1 583:1 621:1 806:1 900:2 1044:1 1080:4 1177:2 1234:3 1235:1 1246:2 1247:2 1248:1 1251:1 1260:1 1272:1 1274:1 1278:4 1282:6
1 336:3 423:1 440:1 621:1 806:1 900:2 1080:4 1177:3 1234:3 1235:1 1238:1 1246:3 1247:2 1248:1 1260:1 1274:1 1278:4 1282:6
1 336:3 423:1 440:1 621:1 806:1 900:2 1080:4 1177:2 1234:3 1235:1 1246:2 1247:2 1248:1 1260:1 1274:1 1278:4 1282:6
1 154:1 1252:1 1282:4
1 640:1 843:1 1080:1 1177:1 1246:1 1261:1 1264:1 1278:1 1282:1
1 140:1 246:1 423:1 684:1 710:1 715:1 816:1 900:3 1080:3 1177:1 1221:1 1229:1 1244:1 1245:1 1246:1 1247:3 1253:1 1258:1 1260:1 1278:3 1282:9
1 640:1 1261:1 1282:1
1 154:1 1252:1 1282:4
1 154:1 1252:1 1282:3
1 140:1 423:1 684:1 710:1 715:1 816:1 900:1 1080:1 1177:1 1229:1 1244:1 1245:1 1246:1 1247:1 1253:1 1258:1 1260:1 1278:1 1282:4
1 154:1 1252:1 1282:4
1 336:2 423:1 440:1 806:1 900:2 1080:4 1177:2 1234:2 1235:1 1246:2 1247:2 1260:1 1274:1 1278:4 1282:6
1 154:1 1252:1 1282:4
1 336:3 423:1 440:1 621:1 806:1 900:2 1080:4 1177:2 1234:3 1235:1 1246:2 1247:2 1248:1 1260:1 1274:1 1278:4 1282:6
1 336:3 423:1 440:1 621:1 715:1 806:1 900:2 1080:4 1177:2 1234:3 1235:1 1246:2 1247:2 1248:1 1258:1 1260:1 1274:1 1278:4 1282:7
1 154:1 1252:1 1282:4
1 140:1 423:1 684:1 710:1 715:1 816:1 900:1 1080:1 1177:1 1229:1 1244:1 1245:1 1246:1 1247:1 1253:1 1258:1 1260:1 1278:1 1282:5
1 336:3 423:1 440:1 621:1 806:1 900:2 1080:4 1177:3 1234:3 1235:1 1246:3 1247:2 1248:1 1260:1 1274:1 1278:4 1282:7
1 140:1 423:1 684:1 710:1 715:1 816:1 900:1 1080:1 1177:1 1229:1 1244:1 1245:1 1246:1 1247:1 1253:1 1258:1 1260:1 1278:1 1282:4
1 154:1 1252:1 1282:4
1 154:1 1252:1 1282:6
1 336:3 423:1 440:1 583:1 621:1 806:1 900:2 1044:1 1080:4 1177:2 1234:3 1235:1 1246:2 1247:2 1248:1 1251:1 1260:1 1272:1 1274:1 1278:4 1282:7
1 319:1 328:1 336:1 351:1 423:1 440:1 583:1 621:1 715:1 806:1 900:1 957:1 1044:1 1080:1 1134:1 1171:1 1176:1 1177:1 1217:1 1219:1 1227:1 1234:1 1235:1 1239:1 1243:1 1246:1 1247:1 1248:1 1251:1 1254:1 1258:1 1260:1 1267:1 1272:1 1274:1 1278:1 1282:2
1 423:1 440:1 621:1 715:1 900:1 1080:1 1177:1 1246:1 1247:1 1248:1 1258:1 1260:1 1274:1 1278:1 1282:3
1 1080:1 1278:1 1282:2
1 154:1 1252:1 1282:5
1 154:1 1252:1 1282:5
1 154:1 1252:1 1282:4
1 640:1 1261:1 1282:4
1 1282:3
1 336:2 423:1 440:1 715:1 806:1 900:2 1080:4 1177:2 1234:2 1235:1 1246:2 1247:2 1258:1 1260:1 1274:1 1278:4 1282:6
1 351:1 900:1 1080:1 1247:1 1254:1 1278:1 1282:3
1 154:1 1252:1 1282:4
1 319:1 328:1 336:1 351:1 423:1 440:1 583:1 621:1 715:1 806:1 900:1 957:1 1044:1 1080:1 1134:1 1171:1 1176:1 1177:1 1217:1 1219:1 1227:1 1234:1 1235:1 1239:1 1243:1 1246:1 1247:1 1248:1 1251:1 1254:1 1258:1 1260:1 1267:1 1272:1 1274:1 1278:1 1282:2
1 324:1 621:1 684:1 715:1 816:1 900:1 1080:1 1177:1 1222:1 1229:1 1245:1 1246:1 1247:1 1248:1 1258:1 1278:1 1282:2
1 423:1 592:1 697:1 715:1 900:1 1080:1 1177:1 1214:1 1240:1 1246:1 1247:1 1258:1 1260:1 1278:1 1282:1
1 220:1 336:1 423:1 440:1 450:1 583:1 621:1 900:1 1080:1 1177:1 1234:1 1246:1 1247:1 1248:1 1260:1 1270:1 1272:1 1274:1 1278:1 1280:1 1282:3
1 640:1 1080:1 1261:1 1278:1 1282:4
1 158:1 177:1 324:1 336:1 423:1 440:1 544:1 621:1 710:1 715:1 843:1 900:1 914:1 957:1 1080:1 1177:1 1217:1 1222:1 1232:1 1234:1 1246:1 1247:1 1248:1 1253:1 1256:1 1258:1 1259:1 1260:1 1264:1 1274:1 1278:1 1281:1 1282:2
1 154:1 1252:1 1282:4
1 154:1 1252:1 1282:4
1 154:1 1252:1 1282:4
1 336:1 423:1 440:1 583:1 806:1 900:1 1080:1 1177:1 1234:1 1235:1 1246:1 1247:1 1260:1 1272:1 1274:1 1278:1 1282:5
1 336:2 423:1 440:1 583:1 806:1 900:2 1080:6 1177:2 1234:2 1235:1 1246:2 1247:2 1260:1 1272:1 1274:1 1278:6 1282:6
1 154:1 1252:1 1282:3
1 154:1 1252:1 1282:2
1 336:1 423:1 440:1 621:1 684:1 715:1 806:1 900:1 1044:1 1080:1 1177:1 1229:1 1234:1 1235:1 1246:1 1247:1 1248:1 1251:1 1258:1 1260:1 1274:1 1278:1 1282:2 1284:6
1 319:1 328:1 336:1 351:1 423:1 440:1 583:1 621:1 715:1 806:1 900:1 957:1 1044:1 1080:1 1134:1 1171:1 1176:1 1177:1 1217:1 1219:1 1227:1 1234:1 1235:1 1239:1 1243:1 1246:1 1247:1 1248:1 1251:1 1254:1 1258:1 1260:1 1267:1 1272:1 1274:1 1278:1 1282:5
1 154:1 1252:1 1282:4
1 914:1 1080:1 1259:1 1278:1 1282:2
1 319:1 328:1 336:1 351:1 423:1 440:1 583:1 621:1 715:1 806:1 900:1 957:1 1044:1 1080:1 1134:1 1171:1 1176:1 1177:1 1217:1 1219:1 1227:1 1234:1 1235:1 1239:1 1243:1 1246:1 1247:1 1248:1 1251:1 1254:1 1258:1 1260:1 1267:1 1272:1 1274:1 1278:1 1282:2
1 154:1 1252:1 1282:5
1 154:1 1252:1 1282:4
1 319:1 328:1 336:1 351:1 423:1 440:1 583:1 621:1 715:1 806:1 900:1 957:1 1044:1 1080:1 1134:1 1171:1 1176:1 1177:1 1217:1 1219:1 1227:1 1234:1 1235:1 1239:1 1243:1 1246:1 1247:1 1248:1 1251:1 1254:1 1258:1 1260:1 1267:1 1272:1 1274:1 1278:1 1282:2
1 336:2 423:1 440:1 806:1 900:2 1080:4 1177:2 1234:2 1235:1 1246:2 1247:2 1260:1 1274:1 1278:4 1282:6
1 154:1 1252:1 1282:4
1 154:1 1252:1 1282:4
1 336:2 423:1 440:1 621:1 806:1 900:2 1080:4 1177:2 1234:2 1235:1 1246:2 1247:2 1248:1 1260:1 1274:1 1278:4 1282:8
1 140:1 423:1 684:1 710:1 715:1 816:1 900:1 1080:1 1177:1 1229:1 1244:1 1245:1 1246:1 1247:1 1253:1 1258:1 1260:1 1278:1 1282:3
1 914:1 1080:1 1259:1 1278:1 1282:2
1 640:1 1261:1 1282:2
1 154:1 1252:1 1282:4
1 319:1 328:1 336:1 351:1 423:1 440:1 583:1 621:1 715:1 806:1 900:1 957:1 1044:1 1080:1 1134:1 1171:1 1176:1 1177:1 1217:1 1219:1 1227:1 1234:1 1235:1 1239:1 1243:1 1246:1 1247:1 1248:1 1251:1 1254:1 1258:1 1260:1 1267:1 1272:1 1274:1 1278:1 1282:2
1 140:1 324:1 423:1 621:1 684:1 715:1 816:1 900:1 1080:1 1177:1 1222:1 1229:1 1244:1 1245:1 1246:1 1247:1 1248:1 1258:1 1260:1 1278:1 1282:2
1 423:1 440:1 621:1 715:1 900:1 1080:1 1177:1 1246:1 1247:1 1248:1 1258:1 1260:1 1274:1 1278:1 1282:3
1 154:1 1252:1 1282:4
1 640:1 1261:1 1282:4
1 140:1 423:1 684:1 710:1 715:1 816:1 900:1 1080:1 1177:1 1229:1 1244:1 1245:1 1246:1 1247:1 1253:1 1258:1 1260:1 1278:1 1282:4
1 154:1 1252:1 1282:4
1 423:1 440:1 621:1 715:1 806:1 900:1 1080:1 1177:1 1235:1 1246:1 1247:1 1248:1 1258:1 1260:1 1274:1 1278:1 1282:3
1 140:1 423:1 684:1 710:1 715:1 816:1 900:1 1080:1 1177:1 1229:1 1244:1 1245:1 1246:1 1247:1 1253:1 1258:1 1260:1 1278:1 1282:4
1 154:1 1252:1 1282:4
1 154:1 1252:1 1282:4
1 154:1 1252:1 1282:4
1 319:1 328:1 336:1 351:1 423:1 440:1 583:1 621:1 715:1 806:1 900:1 957:1 1044:1 1080:1 1134:1 1171:1 1176:1 1177:1 1217:1 1219:1 1227:1 1234:1 1235:1 1239:1 1243:1 1246:1 1247:1 1248:1 1251:1 1254:1 1258:1 1260:1 1267:1 1272:1 1274:1 1278:1 1282:2
1 621:1 900:1 1080:1 1177:1 1246:1 1247:1 1248:1 1278:1 1282:3
1 154:1 1252:1 1282:3
1 319:1 328:1 336:1 351:1 423:1 440:1 583:1 621:1 715:1 806:1 900:1 957:1 1044:1 1080:1 1134:1 1171:1 1176:1 1177:1 1217:1 1219:1 1227:1 1234:1 1235:1 1239:1 1243:1 1246:1 1247:1 1248:1 1251:1 1254:1 1258:1 1260:1 1267:1 1272:1 1274:1 1278:1 1282:2
1 252:1 306:1 324:1 336:1 393:1 402:1 423:1 440:1 621:1 684:1 715:1 816:1 900:1 927:1 1043:1 1080:1 1177:1 1222:1 1228:1 1229:1 1230:1 1234:1 1237:1 1245:1 1246:1 1247:1 1248:1 1249:1 1250:1 1258:1 1260:1 1266:1 1274:1 1277:1 1278:1 1282:1
1 140:1 423:1 684:1 710:1 715:1 816:1 900:1 1080:1 1177:1 1229:1 1244:1 1245:1 1246:1 1247:1 1253:1 1258:1 1260:1 1278:1 1282:4
1 140:1 423:1 684:1 710:1 715:1 816:1 900:1 1080:1 1177:1 1229:1 1244:1 1245:1 1246:1 1247:1 1253:1 1258:1 1260:1 1278:1 1282:5
1 319:1 328:1 336:1 351:1 423:1 440:1 583:1 621:1 715:1 806:1 900:1 957:1 1044:1 1080:1 1134:1 1171:1 1176:1 1177:1 1217:1 1219:1 1227:1 1234:1 1235:1 1239:1 1243:1 1246:1 1247:1 1248:1 1251:1 1254:1 1258:1 1260:1 1267:1 1272:1 1274:1 1278:1 1282:2
1 140:1 423:1 684:1 710:1 715:1 816:1 900:1 1080:1 1177:1 1229:1 1244:1 1245:1 1246:1 1247:1 1253:1 1258:1 1260:1 1278:1 1282:3
1 154:1 1252:1 1282:4
1 1080:1 1278:1 1282:2
1 640:1 1261:1 1282:2
1 140:1 423:1 684:1 710:1 715:1 816:1 900:1 1080:1 1177:1 1229:1 1244:1 1245:1 1246:1 1247:1 1253:1 1258:1 1260:1 1278:1 1282:4
1 154:1 1252:1 1282:4
1 154:1 1252:1 1282:5
1 1080:1 1278:1 1282:2
1 140:1 423:1 684:1 710:1 715:1 816:1 900:1 1080:1 1177:1 1229:1 1244:1 1245:1 1246:1 1247:1 1253:1 1258:1 1260:1 1278:1 1282:5
1 336:2 423:1 440:1 806:1 900:2 1044:1 1080:4 1177:2 1234:2 1235:1 1246:2 1247:2 1251:1 1260:1 1274:1 1278:4 1282:6
1 140:1 423:1 684:1 710:1 715:1 816:1 900:1 1080:1 1177:1 1229:1 1244:1 1245:1 1246:1 1247:1 1253:1 1258:1 1260:1 1278:1 1282:5
1 154:1 1252:1 1282:3
1 154:1 1252:1 1282:4
1 914:1 1080:1 1259:1 1278:1 1282:2
1 423:1 440:1 621:1 715:1 900:1 1080:1 1177:1 1246:1 1247:1 1248:1 1258:1 1260:1 1274:1 1278:1 1282:3
1 336:3 423:1 440:1 583:1 621:1 715:1 806:1 900:3 1080:4 1177:2 1234:3 1235:1 1246:2 1247:3 1248:1 1258:1 1260:1 1272:1 1274:1 1278:4 1282:7
1 154:1 1252:1 1282:5
1 914:1 1080:1 1259:1 1278:1 1282:2
1 324:1 336:1 423:1 440:1 450:1 455:1 477:1 621:1 697:1 715:1 900:1 914:1 927:1 957:1 1044:1 1080:1 1145:1 1177:1 1215:1 1217:1 1222:1 1234:1 1240:1 1241:1 1246:1 1247:1 1248:1 1251:1 1258:1 1259:1 1260:1 1266:1 1274:1 1278:1 1279:1 1280:1 1282:2
1 423:1 440:1 621:1 715:1 900:1 1080:1 1177:1 1246:1 1247:1 1248:1 1258:1 1260:1 1274:1 1278:1 1282:3
1 914:1 1080:1 1259:1 1278:1 1282:2
1 154:1 1252:1 1282:4
1 140:1 423:1 684:1 710:1 715:1 900:1 1080:1 1177:1 1229:1 1244:1 1246:1 1247:1 1253:1 1258:1 1260:1 1278:1 1282:3
1 154:1 1252:1 1282:4
1 336:1 423:1 440:1 477:1 583:1 621:1 715:1 806:1 900:1 1080:1 1177:1 1234:1 1235:1 1241:1 1246:1 1247:1 1248:1 1258:1 1260:1 1272:1 1274:1 1278:1 1282:5
1 140:1 423:1 684:1 710:1 715:1 816:1 900:1 1080:1 1177:1 1229:1 1244:1 1245:1 1246:1 1247:1 1253:1 1258:1 1260:1 1278:1 1282:5
1 154:1 1252:1 1282:5
1 336:3 423:1 440:1 621:1 806:1 900:2 1080:4 1177:2 1234:3 1235:1 1246:2 1247:2 1248:1 1260:1 1274:1 1278:4 1282:6
1 154:1 1252:1 1282:2
1 140:1 423:1 621:1 684:1 710:1 715:1 816:1 900:1 1080:1 1177:1 1229:1 1244:1 1245:1 1246:1 1247:1 1248:1 1253:1 1258:1 1260:1 1278:1 1282:6
1 319:1 328:1 336:1 351:1 423:1 440:1 583:1 621:1 715:1 806:1 900:1 957:1 1044:1 1080:1 1134:1 1171:1 1176:1 1177:1 1217:1 1219:1 1227:1 1234:1 1235:1 1239:1 1243:1 1246:1 1247:1 1248:1 1251:1 1254:1 1258:1 1260:1 1267:1 1272:1 1274:1 1278:1 1282:2
1 640:1 1261:1 1282:2
1 252:1 336:3 423:1 440:2 621:1 715:2 806:1 900:2 1080:4 1177:2 1228:1 1234:3 1235:1 1246:2 1247:2 1248:1 1258:2 1260:1 1274:2 1278:4 1282:6
1 140:1 423:1 684:1 710:1 715:1 816:1 900:1 1080:1 1177:1 1229:1 1244:1 1245:1 1246:1 1247:1 1253:1 1258:1 1260:1 1278:1 1282:3
1 154:1 1252:1 1282:3
1 140:1 423:1 684:1 710:1 715:1 816:1 900:1 1080:1 1177:1 1229:1 1244:1 1245:1 1246:1 1247:1 1253:1 1258:1 1260:1 1278:1 1282:3
1 140:1 735:1 816:1 1080:1 1145:1 1225:1 1244:1 1245:1 1278:1 1279:1 1282:2
1 351:1 621:1 710:2 1080:1 1248:1 1253:2 1254:1 1278:1 1282:6
1 640:1 1261:1 1282:2
1 640:1 1261:1 1282:2
1 621:1 900:1 1080:1 1177:1 1246:1 1247:1 1248:1 1278:1 1282:3
1 158:1 324:1 351:1 423:1 684:1 710:1 715:1 775:1 900:1 914:1 1044:1 1080:1 1177:1 1222:1 1229:1 1246:1 1247:1 1251:1 1253:1 1254:1 1256:1 1258:1 1259:1 1260:1 1265:1 1278:1 1282:3
1 423:1 440:1 621:1 715:1 806:1 900:1 1080:1 1177:1 1235:1 1246:1 1247:1 1248:1 1258:1 1260:1 1274:1 1278:1 1282:3
1 154:1 1252:1 1282:4
1 154:1 1252:1 1282:4
1 640:1 1080:1 1261:1 1278:1 1282:4
1 914:1 1080:1 1259:1 1278:1 1282:2
1 154:1 1252:1 1282:3
1 914:1 1080:1 1259:1 1278:1 1282:2
1 154:1 1252:1 1282:4
1 154:1 1252:1 1282:3
1 319:1 328:1 336:1 351:1 423:1 440:1 583:1 621:1 715:1 806:1 900:1 957:1 1044:1 1080:1 1134:1 1171:1 1176:1 1177:1 1217:1 1219:1 1227:1 1234:1 1235:1 1239:1 1243:1 1246:1 1247:1 1248:1 1251:1 1254:1 1258:1 1260:1 1267:1 1272:1 1274:1 1278:1 1282:5
1 640:1 1080:1 1261:1 1278:1 1282:4
1 336:1 423:1 440:1 583:1 806:1 900:1 1080:1 1177:1 1234:1 1235:1 1246:1 1247:1 1260:1 1272:1 1274:1 1278:1 1282:5
1 423:1 440:1 621:1 715:1 900:1 1080:1 1177:1 1246:1 1247:1 1248:1 1258:1 1260:1 1274:1 1278:1 1282:2
1 336:3 423:1 440:1 583:1 621:1 806:1 900:2 1080:4 1177:2 1234:3 1235:1 1246:2 1247:2 1248:1 1260:1 1272:1 1274:1 1278:4 1282:6
1 154:1 1252:1 1282:5
1 640:1 1261:1 1282:2
1 154:1 1252:1 1282:4
1 154:1 1252:1 1282:5
1 336:3 423:1 440:1 621:1 715:1 806:1 900:2 1044:1 1080:4 1134:1 1177:2 1234:3 1235:1 1246:2 1247:2 1248:1 1251:1 1258:1 1260:1 1267:1 1274:1 1278:4 1282:6
1 154:1 1252:1 1282:5
1 640:1 1261:1 1282:4
1 423:1 440:1 621:1 715:1 806:1 900:1 1080:1 1177:1 1235:1 1246:1 1247:1 1248:1 1258:1 1260:1 1274:1 1278:1 1282:3
1 154:1 1252:1 1282:4
1 154:1 1252:1 1282:4
1 154:1 1252:1 1282:3
1 154:1 1252:1 1282:6
1 140:1 423:1 684:1 710:1 715:1 816:1 900:1 1080:1 1177:1 1229:1 1244:1 1245:1 1246:1 1247:1 1253:1 1258:1 1260:1 1278:1 1282:4
1 140:1 423:1 684:1 710:1 715:1 816:1 900:1 1080:1 1177:1 1229:1 1244:1 1245:1 1246:1 1247:1 1253:1 1258:1 1260:1 1278:1 1282:5
1 154:1 1252:1 1282:4
1 154:1 1252:1 1282:3
1 154:1 1252:1 1282:4
1 140:1 423:1 684:1 710:1 715:1 900:1 1080:1 1177:1 1229:1 1244:1 1246:1 1247:1 1253:1 1258:1 1260:1 1278:1 1282:3
1 154:1 1252:1 1282:3
1 336:1 423:1 440:1 621:1 684:1 715:1 806:1 900:1 1080:1 1177:1 1229:1 1234:1 1235:1 1246:1 1247:1 1248:1 1258:1 1260:1 1274:1 1278:1 1282:3 1284:6
1 140:1 423:1 684:1 710:1 715:1 816:1 900:1 1080:1 1177:1 1229:1 1244:1 1245:1 1246:1 1247:1 1253:1 1258:1 1260:1 1278:1 1282:4
1 319:1 328:1 336:1 351:1 423:1 440:1 583:1 621:1 715:1 806:1 900:1 957:1 1044:1 1080:1 1134:1 1171:1 1176:1 1177:1 1217:1 1219:1 1227:1 1234:1 1235:1 1239:1 1243:1 1246:1 1247:1 1248:1 1251:1 1254:1 1258:1 1260:1 1267:1 1272:1 1274:1 1278:1 1282:2
1 154:1 1252:1 1282:4
1 154:1 1252:1 1282:5
1 336:2 423:1 440:1 583:1 715:1 806:1 900:2 1080:4 1177:2 1234:2 1235:1 1246:2 1247:2 1258:1 1260:1 1272:1 1274:1 1278:4 1282:6
1 640:1 1261:1 1282:3
1 914:1 1080:1 1259:1 1278:1 1282:2
1 914:1 1080:1 1259:1 1278:1 1282:2
1 621:1 900:1 1080:1 1177:1 1246:1 1247:1 1248:1 1278:1 1282:3
1 319:1 328:1 336:1 351:1 423:1 440:1 583:1 621:1 715:1 806:1 900:1 957:1 1044:1 1080:1 1134:1 1171:1 1176:1 1177:1 1217:1 1219:1 1227:1 1234:1 1235:1 1239:1 1243:1 1246:1 1247:1 1248:1 1251:1 1254:1 1258:1 1260:1 1267:1 1272:1 1274:1 1278:1 1282:2
1 154:1 1252:1 1282:4
1 423:1 440:1 621:1 715:1 806:1 900:1 1080:1 1177:1 1235:1 1246:1 1247:1 1248:1 1258:1 1260:1 1274:1 1278:1 1282:3
1 154:1 1252:1 1282:4
1 154:1 1252:1 1282:3
1 154:1 1252:1 1282:4
1 140:1 423:1 684:1 710:1 715:1 816:1 900:1 1080:1 1177:1 1229:1 1244:1 1245:1 1246:1 1247:1 1253:1 1258:1 1260:1 1278:1 1282:5
1 336:3 423:1 440:1 583:1 621:1 806:1 900:2 1080:4 1177:2 1234:3 1235:1 1246:2 1247:2 1248:1 1260:1 1272:1 1274:1 1278:4 1282:6
1 423:1 440:1 583:1 621:1 710:1 715:1 806:1 900:1 914:1 1080:1 1177:1 1235:1 1246:1 1247:1 1248:1 1253:1 1258:1 1259:1 1260:1 1272:1 1274:1 1278:1 1282:1
1 423:1 440:1 621:1 715:1 806:1 900:1 1080:1 1177:1 1235:1 1246:1 1247:1 1248:1 1258:1 1260:1 1274:1 1278:1 1282:3
1 154:1 1252:1 1282:4
1 154:1 1252:1 1282:4
1 640:1 1261:1 1282:2
1 914:1 1080:1 1259:1 1278:1 1282:2
1 336:1 423:1 440:1 806:1 900:1 1080:1 1177:1 1234:1 1235:1 1246:1 1247:1 1260:1 1274:1 1278:1 1282:6
1 154:1 1252:1 1282:5
1 640:1 1261:1 1282:1
1 154:1 1252:1 1282:5
1 621:1 900:1 1080:1 1177:1 1246:1 1247:1 1248:1 1278:1 1282:3
1 154:1 1252:1 1282:5
1 154:1 1252:1 1282:4
1 154:1 1252:1 1282:5
1 336:3 423:1 440:1 621:1 806:1 900:2 1080:5 1177:2 1234:3 1235:1 1246:2 1247:2 1248:1 1260:1 1274:1 1278:5 1282:6
1 336:2 423:1 440:1 900:3 1080:5 1177:2 1234:2 1246:2 1247:3 1260:1 1274:1 1278:5 1282:7
1 140:1 423:1 684:1 710:1 715:1 816:1 900:1 1080:1 1177:1 1229:1 1244:1 1245:1 1246:1 1247:1 1253:1 1258:1 1260:1 1278:1 1282:4
1 640:1 1261:1 1282:3
1 319:1 328:1 336:1 351:1 423:1 440:1 583:1 621:1 715:1 806:1 900:1 957:1 1044:1 1080:1 1134:1 1171:1 1176:1 1177:1 1217:1 1219:1 1227:1 1234:1 1235:1 1239:1 1243:1 1246:1 1247:1 1248:1 1251:1 1254:1 1258:1 1260:1 1267:1 1272:1 1274:1 1278:1 1282:2
1 154:1 1252:1 1282:4
1 336:3 423:1 440:1 621:1 806:1 900:2 914:1 1080:4 1177:2 1234:3 1235:1 1246:2 1247:2 1248:1 1259:1 1260:1 1274:1 1278:4 1282:6
1 140:1 423:1 684:1 710:1 715:1 816:1 900:1 1080:1 1177:1 1229:1 1244:1 1245:1 1246:1 1247:1 1253:1 1258:1 1260:1 1278:1 1282:4
1 154:1 1252:1 1282:4
1 140:1 423:1 684:1 710:1 715:1 816:1 900:1 1080:1 1177:1 1229:1 1244:1 1245:1 1246:1 1247:1 1253:1 1258:1 1260:1 1278:1 1282:5
1 423:1 440:1 621:1 715:1 900:1 1080:1 1177:1 1246:1 1247:1 1248:1 1258:1 1260:1 1274:1 1278:1 1282:3
1 140:1 423:1 684:1 710:1 715:1 816:1 900:1 1080:1 1177:1 1229:1 1244:1 1245:1 1246:1 1247:1 1253:1 1258:1 1260:1 1278:1 1282:4
1 140:1 423:1 684:1 710:1 715:1 816:1 900:1 1080:1 1177:1 1229:1 1244:1 1245:1 1246:1 1247:1 1253:1 1258:1 1260:1 1278:1 1282:4
1 336:2 423:1 440:1 583:1 806:1 900:2 1080:4 1177:2 1234:2 1235:1 1246:2 1247:2 1260:1 1272:1 1274:1 1278:4 1282:7
1 140:1 423:1 684:1 710:1 715:1 816:1 900:1 1080:1 1177:1 1229:1 1244:1 1245:1 1246:1 1247:1 1253:1 1258:1 1260:1 1278:1 1282:3
1 423:1 440:1 621:1 715:1 806:1 900:1 1080:1 1177:1 1235:1 1246:1 1247:1 1248:1 1258:1 1260:1 1274:1 1278:1 1282:3
1 423:1 440:1 621:1 715:1 900:1 1080:1 1177:1 1246:1 1247:1 1248:1 1258:1 1260:1 1274:1 1278:1 1282:3
1 140:1 423:1 684:1 710:1 715:1 816:1 900:1 1080:1 1177:1 1229:1 1244:1 1245:1 1246:1 1247:1 1253:1 1258:1 1260:1 1278:1 1282:5
1 154:1 1252:1 1282:4
1 154:1 1252:1 1282:4
1 423:1 440:1 621:1 715:1 900:1 1080:1 1177:1 1246:1 1247:1 1248:1 1258:1 1260:1 1274:1 1278:1 1282:3
1 154:1 1252:1 1282:4
1 640:1 1261:1 1282:3
1 336:2 423:1 440:1 583:1 806:1 900:2 1080:5 1177:2 1234:2 1235:1 1246:2 1247:2 1260:1 1272:1 1274:1 1278:5 1282:6
1 154:1 1252:1 1282:4
1 914:1 1080:1 1259:1 1278:1 1282:2
1 336:1 621:1 1080:1 1234:1 1248:1 1278:1 1282:1
1 336:1 423:1 440:1 583:1 621:1 715:1 806:1 900:1 1044:1 1080:1 1134:1 1176:1 1177:1 1234:1 1235:1 1243:1 1246:1 1247:1 1248:1 1251:1 1258:1 1260:1 1267:1 1272:1 1274:1 1278:1 1282:2
1 154:1 1252:1 1282:7
1 154:1 1252:1 1282:3
1 336:2 423:1 440:1 806:1 900:2 1044:1 1080:4 1177:2 1234:2 1235:1 1246:2 1247:2 1251:1 1260:1 1274:1 1278:4 1282:6
1 640:1 1261:1 1282:2
1 914:1 1080:1 1259:1 1278:1 1282:2
1 154:1 1252:1 1282:4
1 140:1 423:1 684:1 710:1 715:1 816:1 900:1 1080:1 1177:1 1229:1 1244:1 1245:1 1246:1 1247:1 1253:1 1258:1 1260:1 1278:1 1282:5
1 154:1 1252:1 1282:6
1 154:1 1252:1 1282:4
1 154:1 1252:1 1282:4
1 336:3 423:1 440:1 621:1 806:1 900:2 1080:4 1177:2 1234:3 1235:1 1246:2 1247:2 1248:1 1260:1 1274:1 1278:4 1282:6
1 154:1 1252:1 1282:3
1 154:1 1252:1 1282:4
1 140:1 423:1 684:1 710:1 715:1 816:1 900:1 1080:1 1177:1 1229:1 1244:1 1245:1 1246:1 1247:1 1253:1 1258:1 1260:1 1278:1 1282:5
1 900:1 1080:1 1247:1 1278:1 1282:3
1 154:1 1252:1 1282:4
1 154:1 1252:1 1282:3
1 154:1 1252:1 1282:4
1 336:3 423:1 440:1 621:1 806:1 900:2 1080:4 1177:3 1234:3 1235:1 1238:1 1246:3 1247:2 1248:1 1260:1 1274:1 1278:4 1282:6
1 336:2 423:1 440:1 806:1 900:2 1080:4 1177:2 1234:2 1235:1 1246:2 1247:2 1260:1 1274:1 1278:4 1282:7
1 154:1 1252:1 1282:4
1 640:1 1261:1 1282:3
1 140:1 423:1 684:1 710:1 715:1 816:1 900:1 1080:1 1177:1 1229:1 1244:1 1245:1 1246:1 1247:1 1253:1 1258:1 1260:1 1278:1 1282:4
1 154:1 1252:1 1282:4
1 423:1 440:1 621:1 715:1 806:1 900:1 1080:1 1177:1 1235:1 1246:1 1247:1 1248:1 1258:1 1260:1 1274:1 1278:1 1282:3
1 319:1 328:1 336:1 351:1 423:1 440:1 583:1 621:1 715:1 806:1 900:1 957:1 1044:1 1080:1 1134:1 1171:1 1176:1 1177:1 1217:1 1219:1 1227:1 1234:1 1235:1 1239:1 1243:1 1246:1 1247:1 1248:1 1251:1 1254:1 1258:1 1260:1 1267:1 1272:1 1274:1 1278:1 1282:3
1 336:2 423:1 440:1 583:1 806:1 900:2 1080:4 1177:2 1234:2 1235:1 1246:2 1247:2 1260:1 1272:1 1274:1 1278:4 1282:6
1 336:2 423:1 440:1 806:1 900:2 1044:1 1080:4 1177:3 1234:2 1235:1 1238:1 1246:3 1247:2 1251:1 1260:1 1274:1 1278:4 1282:6
1 154:1 1252:1 1282:4
1 154:1 1252:1 1282:4
1 154:1 1252:1 1282:4
1 336:3 423:1 440:1 621:1 806:1 900:2 1080:4 1177:2 1234:3 1235:1 1246:2 1247:2 1248:1 1260:1 1274:1 1278:4 1282:6
1 154:1 1252:1 1282:4
1 140:1 423:1 684:1 710:1 715:1 816:1 900:1 1080:1 1177:1 1229:1 1244:1 1245:1 1246:1 1247:1 1253:1 1258:1 1260:1 1278:1 1282:4
1 154:1 1252:1 1282:6
1 154:1 1252:1 1282:4
1 336:2 423:1 440:1 583:1 806:1 900:2 1080:5 1177:2 1234:2 1235:1 1246:2 1247:2 1260:1 1272:1 1274:1 1278:5 1282:6
1 154:1 1252:1 1282:3
1 336:3 423:1 440:1 583:1 621:1 715:1 806:1 900:2 1080:4 1177:2 1234:3 1235:1 1238:1 1246:2 1247:2 1248:1 1258:1 1260:1 1272:1 1274:1 1278:4 1282:6
1 140:1 423:1 684:1 710:1 715:1 816:1 900:1 1080:1 1177:1 1229:1 1244:1 1245:1 1246:1 1247:1 1253:1 1258:1 1260:1 1278:1 1282:5
1 154:1 1252:1 1282:4
1 336:1 423:1 440:1 583:1 806:1 900:1 1080:1 1177:1 1234:1 1235:1 1246:1 1247:1 1260:1 1272:1 1274:1 1278:1 1282:5
1 336:3 423:1 440:1 455:1 583:1 621:1 806:1 900:2 1044:1 1080:4 1177:2 1215:1 1234:3 1235:1 1246:2 1247:2 1248:1 1251:1 1260:1 1272:1 1274:1 1278:4 1282:6
1 154:1 1252:1 1282:4
1 140:1 423:1 684:1 710:1 715:1 816:1 900:1 1080:1 1177:1 1229:1 1244:1 1245:1 1246:1 1247:1 1253:1 1258:1 1260:1 1278:1 1282:3
1 154:1 1252:1 1282:4
1 336:3 423:1 440:1 583:1 621:1 715:1 806:1 900:2 1044:1 1080:4 1177:3 1234:3 1235:1 1238:1 1246:3 1247:2 1248:1 1251:1 1258:1 1260:1 1272:1 1274:1 1278:4 1282:6
1 336:3 423:1 440:1 621:1 806:1 900:2 1044:1 1080:4 1177:3 1234:3 1235:1 1238:1 1246:3 1247:2 1248:1 1251:1 1260:1 1274:1 1278:4 1282:7
1 336:3 423:1 440:1 621:1 715:1 806:1 900:2 1080:4 1177:2 1234:3 1235:1 1246:2 1247:2 1248:1 1258:1 1260:1 1274:1 1278:4 1282:6
1 318:1 336:3 423:1 440:1 621:1 806:1 900:2 1080:4 1177:2 1218:1 1234:3 1235:1 1246:2 1247:2 1248:1 1255:1 1260:1 1274:1 1278:4 1282:7
1 336:2 423:1 440:1 583:1 806:1 900:2 1080:6 1177:2 1234:2 1235:1 1246:2 1247:2 1260:1 1272:1 1274:1 1278:6 1282:7
1 230:1 252:1 324:1 583:1 621:1 1080:1 1222:1 1228:1 1242:1 1248:1 1272:1 1273:1 1278:1 1282:3
1 140:1 423:1 684:1 710:1 715:1 900:1 1080:1 1177:1 1229:1 1244:1 1246:1 1247:1 1253:1 1258:1 1260:1 1278:1 1282:3
1 154:1 1252:1 1282:4
1 154:1 1252:1 1282:3
1 336:1 423:1 440:1 621:1 715:1 806:1 900:1 1080:1 1177:1 1234:1 1235:1 1246:1 1247:1 1248:1 1258:1 1260:1 1274:1 1278:1 1282:2 1284:6
1 423:1 440:1 621:1 715:1 806:1 900:1 1080:1 1177:1 1235:1 1246:1 1247:1 1248:1 1258:1 1260:1 1274:1 1278:1 1282:3
1 140:1 423:1 684:1 710:1 715:1 816:1 900:1 1080:1 1177:1 1229:1 1244:1 1245:1 1246:1 1247:1 1253:1 1258:1 1260:1 1278:1 1282:4
1 423:1 440:1 621:1 715:1 806:1 900:1 1080:1 1177:1 1235:1 1246:1 1247:1 1248:1 1258:1 1260:1 1274:1 1278:1 1282:3
1 423:1 440:1 621:1 715:1 900:1 1080:1 1177:1 1246:1 1247:1 1248:1 1258:1 1260:1 1274:1 1278:1 1282:3
1 154:1 1252:1 1282:4
1 324:1 336:1 423:1 450:1 455:1 621:1 697:1 715:1 900:1 914:1 927:1 957:1 1044:1 1080:1 1177:1 1215:1 1217:1 1222:1 1234:1 1240:1 1246:1 1247:1 1248:1 1251:1 1258:1 1259:1 1260:1 1266:1 1278:1 1280:1 1282:3
1 154:1 1252:1 1282:5
1 154:1 1252:1 1282:4
1 336:1 423:1 440:1 621:1 684:1 715:1 806:1 900:1 1044:1 1080:1 1177:1 1229:1 1234:1 1235:1 1246:1 1247:1 1248:1 1251:1 1258:1 1260:1 1274:1 1278:1 1282:2 1284:6
1 154:1 1252:1 1282:5
1 140:1 423:1 684:1 710:1 715:1 816:1 900:1 1080:1 1177:1 1229:1 1244:1 1245:1 1246:1 1247:1 1253:1 1258:1 1260:1 1278:1 1282:4
1 154:1 1252:1 1282:5
1 423:1 440:1 621:1 715:1 900:1 1080:1 1177:1 1246:1 1247:1 1248:1 1258:1 1260:1 1274:1 1278:1 1282:3
1 154:1 1252:1 1282:4
1 140:1 423:1 684:1 710:1 715:1 816:1 900:1 1080:1 1177:1 1229:1 1244:1 1245:1 1246:1 1247:1 1253:1 1258:1 1260:1 1278:1 1282:3
1 154:1 1252:1 1282:4
1 140:1 423:1 684:1 710:1 715:1 816:1 900:1 1080:1 1177:1 1229:1 1244:1 1245:1 1246:1 1247:1 1253:1 1258:1 1260:1 1278:1 1282:3
1 319:1 336:3 423:1 440:1 583:1 621:1 806:1 900:2 1080:4 1177:2 1219:1 1234:3 1235:1 1246:2 1247:2 1248:1 1260:1 1272:1 1274:1 1278:4 1282:6
1 154:1 1252:1 1282:5
1 336:3 423:1 440:1 583:1 621:1 715:1 806:1 900:2 1080:4 1177:2 1234:3 1235:1 1246:2 1247:2 1248:1 1258:1 1260:1 1272:1 1274:1 1278:4 1282:6
1 336:3 423:1 440:1 583:1 621:1 806:1 900:2 1044:1 1080:5 1177:2 1234:3 1235:1 1246:2 1247:2 1248:1 1251:1 1260:1 1272:1 1274:1 1278:5 1282:6
1 154:1 1252:1 1282:4
1 336:3 423:1 440:1 621:1 806:1 900:2 1080:4 1177:2 1234:3 1235:1 1246:2 1247:2 1248:1 1260:1 1274:1 1278:4 1282:6
1 154:1 1252:1 1282:4
1 154:1 1252:1 1282:2
1 336:3 423:1 440:1 583:1 621:1 715:2 806:1 900:2 1080:5 1177:2 1234:3 1235:1 1246:2 1247:2 1248:1 1258:2 1260:1 1272:1 1274:1 1278:5 1282:7
1 640:1 1261:1 1282:4
1 154:1 1252:1 1282:3
1 154:1 1252:1 1282:4
1 154:1 1252:1 1282:4
1 640:1 1261:1 1282:2
1 154:1 1252:1 1282:4
1 336:2 423:1 440:1 806:1 900:2 1080:4 1177:2 1234:2 1235:1 1246:2 1247:2 1260:1 1274:1 1278:4 1282:6
1 140:1 423:1 684:1 710:1 715:1 816:1 900:1 1080:1 1177:1 1229:1 1244:1 1245:1 1246:1 1247:1 1253:1 1258:1 1260:1 1278:1 1282:4
1 1080:1 1177:1 1246:1 1278:1 1282:2
1 154:1 1252:1 1282:5
1 154:1 1252:1 1282:4
1 154:1 1252:1 1282:4
1 154:1 1252:1 1282:4
1 640:1 1261:1 1282:1
1 154:1 1252:1 1282:5
1 154:1 1252:1 1282:4
1 640:1 1261:1 1282:1
1 220:1 336:3 423:1 440:1 621:2 715:1 806:1 900:2 914:1 1080:4 1177:2 1234:3 1235:1 1246:2 1247:2 1248:2 1258:1 1259:1 1260:1 1270:1 1274:1 1278:4 1282:6
1 336:3 423:1 440:1 621:1 806:1 900:2 1080:4 1177:2 1234:3 1235:1 1246:2 1247:2 1248:1 1260:1 1274:1 1278:4 1282:7
1 230:1 252:1 324:1 583:1 621:1 1080:1 1222:1 1228:1 1242:1 1248:1 1272:1 1273:1 1278:1 1282:2
1 914:1 1080:1 1259:1 1278:1 1282:2
1 154:1 1252:1 1282:4
1 640:1 1261:1 1282:1
1 154:1 1252:1 1282:5
1 640:1 1080:1 1261:1 1278:1 1282:4
1 319:1 328:1 336:1 351:1 423:1 440:1 583:1 621:1 715:1 806:1 900:1 957:1 1044:1 1080:1 1134:1 1171:1 1176:1 1177:1 1217:1 1219:1 1227:1 1234:1 1235:1 1239:1 1243:1 1246:1 1247:1 1248:1 1251:1 1254:1 1258:1 1260:1 1267:1 1272:1 1274:1 1278:1 1282:2
1 336:1 423:1 440:1 583:1 806:1 900:1 1080:1 1177:1 1234:1 1235:1 1246:1 1247:1 1260:1 1272:1 1274:1 1278:1 1282:5
1 154:1 1252:1 1282:3
1 336:3 423:1 440:1 583:1 621:1 806:1 900:2 1080:4 1177:2 1234:3 1235:1 1246:2 1247:2 1248:1 1260:1 1272:1 1274:1 1278:4 1282:6
-1 1023:1 1080:1 1278:1 1282:1
-1 1023:1 1080:1 1278:1 1282:1
-1 1023:1 1080:1 1278:1 1282:1
-1 1023:1 1080:1 1278:1 1282:1
-1 1023:1 1080:1 1278:1 1282:1
-1 1023:1 1080:1 1278:1 1282:1
-1 1023:1 1080:1 1278:1 1282:1
-1 1023:1 1080:1 1278:1 1282:1
-1 1023:1 1080:1 1278:1 1282:1
-1 328:1 423:1 651:1 684:1 710:1 715:1 900:1 1080:1 1177:1 1227:1 1229:1 1246:1 1247:1 1253:1 1258:1 1260:1 1278:1 1282:2
-1 1023:1 1080:1 1278:1 1282:1
-1 1023:1 1080:1 1278:1 1282:1
-1 1023:1 1080:1 1278:1 1282:1
-1 423:1 477:1 900:1 1023:1 1080:1 1241:1 1247:1 1260:1 1278:1 1282:1
-1 1023:1 1080:1 1278:1 1282:1
-1 1023:1 1080:1 1278:1 1282:1
-1 579:1 1023:1 1080:1 1278:1 1282:1
-1 1023:1 1080:1 1278:1 1282:1
-1 1023:1 1080:1 1278:1 1282:1
-1 1023:1 1080:1 1278:1 1282:1
-1 1023:1 1080:1 1278:1 1282:1
-1 1023:1 1080:1 1278:1 1282:1
-1 579:1 620:1 1023:1 1080:1 1278:1 1282:1
-1 579:1 620:1 1023:1 1080:1 1278:1 1282:1
-1 579:1 1023:1 1080:1 1278:1 1282:1
-1 1023:1 1080:1 1278:1 1282:1
-1 324:1 423:1 440:1 477:1 715:1 900:1 933:1 1080:1 1145:1 1177:1 1222:1 1241:1 1246:1 1247:1 1258:1 1260:1 1274:1 1278:1 1279:1 1282:2
-1 446:1 1023:1 1080:1 1278:1 1282:2
-1 161:1 314:1 457:1 477:1 545:1 786:1 1044:1 1080:1 1145:1 1241:1 1251:1 1278:1 1279:1 1282:1 1284:1
-1 621:1 710:1 715:1 900:1 1080:1 1177:1 1246:1 1247:1 1248:1 1253:1 1258:1 1278:1 1282:3
-1 336:1 900:1 1080:1 1234:1 1247:1 1278:1 1282:4
-1 336:1 710:1 900:1 1080:1 1177:1 1234:1 1246:1 1247:1 1253:1 1278:1 1282:2
-1 319:1 336:1 423:1 440:1 583:1 621:1 710:1 715:1 900:1 1080:1 1177:1 1219:1 1234:1 1246:1 1247:1 1248:1 1253:1 1258:1 1260:1 1272:1 1274:1 1278:1 1282:3
-1 336:1 440:1 583:1 621:1 710:1 715:1 900:1 1080:1 1177:1 1234:1 1246:1 1247:1 1248:1 1253:1 1258:1 1272:1 1274:1 1278:1 1282:4
-1 154:1 1252:1 1282:3
-1 154:1 1252:1 1282:3
-1 336:1 423:1 621:1 632:1 664:1 715:1 892:1 897:1 900:1 912:1 1000:1 1080:1 1176:1 1177:1 1234:1 1243:1 1246:1 1247:1 1248:1 1258:1 1260:1 1278:1 1282:1
-1 154:1 1252:1 1282:3
-1 205:1 423:1 583:1 806:1 816:1 900:1 1080:1 1177:1 1235:1 1245:1 1246:1 1247:1 1260:1 1272:1 1278:1 1282:2
-1 319:1 336:1 423:1 440:1 583:1 621:1 710:1 715:1 816:1 900:1 1080:1 1177:1 1219:1 1234:1 1245:1 1246:1 1247:1 1248:1 1253:1 1258:1 1260:1 1272:1 1274:1 1278:1 1282:1
-1 376:1 423:1 440:1 583:1 621:1 806:1 900:1 1080:1 1235:1 1247:1 1248:1 1260:1 1272:1 1274:1 1278:1 1282:2
-1 220:1 336:1 423:1 440:1 450:1 455:1 583:1 621:1 715:1 900:1 1080:1 1177:1 1215:1 1234:1 1246:1 1247:1 1248:1 1258:1 1260:1 1270:1 1272:1 1274:1 1278:1 1280:1 1282:2
-1 1282:1
-1 192:1 251:1 304:1 311:1 330:1 359:1 364:1 418:1 489:1 683:1 710:1 813:1 831:1 845:1 864:1 880:1 883:1 1041:1 1114:1 1253:1 1282:1 1284:3
-1 1080:1 1278:1 1282:3
-1 336:2 423:1 440:1 583:1 900:2 1044:1 1080:4 1177:2 1234:2 1246:2 1247:2 1251:1 1260:1 1272:1 1274:1 1278:4 1282:6
-1 336:2 423:1 440:1 715:2 806:1 900:2 1080:4 1177:2 1234:2 1235:1 1246:2 1247:2 1258:2 1260:1 1274:1 1278:4 1282:6
-1 710:2 1044:1 1080:1 1251:1 1253:2 1278:1 1282:2
-1 632:1 715:1 900:1 912:1 1080:1 1177:1 1246:1 1247:1 1258:1 1278:1 1282:1
-1 192:1 223:1 224:1 251:1 288:1 304:1 311:1 330:1 359:1 364:1 418:1 489:1 495:1 553:1 683:1 710:1 813:1 831:1 845:1 883:1 1041:1 1114:1 1125:1 1253:1 1282:2
-1 632:1 1080:1 1181:1 1278:1 1282:1
-1 154:1 1252:1 1282:2
-1 417:1 710:1 900:1 1080:1 1247:1 1253:1 1278:1 1282:2
-1 423:1 536:1 684:1 710:2 715:1 900:1 1080:1 1177:1 1229:1 1246:1 1247:1 1253:2 1258:1 1260:1 1278:1 1282:2
-1 154:1 1252:1 1282:2
-1 154:1 1252:1 1282:2
-1 154:1 1252:1 1282:2
-1 132:1 423:1 583:1 710:1 900:1 1080:1 1247:1 1253:1 1260:1 1272:1 1278:1 1282:2
-1 710:1 900:1 1080:1 1247:1 1253:1 1278:1 1282:5
-1 318:1 336:1 402:1 423:1 440:1 564:1 583:1 621:1 715:1 806:1 816:1 900:1 1080:1 1177:1 1218:1 1234:1 1235:1 1237:1 1245:1 1246:1 1247:1 1248:1 1258:1 1260:1 1272:1 1274:1 1278:1 1282:1
-1 710:1 1080:1 1253:1 1278:1 1282:2
-1 324:1 336:1 402:1 423:1 440:1 583:1 684:1 715:1 806:1 900:1 1080:1 1176:1 1177:1 1222:1 1229:1 1234:1 1235:1 1237:1 1243:1 1246:1 1247:1 1258:1 1260:1 1272:1 1274:1 1278:1 1282:1
-1 640:1 1261:1 1282:1
-1 710:1 1080:1 1253:1 1278:1 1282:4
-1 710:1 900:1 1080:1 1247:1 1253:1 1278:1 1282:4
-1 140:1 319:1 324:1 336:1 351:1 379:1 621:1 632:1 684:1 715:1 900:1 912:1 1000:1 1030:1 1080:1 1154:1 1177:1 1219:1 1222:1 1229:1 1234:1 1244:1 1246:1 1247:1 1248:1 1254:1 1258:1 1278:1 1282:1
-1 336:1 423:1 621:1 651:1 710:1 715:1 900:1 1080:1 1234:1 1247:1 1248:1 1253:1 1258:1 1260:1 1278:1 1282:2
-1 154:1 1252:1 1282:3
-1 318:1 336:1 423:1 564:1 583:1 621:1 900:1 1080:1 1177:1 1218:1 1234:1 1246:1 1247:1 1248:1 1260:1 1272:1 1278:1 1282:1
-1 336:1 440:1 900:2 1080:2 1177:2 1234:1 1246:2 1247:2 1274:1 1278:2 1282:7
-1 423:1 440:1 583:1 684:1 710:2 715:1 900:1 1080:1 1177:1 1229:1 1246:1 1247:1 1253:2 1258:1 1260:1 1272:1 1274:1 1278:1 1282:5
-1 154:1 1252:1 1282:3
-1 154:1 1252:1 1282:2
-1 140:1 336:1 423:1 621:1 715:1 806:1 900:1 1080:1 1177:1 1234:1 1235:1 1244:1 1246:1 1247:1 1248:1 1258:1 1260:1 1278:1 1282:2
-1 225:1 293:1 318:1 336:1 621:1 710:1 715:1 806:1 1080:1 1177:1 1218:1 1234:1 1235:1 1246:1 1248:1 1253:1 1258:1 1278:1 1282:1
-1 140:1 579:1 620:1 621:1 715:1 900:1 1080:1 1177:1 1244:1 1246:1 1247:1 1248:1 1258:1 1278:1 1282:1
-1 154:1 1252:1 1282:4
-1 154:1 1252:1 1282:3
-1 336:1 423:1 440:1 583:1 621:1 715:1 900:1 1080:1 1177:1 1234:1 1246:1 1247:1 1248:1 1258:1 1260:1 1272:1 1274:1 1278:1 1282:1 1284:1
-1 324:1 900:1 1080:1 1222:1 1247:1 1278:1 1282:1
-1 640:1 1261:1 1282:1
-1 154:1 324:1 336:1 621:1 710:1 843:1 1080:1 1177:1 1222:1 1234:1 1246:1 1248:1 1252:1 1253:1 1264:1 1278:1 1282:3 1284:4
-1 336:1 423:1 440:1 441:1 583:1 715:1 900:1 1080:1 1177:1 1234:1 1246:1 1247:1 1258:1 1260:1 1272:1 1274:1 1278:1 1282:11
-1 154:1 1252:1 1282:3
-1 154:1 1252:1 1282:2
-1 336:1 423:1 621:1 684:1 715:1 900:1 927:1 1044:1 1080:1 1177:1 1229:1 1234:1 1246:1 1247:1 1248:1 1251:1 1258:1 1260:1 1266:1 1278:1 1282:2
-1 423:1 621:1 715:1 900:1 1080:1 1177:1 1246:1 1247:1 1248:1 1258:1 1260:1 1278:1 1282:2
-1 336:3 423:1 440:1 621:1 697:1 710:1 715:1 806:1 900:3 1044:1 1080:4 1134:1 1177:2 1234:3 1235:1 1240:1 1246:2 1247:3 1248:1 1251:1 1253:1 1258:1 1260:1 1267:1 1274:1 1278:4 1282:5
-1 336:3 423:1 440:1 621:1 697:1 710:1 715:1 806:1 900:3 1080:4 1134:1 1177:2 1234:3 1235:1 1240:1 1246:2 1247:3 1248:1 1253:1 1258:1 1260:1 1267:1 1274:1 1278:4 1282:5
-1 154:1 1252:1 1282:3
-1 154:1 1252:1 1282:3
-1 192:1 224:1 311:1 330:1 418:1 495:1 596:1 623:1 683:1 710:1 723:1 731:1 813:1 818:1 845:1 880:1 984:1 1005:1 1024:1 1041:1 1114:1 1253:1 1282:1
-1 324:1 336:1 351:1 423:1 440:1 450:1 583:1 621:1 715:1 900:1 1080:1 1177:1 1222:1 1234:1 1246:1 1247:1 1248:1 1254:1 1258:1 1260:1 1272:1 1274:1 1278:1 1280:1 1282:2
-1 423:1 440:1 583:1 621:1 715:1 900:1 1080:1 1134:1 1146:1 1177:1 1246:1 1247:1 1248:1 1258:1 1260:1 1267:1 1272:1 1274:1 1278:1 1282:2
-1 154:1 1252:1 1282:3
-1 710:1 1080:1 1134:1 1253:1 1267:1 1278:1 1282:6
-1 1044:1 1080:1 1251:1 1278:1 1282:2
-1 158:1 651:1 710:1 900:1 1080:1 1247:1 1253:1 1256:1 1278:1 1282:2
-1 180:1 1044:1 1080:1 1112:1 1251:1 1278:1 1282:3
-1 324:1 336:1 423:1 583:1 621:1 715:1 900:1 914:1 1044:1 1080:1 1177:1 1222:1 1234:1 1246:1 1247:1 1248:1 1251:1 1258:1 1259:1 1260:1 1272:1 1278:1 1282:1
-1 398:1 446:1 477:1 531:1 667:1 674:1 700:1 797:1 964:1 1080:1 1113:1 1145:1 1181:1 1241:1 1278:1 1279:1 1282:2
-1 324:1 336:1 351:1 423:1 440:1 450:1 583:1 621:1 715:1 806:1 900:1 1044:1 1080:1 1177:1 1222:1 1234:1 1235:1 1246:1 1247:1 1248:1 1251:1 1254:1 1258:1 1260:1 1272:1 1274:1 1278:1 1280:1 1282:1
-1 1080:1 1278:1 1282:2
-1 1282:4
-1 1080:1 1177:1 1246:1 1278:1 1282:3
-1 336:1 621:1 900:1 1080:1 1234:1 1247:1 1248:1 1278:1 1282:3
-1 246:1 383:1 423:1 440:1 621:1 715:1 900:1 1080:1 1177:1 1221:1 1246:1 1247:1 1248:1 1258:1 1260:1 1274:1 1278:1 1282:3
-1 137:1 192:1 251:1 304:1 311:1 330:1 364:1 418:1 489:1 553:1 683:1 710:1 748:1 813:1 831:1 845:1 883:1 1005:1 1041:1 1053:1 1114:1 1253:1 1282:1
-1 192:1 224:1 267:1 279:1 309:1 311:1 330:1 683:1 710:1 813:1 843:1 845:1 937:1 1005:1 1024:1 1041:1 1114:1 1253:1 1264:1 1282:3
-1 192:1 223:1 224:1 279:1 294:1 304:1 309:1 311:1 330:1 402:1 482:1 679:1 683:1 710:1 722:1 783:1 813:1 831:1 843:1 845:1 937:1 995:1 1005:1 1024:1 1041:1 1114:1 1171:1 1237:1 1239:1 1253:1 1264:1 1282:2
-1 710:1 843:1 1080:1 1177:1 1246:1 1253:1 1264:1 1278:1 1282:1
-1 324:1 336:1 423:1 440:1 450:1 583:1 621:1 900:1 1080:1 1177:1 1222:1 1234:1 1246:1 1247:1 1248:1 1260:1 1272:1 1274:1 1278:1 1280:1 1282:1
-1 154:1 336:1 900:1 1052:1 1080:1 1177:1 1234:1 1246:1 1247:1 1252:1 1278:1 1282:1
-1 192:1 304:1 311:1 330:1 359:1 364:1 386:1 683:1 710:1 813:1 845:1 883:1 1041:1 1114:1 1253:1 1282:2
-1 162:1 252:1 324:1 328:1 336:1 351:1 423:1 478:1 621:1 697:1 715:1 786:1 806:1 900:1 955:1 1044:1 1080:1 1177:1 1190:1 1222:1 1227:1 1228:1 1234:1 1235:1 1240:1 1246:1 1247:1 1248:1 1251:1 1254:1 1258:1 1260:1 1262:1 1263:1 1278:1 1282:2 1284:919
-1 318:1 336:1 621:1 710:1 715:1 1080:1 1177:1 1218:1 1234:1 1246:1 1248:1 1253:1 1258:1 1278:1 1282:1
-1 192:1 272:1 304:1 311:1 330:1 335:1 336:1 364:1 501:1 514:1 553:1 621:1 683:1 831:1 843:1 845:1 891:1 900:1 1041:1 1080:1 1177:1 1234:1 1246:1 1247:1 1248:1 1264:1 1278:1 1282:2
-1 246:1 272:1 335:1 336:1 351:1 501:1 532:1 543:1 621:1 816:1 875:1 900:1 1080:1 1171:1 1177:1 1221:1 1234:1 1239:1 1245:1 1246:1 1247:1 1248:1 1254:1 1278:1 1282:1
-1 621:1 1080:1 1177:1 1246:1 1248:1 1278:1 1282:1
-1 272:1 335:1 501:1 621:1 1080:1 1177:1 1246:1 1248:1 1278:1 1282:1
-1 402:1 621:1 1080:1 1101:1 1171:1 1177:1 1237:1 1239:1 1246:1 1248:1 1278:1 1282:1
-1 272:1 335:1 501:1 900:1 1080:1 1176:1 1177:1 1243:1 1246:1 1247:1 1278:1 1282:1
-1 272:1 335:1 402:1 501:1 621:1 715:1 900:1 1080:1 1171:1 1177:1 1237:1 1239:1 1246:1 1247:1 1248:1 1258:1 1278:1 1282:1
-1 154:1 1252:1 1282:3
-1 316:1 324:1 336:1 402:1 440:1 715:1 806:1 900:1 1080:1 1177:1 1216:1 1222:1 1234:1 1235:1 1237:1 1246:1 1247:1 1258:1 1274:1 1278:1 1282:1 1284:3
-1 1080:1 1278:1 1282:3
-1 336:1 440:1 900:2 1080:2 1177:2 1234:1 1246:2 1247:2 1274:1 1278:2 1282:7
-1 684:1 843:1 1044:1 1080:1 1177:1 1229:1 1246:1 1251:1 1264:1 1278:1 1282:4
-1 710:1 715:1 900:1 1080:1 1177:1 1246:1 1247:1 1253:1 1258:1 1278:1 1282:3
-1 710:1 715:1 900:1 1080:1 1177:1 1246:1 1247:1 1253:1 1258:1 1278:1 1282:3
-1 336:3 423:1 440:1 583:1 621:2 715:2 724:1 806:1 856:1 900:2 1044:1 1080:5 1134:1 1177:2 1234:3 1235:1 1246:2 1247:2 1248:2 1251:1 1258:2 1260:1 1267:1 1272:1 1274:1 1278:5 1282:6
-1 161:1 545:1 637:1 710:2 716:1 749:1 1080:1 1135:1 1253:2 1278:1 1282:3
-1 192:1 223:1 300:1 311:1 328:1 330:1 418:1 683:1 684:1 710:1 759:1 843:1 845:1 883:1 937:1 1041:1 1114:1 1227:1 1229:1 1253:1 1264:1 1282:2
-1 1080:1 1278:1 1282:2
-1 336:1 423:1 440:1 621:1 900:2 1080:3 1177:2 1234:1 1246:2 1247:2 1248:1 1260:1 1274:1 1278:3 1282:6
-1 154:1 1252:1 1282:3
-1 154:1 1252:1 1282:3
-1 477:1 670:1 1080:1 1145:1 1241:1 1278:1 1279:1 1282:2
-1 710:1 900:1 1080:1 1247:1 1253:1 1278:1 1282:5
-1 121:1 143:1 621:1 806:1 900:1 1080:1 1177:1 1190:1 1220:1 1235:1 1246:1 1247:1 1248:1 1263:1 1278:1 1282:3
-1 255:1 396:1 501:1 524:1 572:1 589:1 655:1 659:1 795:1 828:1 829:1 900:1 909:1 1080:1 1201:1 1247:1 1278:1 1282:3
-1 710:2 1080:1 1177:1 1246:1 1253:2 1278:1 1282:3
-1 583:1 710:1 900:1 944:1 1057:1 1080:1 1247:1 1253:1 1272:1 1278:1 1282:2
-1 710:1 1036:1 1080:1 1253:1 1278:1 1282:2
-1 154:1 1252:1 1282:2
-1 154:1 1252:1 1282:2
-1 496:1 621:1 1052:1 1080:1 1177:1 1246:1 1248:1 1278:1 1282:1
-1 154:1 1252:1 1282:2
-1 154:1 496:1 596:1 621:1 684:1 1052:1 1080:1 1177:1 1229:1 1246:1 1248:1 1252:1 1278:1 1282:1 1284:9
-1 496:1 1052:1 1080:1 1177:1 1246:1 1278:1 1282:3 1284:26
-1 640:1 1261:1 1282:1
-1 192:1 251:1 304:1 311:1 330:1 359:1 489:1 683:1 710:1 813:1 845:1 864:1 880:1 1041:1 1122:1 1253:1 1282:1
-1 154:1 1252:1 1282:4
-1 1080:1 1278:1 1282:1
-1 324:1 710:1 715:1 843:1 900:1 957:1 1080:1 1177:1 1217:1 1222:1 1246:1 1247:1 1253:1 1258:1 1264:1 1278:1 1282:1
-1 192:1 311:1 330:1 504:1 514:1 683:1 710:1 766:1 843:1 845:1 1041:1 1080:1 1177:1 1246:1 1253:1 1257:1 1264:1 1278:1 1282:1
-1 423:1 900:1 1029:1 1044:1 1080:1 1247:1 1251:1 1260:1 1278:1 1282:2
-1 640:1 1261:1 1282:1
-1 332:1 336:1 423:1 440:1 450:1 583:1 621:1 715:1 900:1 1080:1 1177:1 1231:1 1234:1 1246:1 1247:1 1248:1 1258:1 1260:1 1272:1 1274:1 1278:1 1280:1 1282:2
-1 710:1 1080:1 1177:1 1246:1 1253:1 1278:1 1282:2
-1 192:1 311:1 330:1 683:1 710:1 843:1 845:1 1041:1 1114:1 1193:1 1253:1 1264:1 1282:2
-1 423:1 782:1 900:1 1080:1 1247:1 1260:1 1278:1 1282:3
-1 231:1 324:1 339:1 451:1 533:1 583:1 621:1 657:1 715:1 727:1 900:1 910:1 1044:1 1080:1 1222:1 1247:1 1248:1 1251:1 1258:1 1272:1 1278:1 1282:2 1284:3660
-1 336:1 440:1 900:2 1080:4 1177:3 1234:1 1246:3 1247:2 1274:1 1278:4 1282:5
-1 336:1 440:1 900:2 1080:4 1177:3 1234:1 1246:3 1247:2 1274:1 1278:4 1282:4
-1 398:1 446:1 477:1 531:1 579:1 620:1 700:1 964:1 1080:1 1113:1 1145:1 1181:1 1241:1 1278:1 1279:1 1282:1
-1 305:1 473:1 621:1 832:1 900:1 1044:1 1080:1 1177:1 1246:1 1247:1 1248:1 1251:1 1278:1 1282:2
-1 423:1 473:1 621:1 651:1 710:1 900:1 1044:1 1080:1 1177:1 1246:1 1247:1 1248:1 1251:1 1253:1 1260:1 1278:1 1282:2
-1 336:1 440:1 900:2 1080:2 1177:2 1234:1 1246:2 1247:2 1274:1 1278:2 1282:7
-1 192:1 224:1 268:1 311:1 330:1 361:1 364:1 418:1 525:1 623:1 683:1 685:1 710:1 723:1 731:1 800:1 813:1 818:1 831:1 843:1 845:1 937:1 1005:1 1041:1 1114:1 1253:1 1264:1 1282:2
-1 154:1 1252:1 1282:4
-1 423:1 440:1 621:1 715:1 806:1 900:1 1080:1 1177:1 1235:1 1246:1 1247:1 1248:1 1258:1 1260:1 1274:1 1278:1 1282:3
-1 423:1 440:1 621:1 715:1 806:1 900:1 1080:1 1177:1 1235:1 1246:1 1247:1 1248:1 1258:1 1260:1 1274:1 1278:1 1282:3
-1 192:1 223:1 224:1 304:1 311:1 330:1 336:1 355:1 361:1 418:1 563:1 566:1 586:1 683:1 685:1 710:1 729:1 766:1 783:1 796:1 813:1 843:1 845:1 937:1 969:1 1005:1 1024:1 1041:1 1078:1 1088:1 1114:1 1234:1 1253:1 1257:1 1264:1 1282:3
-1 192:1 223:1 311:1 330:1 418:1 426:1 586:1 593:1 683:1 710:1 759:1 843:1 845:1 883:1 937:1 969:1 1041:1 1114:1 1156:1 1194:1 1253:1 1264:1 1282:1
-1 621:1 710:1 843:1 900:1 1080:1 1177:1 1246:1 1247:1 1248:1 1253:1 1264:1 1278:1 1282:2
-1 324:1 423:1 710:2 715:1 900:1 1080:1 1176:1 1222:1 1243:1 1247:1 1253:2 1258:1 1260:1 1278:1 1282:5
-1 117:1 192:1 223:1 224:1 304:1 311:1 330:1 359:1 361:1 364:1 374:1 418:1 489:1 495:1 571:1 683:1 685:1 710:1 813:1 831:1 843:1 845:1 937:1 1005:1 1041:1 1078:1 1253:1 1264:1 1282:2
-1 843:1 1264:1 1282:1
-1 684:1 710:1 900:1 1080:1 1177:1 1229:1 1246:1 1247:1 1253:1 1278:1 1282:4
-1 843:1 1264:1 1282:1
-1 1080:1 1278:1 1282:2
-1 843:1 1264:1 1282:1
-1 336:1 423:1 440:1 583:1 621:1 715:1 806:1 900:1 1044:1 1080:1 1134:1 1177:1 1234:1 1235:1 1246:1 1247:1 1248:1 1251:1 1258:1 1260:1 1267:1 1272:1 1274:1 1278:1 1282:4
-1 140:1 162:1 351:1 423:1 543:1 621:1 715:1 900:1 1080:1 1244:1 1247:1 1248:1 1254:1 1258:1 1260:1 1262:1 1278:1 1282:2 1284:2
-1 423:1 583:1 715:1 900:1 1080:1 1177:1 1246:1 1247:1 1258:1 1260:1 1272:1 1278:1 1282:1
-1 336:1 621:1 651:1 710:1 900:1 1080:1 1234:1 1247:1 1248:1 1253:1 1278:1 1282:3
-1 154:1 1252:1 1282:2
-1 423:1 715:1 900:1 1044:1 1080:1 1177:1 1246:1 1247:1 1251:1 1258:1 1260:1 1278:1 1282:1
-1 140:1 324:1 336:1 423:1 440:1 583:1 592:1 621:1 715:1 806:1 900:1 1080:1 1177:1 1214:1 1222:1 1234:1 1235:1 1244:1 1246:1 1247:1 1248:1 1258:1 1260:1 1272:1 1274:1 1278:1 1282:1
-1 154:1 1252:1 1282:3
-1 154:1 1252:1 1282:2
-1 423:1 440:1 583:1 782:1 900:1 1080:1 1247:1 1260:1 1272:1 1274:1 1278:1 1282:3
-1 254:1 626:1 790:1 1046:1 1080:1 1278:1 1282:4
-1 154:1 1252:1 1282:3
-1 154:1 1252:1 1282:2
-1 161:1 545:1 632:1 1080:1 1278:1 1282:1
-1 336:2 423:1 440:1 715:1 900:2 1080:4 1177:2 1234:2 1246:2 1247:2 1258:1 1260:1 1274:1 1278:4 1282:6
-1 336:3 351:1 423:1 440:1 621:1 715:1 775:1 806:1 900:2 1044:1 1080:4 1177:2 1234:3 1235:1 1246:2 1247:2 1248:1 1251:1 1254:1 1258:1 1260:1 1265:1 1274:1 1278:4 1282:6
-1 154:1 1252:1 1282:3
-1 1080:1 1146:1 1278:1 1282:2
-1 319:1 423:1 703:1 715:2 778:1 900:1 1080:2 1219:1 1247:1 1258:2 1260:1 1278:2 1282:4
-1 715:1 806:1 900:1 1044:1 1080:1 1177:1 1235:1 1246:1 1247:1 1251:1 1258:1 1278:1 1282:2
-1 715:1 806:1 900:1 1044:1 1080:1 1177:1 1235:1 1246:1 1247:1 1251:1 1258:1 1278:1 1282:2
-1 154:1 1252:1 1282:3
-1 161:1 545:1 710:1 716:1 749:1 1080:1 1253:1 1278:1 1282:2
-1 336:1 715:1 900:1 1080:1 1234:1 1247:1 1258:1 1278:1 1282:3
-1 1080:1 1278:1 1282:2
-1 130:1 236:1 255:1 287:1 324:1 336:1 396:1 423:1 440:1 455:1 501:1 572:1 589:1 621:1 655:1 659:1 688:1 697:1 715:1 795:1 806:1 829:1 900:1 909:1 1044:1 1058:1 1080:1 1089:1 1176:1 1177:1 1201:1 1215:1 1222:1 1234:1 1235:1 1240:1 1243:1 1246:1 1247:1 1248:1 1251:1 1258:1 1260:1 1274:1 1278:1 1282:2 1284:124
-1 140:1 236:1 246:1 252:1 255:1 299:1 324:1 336:1 351:1 389:1 396:1 402:1 405:1 423:1 440:1 455:1 501:1 519:1 524:1 552:1 572:1 587:1 589:1 592:1 605:1 621:1 655:1 659:1 684:1 688:1 697:1 715:1 735:1 795:1 806:1 828:1 829:1 843:1 884:1 900:1 909:1 921:1 1003:1 1035:1 1044:1 1058:1 1080:1 1083:1 1089:1 1106:1 1176:1 1177:1 1214:1 1215:1 1221:1 1222:1 1225:1 1228:1 1229:1 1234:1 1235:1 1237:1 1240:1 1243:1 1244:1 1246:1 1247:1 1248:1 1251:1 1254:1 1258:1 1260:1 1264:1 1274:1 1278:1 1282:4 1284:190
-1 501:1 572:1 589:1 659:1 829:1 843:1 909:1 1080:1 1264:1 1278:1 1282:1
-1 140:1 324:1 336:1 423:1 440:1 621:1 684:1 715:1 843:1 900:1 914:1 1080:1 1177:1 1222:1 1229:1 1234:1 1244:1 1246:1 1247:1 1248:1 1258:1 1259:1 1260:1 1264:1 1274:1 1278:1 1282:1
-1 324:1 336:1 423:1 440:1 450:1 583:1 621:1 715:1 900:1 1080:1 1177:1 1222:1 1234:1 1246:1 1247:1 1248:1 1258:1 1260:1 1272:1 1274:1 1278:1 1280:1 1282:3
-1 121:1 446:1 477:1 670:1 1080:1 1145:1 1190:1 1220:1 1241:1 1263:1 1278:1 1279:1 1282:2
-1 423:1 440:1 621:1 715:1 806:1 900:1 1080:1 1177:1 1235:1 1246:1 1247:1 1248:1 1258:1 1260:1 1274:1 1278:1 1282:4
-1 423:1 440:1 621:1 715:1 806:1 900:1 1080:1 1177:1 1235:1 1246:1 1247:1 1248:1 1258:1 1260:1 1274:1 1278:1 1282:4
-1 651:1 710:1 1080:1 1158:1 1253:1 1278:1 1282:2
-1 336:1 440:1 900:2 1080:2 1177:2 1234:1 1246:2 1247:2 1274:1 1278:2 1282:7
-1 710:2 1080:1 1253:2 1278:1 1282:2
-1 180:1 805:1 1080:1 1278:1 1282:2
-1 423:1 440:1 621:1 715:1 806:1 900:1 1080:1 1177:1 1235:1 1246:1 1247:1 1248:1 1258:1 1260:1 1274:1 1278:1 1282:3
-1 1282:3
-1 1080:1 1278:1 1282:2
-1 140:1 192:1 225:1 304:1 311:1 330:1 683:1 710:1 715:1 845:1 900:1 1041:1 1080:1 1244:1 1247:1 1253:1 1258:1 1278:1 1282:2
-1 336:1 440:1 900:2 1080:2 1177:2 1234:1 1246:2 1247:2 1274:1 1278:2 1282:7
-1 1044:1 1080:1 1251:1 1278:1 1282:2
-1 196:1 423:1 452:1 477:1 710:1 715:1 900:1 1018:1 1080:1 1145:1 1241:1 1247:1 1253:1 1258:1 1260:1 1278:1 1279:1 1282:2
-1 710:2 1080:1 1253:2 1278:1 1282:2
-1 304:1 440:1 710:1 715:1 717:1 900:1 1080:1 1177:1 1246:1 1247:1 1253:1 1258:1 1274:1 1278:1 1282:3 1284:39
-1 423:1 440:1 583:1 710:1 715:1 900:1 927:1 1080:1 1177:1 1246:1 1247:1 1253:1 1258:1 1260:1 1266:1 1272:1 1274:1 1278:1 1282:4
-1 336:1 455:1 621:1 900:1 1080:1 1105:1 1215:1 1234:1 1247:1 1248:1 1278:1 1282:2
-1 640:1 1261:1 1282:2
-1 192:1 311:1 330:1 489:1 553:1 683:1 710:1 845:1 1041:1 1253:1 1282:2
-1 192:1 304:1 311:1 330:1 359:1 489:1 553:1 683:1 710:1 831:1 845:1 1041:1 1253:1 1282:2
-1 154:1 1252:1 1282:4
-1 440:1 710:1 900:1 1080:1 1247:1 1253:1 1274:1 1278:1 1282:2
-1 336:1 423:1 440:1 455:1 583:1 621:1 697:1 715:1 806:1 900:1 1044:1 1080:1 1177:1 1215:1 1234:1 1235:1 1240:1 1246:1 1247:1 1248:1 1251:1 1258:1 1260:1 1272:1 1274:1 1278:1 1282:5
-1 336:1 440:1 900:2 1080:2 1177:2 1234:1 1246:2 1247:2 1274:1 1278:2 1282:7
-1 336:1 440:1 900:2 1080:2 1177:2 1234:1 1246:2 1247:2 1274:1 1278:2 1282:7
-1 154:1 1252:1 1282:3
-1 423:1 656:1 755:1 900:1 914:1 915:1 1080:1 1146:1 1186:1 1247:1 1259:1 1260:1 1278:1 1282:1
-1 198:1 423:1 434:1 440:1 632:1 824:1 881:1 900:1 912:1 1080:1 1247:1 1260:1 1274:1 1278:1 1282:1
-1 336:1 423:1 440:1 621:1 900:2 1044:1 1080:3 1177:2 1234:1 1246:2 1247:2 1248:1 1251:1 1260:1 1274:1 1278:3 1282:6
-1 154:1 1252:1 1282:4
-1 336:1 440:1 900:2 1080:2 1177:2 1234:1 1246:2 1247:2 1274:1 1278:2 1282:7
-1 226:1 423:1 440:1 621:1 806:1 807:1 887:1 900:1 1079:1 1080:1 1134:1 1177:1 1235:1 1246:1 1247:1 1248:1 1260:1 1267:1 1274:1 1278:1 1282:2
-1 140:1 225:1 246:1 324:1 328:1 336:1 351:1 402:1 423:1 440:1 450:1 564:1 583:1 592:1 621:1 684:1 715:1 806:1 900:1 1080:1 1171:1 1176:1 1177:1 1214:1 1221:1 1222:1 1227:1 1229:1 1234:1 1235:1 1237:1 1239:1 1243:1 1244:1 1246:1 1247:1 1248:1 1254:1 1258:1 1260:1 1272:1 1274:1 1278:1 1280:1 1282:1
-1 140:1 162:1 246:1 252:1 324:1 336:1 393:1 423:1 552:1 621:1 684:1 715:1 806:1 823:1 900:1 927:1 1080:1 1171:1 1176:1 1177:1 1221:1 1222:1 1228:1 1229:1 1230:1 1234:1 1235:1 1239:1 1243:1 1244:1 1246:1 1247:1 1248:1 1258:1 1260:1 1262:1 1266:1 1278:1 1282:1
-1 336:1 440:1 900:2 1080:2 1177:2 1234:1 1246:2 1247:2 1274:1 1278:2 1282:7
-1 710:1 1253:1 1282:3
-1 423:1 440:1 574:1 583:1 621:1 710:1 715:1 900:1 1044:1 1080:1 1134:1 1177:1 1246:1 1247:1 1248:1 1251:1 1253:1 1258:1 1260:1 1267:1 1272:1 1274:1 1278:1 1282:4
-1 140:1 141:1 172:1 192:1 202:1 218:1 223:1 228:1 251:1 252:1 274:1 288:1 303:1 304:1 311:1 330:1 359:1 364:1 423:1 430:1 442:1 443:1 489:1 495:1 553:1 593:1 623:1 647:1 653:1 683:1 710:1 715:1 722:1 723:1 793:1 813:1 831:1 835:1 843:1 845:1 883:1 900:1 937:1 960:1 1005:1 1024:1 1041:1 1053:1 1114:1 1182:1 1202:1 1204:1 1228:1 1244:1 1247:1 1253:1 1258:1 1260:1 1264:1 1269:1 1276:1 1282:2
-1 324:1 402:1 710:1 843:1 944:1 1080:1 1177:1 1222:1 1237:1 1246:1 1253:1 1264:1 1278:1 1282:2
-1 192:1 223:1 265:1 309:1 311:1 346:1 361:1 395:1 418:1 505:1 557:1 683:1 710:1 759:1 813:1 825:1 830:1 843:1 904:1 1005:1 1141:1 1253:1 1264:1 1282:2 1284:23
-1 326:1 336:1 423:1 440:1 621:1 710:1 900:1 1080:1 1177:1 1234:1 1246:1 1247:1 1248:1 1253:1 1260:1 1274:1 1278:1 1282:2
-1 402:1 440:1 621:1 710:1 715:1 717:1 843:1 900:1 1080:1 1129:1 1177:1 1237:1 1246:1 1247:1 1248:1 1253:1 1258:1 1264:1 1274:1 1278:1 1282:1 1284:39
-1 192:1 304:1 311:1 330:1 516:1 683:1 710:1 715:1 845:1 885:1 1038:1 1041:1 1080:1 1253:1 1258:1 1278:1 1282:3
-1 246:1 304:1 336:1 402:1 710:1 715:1 900:1 1080:1 1171:1 1177:1 1221:1 1234:1 1237:1 1239:1 1246:1 1247:1 1253:1 1258:1 1278:1 1282:1
-1 261:1 324:1 489:1 553:1 621:1 710:1 715:1 717:1 900:1 908:1 1080:1 1129:1 1177:1 1222:1 1246:1 1247:1 1248:1 1253:1 1258:1 1278:1 1282:3 1284:39
-1 710:1 715:1 1076:1 1080:1 1253:1 1258:1 1278:1 1282:3
-1 324:1 328:1 351:1 423:1 564:1 592:1 621:1 684:1 715:1 900:1 914:1 1080:1 1134:1 1176:1 1177:1 1214:1 1222:1 1227:1 1229:1 1243:1 1246:1 1247:1 1248:1 1254:1 1258:1 1259:1 1260:1 1267:1 1278:1 1282:2
-1 336:1 440:1 900:2 1080:2 1177:2 1234:1 1246:2 1247:2 1274:1 1278:2 1282:7
-1 640:1 1261:1 1282:1
-1 336:2 710:1 900:2 1080:4 1177:1 1234:2 1246:1 1247:2 1253:1 1278:4 1282:5
-1 1080:1 1278:1 1282:2
-1 1080:1 1278:1 1282:2
-1 140:1 336:1 402:1 423:1 440:1 621:1 715:1 806:1 900:1 914:1 1080:1 1177:1 1234:1 1235:1 1237:1 1244:1 1246:1 1247:1 1248:1 1258:1 1259:1 1260:1 1274:1 1278:1 1282:2
-1 710:1 1253:1 1282:3
-1 220:1 336:1 423:1 440:1 450:1 477:1 583:1 621:1 715:1 900:1 1080:1 1145:1 1177:1 1234:1 1241:1 1246:1 1247:1 1248:1 1258:1 1260:1 1270:1 1272:1 1274:1 1278:1 1279:1 1280:1 1282:2
-1 324:1 402:1 710:1 715:1 843:1 944:1 1080:1 1177:1 1222:1 1237:1 1246:1 1253:1 1258:1 1264:1 1278:1 1282:2
-1 154:1 1252:1 1282:3
-1 300:1 324:1 336:1 423:1 440:1 455:1 583:1 621:1 697:1 715:1 806:1 900:1 914:1 927:1 957:1 1044:1 1080:1 1134:1 1177:1 1215:1 1217:1 1222:1 1234:1 1235:1 1240:1 1246:1 1247:1 1248:1 1251:1 1258:1 1259:1 1260:1 1266:1 1267:1 1272:1 1274:1 1278:1 1282:1
-1 336:3 423:1 440:1 583:1 621:1 715:2 806:1 900:2 1080:4 1177:2 1234:3 1235:1 1246:2 1247:2 1248:1 1258:2 1260:1 1272:1 1274:1 1278:4 1282:6
-1 710:2 1080:1 1134:1 1253:2 1267:1 1278:1 1282:3
-1 1080:1 1278:1 1282:2
-1 1080:1 1278:1 1282:2
-1 1080:1 1278:1 1282:3
-1 154:1 1252:1 1282:3
-1 1080:1 1278:1 1282:3
-1 710:1 1080:1 1253:1 1278:1 1282:3
-1 423:1 621:1 710:2 715:1 900:1 1080:1 1134:1 1247:1 1248:1 1253:2 1258:1 1260:1 1267:1 1278:1 1282:2
-1 192:1 251:1 304:1 311:1 330:1 359:1 364:1 418:1 489:1 683:1 710:1 813:1 845:1 864:1 880:1 883:1 1041:1 1114:1 1122:1 1253:1 1282:1 1284:3
-1 1080:1 1278:1 1282:3
-1 192:1 304:1 311:1 330:1 456:1 466:1 489:1 553:1 683:1 710:1 843:1 845:1 908:1 1041:1 1080:1 1095:1 1177:1 1246:1 1253:1 1264:1 1278:1 1282:1
-1 324:1 423:1 440:1 621:1 647:1 710:1 715:1 843:1 900:1 914:1 957:1 1080:1 1217:1 1222:1 1247:1 1248:1 1253:1 1258:1 1259:1 1260:1 1264:1 1269:1 1274:1 1278:1 1282:2
-1 621:1 710:1 715:1 1080:1 1137:1 1248:1 1253:1 1258:1 1278:1 1282:3
-1 621:1 710:1 715:1 1080:1 1137:1 1248:1 1253:1 1258:1 1278:1 1282:3
-1 223:1 224:1 295:1 408:1 482:1 593:1 710:1 869:1 937:1 938:1 958:1 995:1 1005:1 1038:1 1041:1 1253:1 1282:2
-1 324:1 423:1 440:1 583:1 621:1 715:1 806:1 900:1 1044:1 1080:1 1177:1 1189:1 1222:1 1235:1 1246:1 1247:1 1248:1 1251:1 1258:1 1260:1 1272:1 1274:1 1278:1 1282:2 1284:69
-1 477:1 710:2 964:1 1080:1 1145:1 1181:1 1241:1 1253:2 1278:1 1279:1 1282:3
-1 336:1 402:1 423:1 440:1 621:1 715:1 806:1 900:1 1080:1 1177:1 1234:1 1235:1 1237:1 1246:1 1247:1 1248:1 1258:1 1260:1 1274:1 1278:1 1282:3
-1 583:1 710:2 900:1 1080:1 1247:1 1253:2 1272:1 1278:1 1282:2
-1 154:1 1252:1 1282:3
-1 273:1 424:1 684:1 844:1 1080:1 1177:1 1229:1 1246:1 1278:1 1282:1
-1 273:1 424:1 684:1 844:1 1080:1 1177:1 1229:1 1246:1 1278:1 1282:1
-1 640:1 1261:1 1282:1
-1 336:1 423:1 583:1 621:1 684:1 710:2 715:1 900:1 927:1 1044:1 1080:1 1177:1 1229:1 1234:1 1246:1 1247:1 1248:1 1251:1 1253:2 1258:1 1260:1 1266:1 1272:1 1278:1 1282:2
-1 477:1 535:1 684:1 710:2 900:1 964:1 1080:1 1145:1 1181:1 1229:1 1241:1 1247:1 1253:2 1278:1 1279:1 1282:2
-1 423:1 643:1 900:1 923:1 1080:1 1146:1 1247:1 1260:1 1278:1 1282:1 1284:5
-1 117:1 192:1 311:1 319:1 330:1 408:1 683:1 684:1 710:1 731:1 816:1 843:1 845:1 900:1 1038:1 1041:1 1080:1 1177:1 1219:1 1229:1 1245:1 1246:1 1247:1 1253:1 1264:1 1278:1 1282:2
-1 117:1 192:1 234:1 311:1 330:1 361:1 364:1 514:1 646:1 683:1 710:1 813:1 843:1 845:1 883:1 900:1 937:1 1005:1 1041:1 1114:1 1247:1 1253:1 1264:1 1282:2
-1 710:1 843:1 1080:1 1177:1 1246:1 1253:1 1264:1 1278:1 1282:1
-1 154:1 1252:1 1282:3
-1 684:1 715:1 900:1 1080:1 1229:1 1247:1 1258:1 1278:1 1282:2
-1 336:1 440:1 900:2 1080:2 1177:2 1234:1 1246:2 1247:2 1274:1 1278:2 1282:7
-1 154:1 1252:1 1282:2
-1 423:1 440:1 621:1 715:1 806:1 900:1 1080:1 1177:1 1235:1 1246:1 1247:1 1248:1 1258:1 1260:1 1274:1 1278:1 1282:2
-1 336:2 423:1 440:1 806:1 900:2 1080:5 1177:2 1234:2 1235:1 1246:2 1247:2 1260:1 1274:1 1278:5 1282:6
-1 621:1 710:1 1080:1 1177:1 1246:1 1248:1 1253:1 1278:1 1282:1
-1 121:1 324:1 328:1 336:1 404:1 423:1 477:1 519:1 592:1 621:1 684:1 715:1 806:1 900:1 927:1 1044:1 1080:1 1177:1 1214:1 1220:1 1222:1 1227:1 1229:1 1234:1 1235:1 1241:1 1246:1 1247:1 1248:1 1251:1 1258:1 1260:1 1266:1 1278:1 1282:2 1284:59
-1 179:1 252:1 423:1 710:1 900:1 1080:1 1177:1 1228:1 1246:1 1247:1 1253:1 1260:1 1278:1 1282:1
-1 336:1 423:1 440:1 455:1 583:1 621:1 697:1 715:1 806:1 900:1 1044:1 1080:1 1177:1 1215:1 1234:1 1235:1 1240:1 1246:1 1247:1 1248:1 1251:1 1258:1 1260:1 1272:1 1274:1 1278:1 1282:5
-1 336:1 423:1 440:1 583:1 715:1 806:1 900:1 1080:1 1177:1 1234:1 1235:1 1246:1 1247:1 1258:1 1260:1 1272:1 1274:1 1278:1 1282:5
-1 192:1 223:1 304:1 311:1 330:1 593:1 619:1 683:1 710:1 813:1 831:1 845:1 882:1 905:1 937:1 1041:1 1114:1 1253:1 1282:3
-1 154:1 1252:1 1282:4
-1 154:1 1252:1 1282:4
-1 1080:1 1278:1 1282:2
-1 433:1 710:1 1080:1 1177:1 1246:1 1253:1 1278:1 1282:3
-1 154:1 1252:1 1282:3
-1 154:1 1252:1 1282:3
-1 336:1 351:1 423:1 440:1 621:1 900:1 1080:1 1177:1 1234:1 1246:1 1247:1 1248:1 1254:1 1260:1 1274:1 1278:1 1282:1
-1 336:2 423:1 440:1 583:1 806:1 900:2 1080:5 1177:2 1234:2 1235:1 1246:2 1247:2 1260:1 1272:1 1274:1 1278:5 1282:7
-1 336:2 423:1 440:1 583:1 621:1 900:2 1044:2 1080:3 1177:1 1234:2 1246:1 1247:2 1248:1 1251:2 1260:1 1272:1 1274:1 1278:3 1282:6
-1 1080:1 1278:1 1282:2
-1 336:3 423:1 440:1 621:1 806:1 900:2 1044:1 1080:4 1177:2 1234:3 1235:1 1246:2 1247:2 1248:1 1251:1 1260:1 1274:1 1278:4 1282:6
-1 336:3 423:1 440:1 583:1 621:1 806:1 900:2 1044:1 1080:4 1177:2 1234:3 1235:1 1246:2 1247:2 1248:1 1251:1 1260:1 1272:1 1274:1 1278:4 1282:6
-1 192:1 223:1 304:1 309:1 311:1 330:1 336:1 364:1 402:1 418:1 593:1 623:1 683:1 685:1 710:1 775:1 813:1 831:1 843:1 845:1 883:1 937:1 1005:1 1024:1 1041:1 1114:1 1234:1 1237:1 1253:1 1264:1 1265:1 1282:2
-1 710:1 740:1 1080:1 1253:1 1278:1 1282:8
-1 636:1 710:1 757:1 1080:1 1099:1 1253:1 1278:1 1282:6
-1 423:1 477:1 710:2 900:1 1080:1 1241:1 1247:1 1253:2 1260:1 1278:1 1282:2
-1 336:2 423:1 440:1 583:1 621:1 715:2 900:2 1080:3 1177:2 1234:2 1246:2 1247:2 1248:1 1258:2 1260:1 1272:1 1274:1 1278:3 1282:6
-1 336:2 423:1 440:1 583:1 621:1 715:1 900:2 1080:4 1177:2 1234:2 1246:2 1247:2 1248:1 1258:1 1260:1 1272:1 1274:1 1278:4 1282:6
-1 636:1 710:1 757:1 1080:1 1099:1 1253:1 1278:1 1282:6
-1 423:1 440:1 583:1 900:1 1080:1 1177:1 1246:1 1247:1 1260:1 1272:1 1274:1 1278:1 1282:1
-1 192:1 223:1 311:1 330:1 361:1 406:1 418:1 511:1 593:1 683:1 710:1 759:1 813:1 818:1 843:1 845:1 883:1 937:1 969:1 1024:1 1041:1 1114:1 1253:1 1264:1 1282:2
-1 336:3 423:1 440:1 583:1 621:1 697:1 715:3 806:1 900:2 1080:4 1177:2 1234:3 1235:1 1240:1 1246:2 1247:2 1248:1 1258:3 1260:1 1272:1 1274:1 1278:4 1282:6
-1 192:1 359:1 489:1 553:1 710:1 715:1 845:1 1041:1 1080:1 1177:1 1246:1 1253:1 1258:1 1278:1 1282:2
-1 154:1 1252:1 1282:3
-1 154:1 1252:1 1282:4
-1 154:1 1252:1 1282:3
-1 154:1 1252:1 1282:3
-1 154:1 1252:1 1282:3
-1 154:1 1252:1 1282:3
-1 154:1 1252:1 1282:3
-1 304:1 359:1 489:1 553:1 710:1 900:1 927:1 1080:1 1129:1 1177:1 1246:1 1247:1 1253:1 1266:1 1278:1 1282:3
-1 423:1 621:1 715:1 900:1 1080:1 1247:1 1248:1 1258:1 1260:1 1278:1 1282:1
-1 140:1 162:1 351:1 423:1 543:1 621:1 715:1 900:1 1080:1 1244:1 1247:1 1248:1 1254:1 1258:1 1260:1 1262:1 1278:1 1282:2 1284:2
-1 640:1 1261:1 1282:1
-1 423:1 440:1 621:1 715:1 806:1 900:1 1080:1 1177:1 1235:1 1246:1 1247:1 1248:1 1258:1 1260:1 1274:1 1278:1 1282:3
-1 423:1 710:1 900:1 1044:1 1080:1 1247:1 1251:1 1253:1 1260:1 1278:1 1282:2
-1 710:1 1080:1 1253:1 1278:1 1282:2
-1 423:1 440:1 583:1 621:1 710:1 715:1 900:1 1080:1 1134:1 1177:1 1246:1 1247:1 1248:1 1253:1 1258:1 1260:1 1267:1 1272:1 1274:1 1278:1 1282:2
-1 423:1 710:1 900:1 1080:1 1247:1 1253:1 1260:1 1278:1 1282:2
-1 154:1 1252:1 1282:2
-1 192:1 223:1 224:1 251:1 288:1 311:1 330:1 361:1 495:1 514:1 683:1 685:1 710:1 723:1 813:1 831:1 845:1 1005:1 1024:1 1041:1 1078:1 1125:1 1253:1 1282:3
-1 158:1 336:1 651:1 710:1 715:1 871:1 900:1 1080:1 1155:1 1234:1 1247:1 1253:1 1256:1 1258:1 1278:1 1282:2
-1 220:1 423:1 440:1 621:1 651:1 710:1 900:1 1080:1 1247:1 1248:1 1253:1 1260:1 1270:1 1274:1 1278:1 1282:3
-1 154:1 1252:1 1282:3
-1 710:1 715:1 900:1 1080:1 1177:1 1246:1 1247:1 1253:1 1258:1 1278:1 1282:3
-1 1080:1 1278:1 1282:1
-1 423:1 440:1 684:1 715:1 900:1 1080:1 1229:1 1247:1 1258:1 1260:1 1274:1 1278:1 1282:2
-1 710:2 757:1 1080:1 1179:1 1253:2 1278:1 1282:5
-1 1080:1 1134:1 1267:1 1278:1 1282:2
-1 710:2 715:1 757:1 768:1 1080:1 1179:1 1253:2 1258:1 1278:1 1282:5
-1 423:1 440:1 715:1 900:1 1044:1 1080:1 1177:1 1246:1 1247:1 1251:1 1258:1 1260:1 1274:1 1278:1 1282:2
-1 710:2 1080:1 1253:2 1278:1 1282:2
-1 140:1 225:1 246:1 324:1 336:1 402:1 423:1 440:1 621:1 816:1 900:1 914:1 1080:1 1177:1 1195:1 1221:1 1222:1 1234:1 1237:1 1244:1 1245:1 1246:1 1247:1 1248:1 1259:1 1260:1 1274:1 1278:1 1282:1
-1 208:1 1282:3
-1 240:1 710:2 757:1 768:1 1080:1 1179:1 1253:2 1278:1 1282:6
-1 632:1 1080:1 1278:1 1282:2
-1 154:1 1252:1 1282:4
-1 180:1 1044:1 1080:1 1251:1 1278:1 1282:2
-1 336:1 440:1 900:2 1080:2 1177:2 1234:1 1246:2 1247:2 1274:1 1278:2 1282:7
-1 133:1 135:1 200:1 327:1 373:1 423:1 521:1 621:1 656:1 677:1 686:1 706:1 737:1 755:1 852:1 860:1 900:1 914:1 915:1 1080:1 1132:1 1146:1 1174:1 1186:1 1247:1 1248:1 1259:1 1260:1 1278:1 1282:1
-1 180:1 1080:1 1278:1 1282:2
-1 710:2 771:1 1080:1 1253:2 1278:1 1282:2
-1 336:1 440:1 900:2 1080:2 1177:2 1234:1 1246:2 1247:2 1274:1 1278:2 1282:6
-1 336:3 423:1 440:1 583:1 621:1 697:1 715:3 806:1 900:2 1044:1 1080:7 1177:2 1234:3 1235:1 1240:1 1246:2 1247:2 1248:1 1251:1 1258:3 1260:1 1272:1 1274:1 1278:7 1282:6
-1 154:1 1252:1 1282:4
-1 900:1 1044:1 1080:1 1177:1 1246:1 1247:1 1251:1 1278:1 1282:3
-1 900:1 1044:1 1080:1 1177:1 1246:1 1247:1 1251:1 1278:1 1282:3
-1 324:1 336:1 423:1 440:1 450:1 455:1 583:1 621:1 715:1 806:1 900:1 1080:1 1177:1 1215:1 1222:1 1234:1 1235:1 1246:1 1247:1 1248:1 1258:1 1260:1 1272:1 1274:1 1278:1 1280:1 1282:1
-1 640:1 1261:1 1282:1
-1 192:1 285:1 311:1 330:1 361:1 364:1 418:1 623:1 683:1 710:1 729:1 813:1 845:1 883:1 937:1 1005:1 1024:1 1037:1 1040:1 1041:1 1053:1 1114:1 1204:1 1253:1 1282:2
-1 140:1 252:1 336:1 351:1 360:1 402:1 423:1 543:1 564:1 621:1 710:1 781:1 808:1 843:1 875:1 900:1 1080:1 1177:1 1228:1 1234:1 1237:1 1244:1 1246:1 1247:1 1248:1 1253:1 1254:1 1260:1 1264:1 1268:1 1278:1 1282:2
-1 140:1 252:1 316:1 336:1 360:1 402:1 422:1 423:1 440:1 543:1 564:1 621:1 710:1 715:1 735:1 806:1 808:1 816:1 843:1 875:1 900:1 1080:1 1177:1 1216:1 1225:1 1228:1 1234:1 1235:1 1237:1 1244:1 1245:1 1246:1 1247:1 1248:1 1253:1 1258:1 1260:1 1264:1 1268:1 1274:1 1278:1 1282:1
-1 423:1 440:1 715:1 900:1 1080:1 1177:1 1246:1 1247:1 1258:1 1260:1 1274:1 1278:1 1282:3
-1 710:2 1080:1 1253:2 1278:1 1282:2
-1 154:1 1252:1 1282:3
-1 154:1 1252:1 1282:2
-1 1080:1 1278:1 1282:1
-1 449:1 710:1 900:1 1080:1 1247:1 1253:1 1278:1 1282:2
-1 192:1 304:1 311:1 330:1 514:1 553:1 683:1 710:1 845:1 1041:1 1080:1 1177:1 1246:1 1253:1 1278:1 1282:3
-1 154:1 1252:1 1282:3
-1 192:1 304:1 311:1 330:1 423:1 440:1 578:1 621:1 683:1 710:1 845:1 900:1 1041:1 1080:1 1177:1 1246:1 1247:1 1248:1 1253:1 1260:1 1274:1 1278:1 1282:1
-1 640:1 1261:1 1282:1
-1 154:1 1252:1 1282:3
-1 154:1 1252:1 1282:3
-1 192:1 224:1 311:1 325:1 330:1 593:1 683:1 684:1 710:1 759:1 813:1 818:1 843:1 845:1 937:1 1041:1 1128:1 1229:1 1253:1 1264:1 1282:2
-1 324:1 336:1 423:1 440:1 455:1 473:1 543:1 584:1 621:1 710:1 715:1 789:1 843:1 878:1 900:1 914:1 1044:1 1080:1 1098:1 1177:1 1215:1 1222:1 1224:1 1234:1 1246:1 1247:1 1248:1 1251:1 1253:1 1258:1 1259:1 1260:1 1264:1 1274:1 1275:1 1278:1 1282:1
-1 449:1 710:1 843:1 900:1 1080:1 1247:1 1253:1 1264:1 1278:1 1282:1
-1 710:1 843:1 900:1 1005:1 1080:1 1247:1 1253:1 1264:1 1278:1 1282:2
-1 154:1 1252:1 1282:3
-1 710:1 843:1 900:1 1080:1 1177:1 1246:1 1247:1 1253:1 1264:1 1278:1 1282:1
-1 192:1 683:1 710:1 843:1 845:1 903:1 978:1 1114:1 1193:1 1253:1 1264:1 1282:2
-1 710:1 843:1 900:1 903:1 1080:1 1177:1 1193:1 1246:1 1247:1 1253:1 1264:1 1278:1 1282:2
-1 326:1 336:1 423:1 440:1 621:1 710:1 900:1 1080:1 1177:1 1234:1 1246:1 1247:1 1248:1 1253:1 1260:1 1274:1 1278:1 1282:2
-1 1080:1 1278:1 1282:1
-1 324:1 684:1 710:1 806:1 843:1 900:1 1080:1 1222:1 1229:1 1235:1 1247:1 1253:1 1264:1 1278:1 1282:2
-1 570:1 592:1 715:1 806:1 900:1 1044:1 1080:1 1171:1 1176:1 1177:1 1214:1 1235:1 1239:1 1243:1 1246:1 1247:1 1251:1 1258:1 1278:1 1282:3 1284:2
-1 336:1 397:1 423:1 440:1 583:1 621:1 715:1 806:1 900:1 1044:1 1080:1 1177:1 1234:1 1235:1 1246:1 1247:1 1248:1 1251:1 1258:1 1260:1 1272:1 1274:1 1278:1 1282:5
-1 154:1 1252:1 1282:3
-1 336:1 359:1 489:1 553:1 621:1 710:1 715:1 843:1 900:1 1080:1 1122:1 1123:1 1177:1 1234:1 1246:1 1247:1 1248:1 1253:1 1258:1 1264:1 1278:1 1282:1
-1 336:1 359:1 489:1 553:1 621:1 710:1 715:1 843:1 900:1 1080:1 1122:1 1123:1 1177:1 1234:1 1246:1 1247:1 1248:1 1253:1 1258:1 1264:1 1278:1 1282:1
-1 192:1 251:1 304:1 311:1 330:1 359:1 418:1 489:1 621:1 683:1 710:1 813:1 831:1 845:1 864:1 1041:1 1080:1 1122:1 1248:1 1253:1 1278:1 1282:1 1284:3
-1 140:1 402:1 422:1 647:1 710:1 843:1 900:1 924:1 949:1 1080:1 1163:1 1177:1 1237:1 1244:1 1246:1 1247:1 1253:1 1264:1 1269:1 1278:1 1282:3
-1 291:1 684:1 710:1 1080:1 1177:1 1229:1 1246:1 1253:1 1278:1 1282:1
-1 636:1 710:1 757:1 1080:1 1099:1 1253:1 1278:1 1282:6
-1 132:1 710:1 925:1 1080:1 1253:1 1278:1 1282:3
-1 348:1 423:1 440:1 453:1 583:1 696:1 806:1 900:1 1080:1 1235:1 1247:1 1260:1 1272:1 1274:1 1278:1 1282:2 1284:2
-1 694:1 710:1 900:1 1080:1 1247:1 1253:1 1278:1 1282:2
-1 154:1 1252:1 1282:4
-1 336:3 423:1 440:1 450:1 583:1 621:1 715:1 806:1 900:2 1080:5 1177:2 1234:3 1235:1 1246:2 1247:2 1248:1 1258:1 1260:1 1272:1 1274:1 1278:5 1280:1 1282:6
-1 336:3 423:1 440:1 621:1 715:2 806:1 900:2 1080:5 1177:2 1234:3 1235:1 1246:2 1247:2 1248:1 1258:2 1260:1 1274:1 1278:5 1282:6
-1 192:1 304:1 311:1 324:1 330:1 336:1 361:1 364:1 418:1 423:1 440:1 480:1 621:1 683:1 710:1 715:1 813:1 831:1 843:1 845:1 883:1 900:1 937:1 1005:1 1024:1 1041:1 1053:1 1080:1 1114:1 1222:1 1234:1 1247:1 1248:1 1253:1 1258:1 1260:1 1264:1 1274:1 1278:1 1282:2
-1 651:1 710:1 715:1 900:1 1080:1 1247:1 1253:1 1258:1 1278:1 1282:3
-1 336:2 423:1 440:1 621:1 715:2 806:1 900:2 1080:4 1177:2 1234:2 1235:1 1246:2 1247:2 1248:1 1258:2 1260:1 1274:1 1278:4 1282:6
-1 154:1 1252:1 1282:3
-1 710:1 900:1 1080:1 1247:1 1253:1 1278:1 1282:2
-1 446:1 477:1 531:1 579:1 620:1 700:1 1080:1 1113:1 1145:1 1181:1 1241:1 1278:1 1279:1 1282:1
-1 324:1 684:1 710:1 806:1 843:1 900:1 1080:1 1177:1 1222:1 1229:1 1235:1 1246:1 1247:1 1253:1 1264:1 1278:1 1282:2
-1 336:1 440:1 900:1 1080:1 1177:1 1234:1 1246:1 1247:1 1274:1 1278:1 1282:5
-1 140:1 192:1 223:1 251:1 275:1 304:1 309:1 311:1 330:1 336:1 360:1 361:1 364:1 402:1 418:1 463:1 489:1 495:1 546:1 553:1 593:1 623:1 647:1 683:1 704:1 710:1 722:1 748:1 813:1 830:1 831:1 843:1 845:1 883:1 937:1 1005:1 1024:1 1041:1 1053:1 1078:1 1114:1 1200:1 1202:1 1223:1 1234:1 1237:1 1244:1 1253:1 1264:1 1268:1 1269:1 1282:3
-1 423:1 440:1 583:1 621:1 715:1 900:1 1044:1 1080:1 1177:1 1246:1 1247:1 1248:1 1251:1 1258:1 1260:1 1272:1 1274:1 1278:1 1282:4
-1 423:1 440:1 621:1 715:1 806:1 900:1 1080:1 1177:1 1235:1 1246:1 1247:1 1248:1 1258:1 1260:1 1274:1 1278:1 1282:2
-1 710:1 715:1 900:1 1080:1 1177:1 1246:1 1247:1 1253:1 1258:1 1278:1 1282:3
-1 192:1 224:1 251:1 288:1 304:1 311:1 330:1 359:1 364:1 386:1 489:1 495:1 553:1 683:1 710:1 813:1 831:1 845:1 883:1 1005:1 1041:1 1114:1 1253:1 1282:2
-1 192:1 304:1 311:1 324:1 330:1 361:1 489:1 683:1 710:1 843:1 845:1 900:1 937:1 957:1 1041:1 1080:1 1177:1 1217:1 1222:1 1246:1 1247:1 1253:1 1264:1 1278:1 1282:2
-1 129:1 192:1 224:1 251:1 288:1 304:1 311:1 324:1 330:1 336:1 359:1 361:1 364:1 418:1 489:1 495:1 553:1 621:1 683:1 710:1 813:1 831:1 843:1 845:1 883:1 900:1 937:1 1005:1 1041:1 1078:1 1114:1 1129:1 1222:1 1234:1 1247:1 1248:1 1253:1 1264:1 1282:3
-1 710:1 1080:1 1253:1 1278:1 1282:2
-1 710:2 1080:1 1253:2 1278:1 1282:2
-1 423:1 440:1 464:1 583:1 621:1 710:1 715:1 806:1 867:1 900:1 1080:1 1177:1 1235:1 1246:1 1247:1 1248:1 1253:1 1258:1 1260:1 1272:1 1274:1 1278:1 1282:1
-1 316:1 423:1 440:1 710:1 806:1 900:1 1080:1 1177:1 1216:1 1235:1 1246:1 1247:1 1253:1 1260:1 1274:1 1278:1 1282:2
-1 192:1 223:1 224:1 309:1 311:1 330:1 361:1 413:1 418:1 623:1 683:1 710:1 748:1 759:1 783:1 813:1 818:1 843:1 845:1 880:1 883:1 937:1 979:1 1005:1 1024:1 1041:1 1053:1 1078:1 1114:1 1115:1 1204:1 1253:1 1264:1 1282:2
-1 192:1 224:1 311:1 330:1 361:1 418:1 683:1 710:1 718:1 759:1 845:1 883:1 937:1 1005:1 1024:1 1041:1 1078:1 1114:1 1253:1 1282:3
-1 175:1 316:1 440:1 464:1 522:1 592:1 710:1 900:1 1080:1 1177:1 1214:1 1216:1 1246:1 1247:1 1253:1 1274:1 1278:1 1282:2
-1 710:2 1080:1 1177:1 1246:1 1253:2 1278:1 1282:4
-1 348:1 381:1 900:1 1047:1 1080:1 1247:1 1278:1 1282:3 1284:2
-1 252:1 324:1 336:1 423:1 450:1 583:1 621:1 715:1 900:1 1080:1 1176:1 1177:1 1212:1 1222:1 1228:1 1234:1 1243:1 1246:1 1247:1 1248:1 1258:1 1260:1 1272:1 1278:1 1280:1 1282:1
-1 440:1 715:1 725:1 900:1 1080:1 1247:1 1258:1 1274:1 1278:1 1282:2
-1 220:1 252:1 336:1 423:1 440:1 450:1 583:1 621:1 900:1 1080:1 1177:1 1228:1 1234:1 1246:1 1247:1 1248:1 1260:1 1270:1 1272:1 1274:1 1278:1 1280:1 1282:2
-1 154:1 1252:1 1282:3
-1 423:1 464:1 710:1 900:1 1080:1 1247:1 1253:1 1260:1 1278:1 1282:2
-1 423:1 440:1 621:1 715:1 806:1 900:1 1080:1 1177:1 1235:1 1246:1 1247:1 1248:1 1258:1 1260:1 1274:1 1278:1 1282:3
-1 464:1 621:1 710:1 715:1 806:1 900:1 1080:1 1177:1 1235:1 1246:1 1247:1 1248:1 1253:1 1258:1 1278:1 1282:1
-1 640:1 1261:1 1282:1
-1 131:1 240:1 440:1 710:2 715:1 750:1 757:1 763:1 768:1 900:1 1080:1 1179:1 1247:1 1253:2 1258:1 1274:1 1278:1 1282:5 1284:35
-1 319:1 336:1 423:1 440:1 583:1 621:1 715:1 806:1 900:1 1044:1 1080:1 1164:1 1177:1 1219:1 1234:1 1235:1 1246:1 1247:1 1248:1 1251:1 1258:1 1260:1 1272:1 1274:1 1278:1 1282:5
-1 440:1 710:1 806:1 843:1 900:1 1080:1 1177:1 1213:1 1235:1 1246:1 1247:1 1253:1 1264:1 1274:1 1278:1 1282:2
-1 710:2 1080:1 1253:2 1278:1 1282:3
-1 710:2 1080:1 1253:2 1278:1 1282:2
-1 477:1 670:1 1080:1 1145:1 1241:1 1278:1 1279:1 1282:2
-1 423:1 477:1 485:1 710:2 900:1 1080:1 1145:1 1241:1 1247:1 1253:2 1260:1 1278:1 1279:1 1282:2
-1 147:1 710:1 1080:1 1253:1 1278:1 1282:3
-1 640:1 1261:1 1282:1
-1 640:1 1261:1 1282:1
-1 154:1 1252:1 1282:3
-1 214:31 336:1 423:1 440:1 583:1 621:1 710:2 715:1 900:1 1080:1 1177:1 1234:1 1246:1 1247:1 1248:1 1253:2 1258:1 1260:1 1272:1 1274:1 1278:1 1282:2
-1 192:1 202:1 223:1 309:1 311:1 330:1 361:1 418:1 683:1 710:1 729:1 759:1 813:1 843:1 845:1 883:1 937:1 969:1 1005:1 1024:1 1041:1 1114:1 1253:1 1264:1 1282:1
-1 154:1 1252:1 1282:3
-1 324:1 336:1 621:1 710:1 843:1 1080:1 1177:1 1222:1 1234:1 1246:1 1248:1 1253:1 1264:1 1278:1 1282:1
-1 710:1 843:1 1080:1 1193:1 1253:1 1264:1 1278:1 1282:2
-1 651:1 710:1 900:1 1080:1 1247:1 1253:1 1278:1 1282:2
-1 304:1 715:1 843:1 1080:1 1258:1 1264:1 1278:1 1282:1
-1 583:1 900:1 1080:1 1247:1 1272:1 1278:1 1282:4
-1 158:1 324:1 336:1 423:1 440:1 583:1 621:1 710:1 715:1 775:1 806:1 900:1 1080:1 1177:1 1222:1 1234:1 1235:1 1246:1 1247:1 1248:1 1253:1 1256:1 1258:1 1260:1 1265:1 1272:1 1274:1 1278:1 1282:2
-1 220:1 423:1 440:1 583:1 621:1 715:1 806:1 900:1 1043:1 1080:1 1177:1 1190:1 1235:1 1246:1 1247:1 1248:1 1249:1 1258:1 1260:1 1263:1 1270:1 1272:1 1274:1 1278:1 1282:2
-1 192:1 311:1 324:1 330:1 423:1 683:1 710:1 845:1 900:1 1041:1 1080:1 1222:1 1247:1 1253:1 1260:1 1278:1 1282:2
-1 192:1 304:1 311:1 330:1 336:1 683:1 710:1 845:1 1041:1 1080:1 1234:1 1253:1 1278:1 1282:2
-1 154:1 1252:1 1282:2
-1 710:2 1080:1 1253:2 1278:1 1282:2
-1 710:2 1080:1 1253:2 1278:1 1282:2
-1 336:1 440:1 900:2 1080:4 1177:3 1234:1 1246:3 1247:2 1274:1 1278:4 1282:4
-1 1080:1 1278:1 1282:2
-1 154:1 1252:1 1282:3
-1 154:1 1252:1 1282:2
-1 140:1 192:1 225:1 246:1 311:1 324:1 330:1 336:1 364:1 621:1 683:1 710:1 715:1 810:1 843:1 845:1 900:1 1038:1 1041:1 1080:1 1114:1 1171:1 1177:1 1221:1 1222:1 1234:1 1239:1 1244:1 1246:1 1247:1 1248:1 1253:1 1258:1 1264:1 1278:1 1282:1
-1 154:1 1252:1 1282:3
-1 1080:1 1278:1 1282:1
-1 192:1 311:1 330:1 361:1 683:1 710:1 831:1 843:1 845:1 880:1 1041:1 1114:1 1253:1 1264:1 1282:2
-1 423:1 440:1 621:1 715:1 900:1 1080:1 1177:1 1246:1 1247:1 1248:1 1258:1 1260:1 1274:1 1278:1 1282:2
-1 154:1 1252:1 1282:3
-1 154:1 1252:1 1282:3
-1 140:1 192:1 223:1 224:1 246:1 247:1 304:1 311:1 330:1 361:1 364:1 408:1 423:1 440:1 470:1 486:1 489:1 495:1 553:1 593:1 623:1 638:1 683:1 697:1 710:1 723:1 729:1 813:1 831:1 843:1 845:1 880:1 883:1 900:1 937:1 1005:1 1024:1 1041:1 1114:1 1171:1 1221:1 1239:1 1240:1 1244:1 1247:1 1253:1 1260:1 1264:1 1274:1 1282:3
-1 154:1 1252:1 1282:3
-1 710:1 1080:1 1253:1 1278:1 1282:5
-1 154:1 1252:1 1282:2
-1 192:1 304:1 311:1 324:1 330:1 683:1 710:1 715:1 845:1 900:1 1041:1 1080:1 1177:1 1222:1 1246:1 1247:1 1253:1 1258:1 1278:1 1282:2
-1 154:1 1252:1 1282:4
-1 710:1 840:1 1253:1 1282:1
-1 583:1 710:1 900:1 1080:1 1247:1 1253:1 1272:1 1278:1 1282:2
-1 621:1 1080:1 1248:1 1278:1 1282:2
-1 336:1 423:1 900:1 1080:1 1134:1 1177:1 1234:1 1246:1 1247:1 1260:1 1267:1 1278:1 1282:2
-1 336:1 423:1 440:1 621:1 697:1 715:1 806:1 900:1 1080:1 1177:1 1234:1 1235:1 1240:1 1246:1 1247:1 1248:1 1258:1 1260:1 1274:1 1278:1 1282:4
-1 351:1 423:1 440:1 473:1 583:1 621:1 710:1 715:1 900:1 1044:1 1080:1 1177:1 1246:1 1247:1 1248:1 1251:1 1253:1 1254:1 1258:1 1260:1 1272:1 1274:1 1278:1 1282:2
-1 336:3 423:1 440:1 583:1 621:1 715:2 806:1 900:2 1080:5 1177:3 1234:3 1235:1 1246:3 1247:2 1248:1 1258:2 1260:1 1272:1 1274:1 1278:5 1282:6
-1 319:1 324:1 423:1 440:1 583:1 684:1 715:1 900:1 1044:1 1080:1 1177:1 1219:1 1222:1 1229:1 1246:1 1247:1 1251:1 1258:1 1260:1 1272:1 1274:1 1278:1 1282:2
-1 319:1 324:1 423:1 440:1 583:1 684:1 715:1 816:1 900:1 1044:1 1080:1 1177:1 1219:1 1222:1 1229:1 1245:1 1246:1 1247:1 1251:1 1258:1 1260:1 1272:1 1274:1 1278:1 1282:2
-1 710:1 900:1 1080:1 1177:1 1246:1 1247:1 1253:1 1278:1 1282:2
-1 423:1 583:1 806:1 900:1 1080:1 1177:1 1235:1 1246:1 1247:1 1260:1 1272:1 1278:1 1282:2
-1 423:1 755:1 900:1 914:1 1080:1 1146:1 1247:1 1259:1 1260:1 1278:1 1282:1
-1 640:1 1261:1 1282:1
-1 324:1 336:1 351:1 402:1 423:1 440:1 583:1 621:1 715:1 806:1 900:1 914:1 1028:1 1080:1 1116:1 1146:1 1177:1 1190:1 1222:1 1234:1 1235:1 1237:1 1246:1 1247:1 1248:1 1254:1 1258:1 1259:1 1260:1 1263:1 1272:1 1274:1 1278:1 1282:1
-1 154:1 1252:1 1282:3
-1 423:1 715:1 900:1 1080:1 1177:1 1246:1 1247:1 1258:1 1260:1 1278:1 1282:2
-1 1080:1 1278:1 1282:1
-1 336:2 423:1 440:1 583:1 900:2 1044:1 1080:4 1177:2 1234:2 1246:2 1247:2 1251:1 1260:1 1272:1 1274:1 1278:4 1282:6
-1 710:2 1080:1 1253:2 1278:1 1282:2
-1 158:1 423:1 473:1 621:1 710:1 900:1 1044:1 1080:1 1134:1 1155:1 1177:1 1246:1 1247:1 1248:1 1251:1 1253:1 1256:1 1260:1 1267:1 1278:1 1282:3 1284:9
-1 651:1 710:1 900:1 1080:1 1247:1 1253:1 1278:1 1282:2
-1 336:1 440:1 900:2 1080:2 1177:2 1234:1 1246:2 1247:2 1274:1 1278:2 1282:6
-1 324:1 336:1 423:1 621:1 715:1 806:1 900:1 1044:1 1080:1 1177:1 1222:1 1234:1 1235:1 1246:1 1247:1 1248:1 1251:1 1258:1 1260:1 1278:1 1282:2
-1 786:1 900:1 1080:1 1247:1 1278:1 1282:2
-1 336:1 423:1 477:1 621:1 684:1 715:1 900:1 927:1 1044:1 1080:1 1177:1 1229:1 1234:1 1241:1 1246:1 1247:1 1248:1 1251:1 1258:1 1260:1 1266:1 1278:1 1282:2 1284:40
-1 236:1 324:1 351:1 396:1 423:1 440:1 501:1 572:1 587:1 589:1 605:1 659:1 688:1 715:1 795:1 829:1 900:1 909:1 1080:1 1089:1 1177:1 1222:1 1246:1 1247:1 1254:1 1258:1 1260:1 1274:1 1278:1 1282:2
-1 154:1 1252:1 1282:3
-1 132:1 423:1 583:1 710:1 724:1 900:1 1080:1 1247:1 1253:1 1260:1 1272:1 1278:1 1282:2
-1 132:1 423:1 583:1 710:1 900:1 1080:1 1247:1 1253:1 1260:1 1272:1 1278:1 1282:2
-1 132:1 423:1 583:1 710:1 900:1 1080:1 1247:1 1253:1 1260:1 1272:1 1278:1 1282:2
-1 1080:1 1278:1 1282:2
-1 423:1 440:1 621:1 715:1 806:1 900:1 1080:1 1177:1 1235:1 1246:1 1247:1 1248:1 1258:1 1260:1 1274:1 1278:1 1282:2
-1 640:1 1261:1 1282:1
-1 319:1 336:1 423:1 440:1 583:1 621:1 715:1 806:1 900:2 1080:3 1177:2 1219:1 1234:1 1235:1 1246:2 1247:2 1248:1 1258:1 1260:1 1272:1 1274:1 1278:3 1282:6
-1 651:1 710:1 900:1 1080:1 1247:1 1253:1 1278:1 1282:3
-1 192:1 223:1 304:1 311:1 324:1 330:1 336:1 359:1 418:1 489:1 553:1 683:1 710:1 843:1 845:1 900:1 937:1 1041:1 1080:1 1177:1 1222:1 1234:1 1246:1 1247:1 1253:1 1264:1 1278:1 1282:3
-1 140:1 192:1 311:1 330:1 402:1 423:1 440:1 470:1 566:1 583:1 683:1 710:1 715:1 766:1 843:1 845:1 900:1 1041:1 1080:1 1177:1 1237:1 1244:1 1246:1 1247:1 1253:1 1257:1 1258:1 1260:1 1264:1 1272:1 1274:1 1278:1 1282:2
-1 423:1 440:1 583:1 656:1 715:1 755:1 900:1 902:1 914:1 1080:1 1146:1 1177:1 1186:1 1246:1 1247:1 1258:1 1259:1 1260:1 1272:1 1274:1 1278:1 1282:1
-1 324:1 336:1 621:1 900:1 1052:1 1080:1 1176:1 1177:1 1222:1 1234:1 1243:1 1246:1 1247:1 1248:1 1278:1 1282:2
-1 336:1 621:1 710:1 806:1 900:1 1080:1 1177:1 1234:1 1235:1 1246:1 1247:1 1248:1 1253:1 1278:1 1282:1 1284:1
-1 636:1 710:1 757:1 1080:1 1099:1 1253:1 1278:1 1282:6
-1 154:1 1252:1 1282:5
-1 158:1 423:1 440:1 473:1 477:1 583:1 621:1 710:1 715:1 743:1 900:1 1043:1 1044:1 1080:1 1134:1 1145:1 1177:1 1226:1 1241:1 1246:1 1247:1 1248:1 1249:1 1251:1 1253:1 1256:1 1258:1 1260:1 1267:1 1272:1 1274:1 1278:1 1279:1 1282:2 1284:61
-1 423:1 440:1 621:1 715:1 806:1 900:1 1080:1 1177:1 1235:1 1246:1 1247:1 1248:1 1258:1 1260:1 1274:1 1278:1 1282:3
-1 465:1 843:1 1264:1 1282:2
-1 843:1 1080:1 1264:1 1278:1 1282:1
-1 336:1 423:1 440:1 583:1 621:1 710:1 715:1 900:1 1080:1 1177:1 1234:1 1246:1 1247:1 1248:1 1253:1 1258:1 1260:1 1272:1 1274:1 1278:1 1282:4
-1 470:1 710:1 1080:1 1253:1 1278:1 1282:2
-1 423:1 583:1 900:1 1080:1 1177:1 1246:1 1247:1 1260:1 1272:1 1278:1 1282:1
-1 154:1 1252:1 1282:3
-1 192:1 252:1 304:1 311:1 330:1 336:1 423:1 440:1 455:1 547:1 621:1 683:1 710:1 843:1 845:1 900:1 957:1 1041:1 1080:1 1177:1 1215:1 1217:1 1228:1 1233:1 1234:1 1246:1 1247:1 1248:1 1253:1 1260:1 1264:1 1274:1 1278:1 1282:1
-1 336:1 621:1 710:1 900:1 1080:1 1177:1 1234:1 1246:1 1247:1 1248:1 1253:1 1278:1 1282:2
-1 989:1 1080:1 1278:1 1282:2
-1 710:1 900:1 1080:1 1247:1 1253:1 1278:1 1282:4
-1 684:1 710:2 1080:1 1134:1 1229:1 1253:2 1267:1 1278:1 1282:3
-1 397:1 621:1 900:1 1080:1 1247:1 1248:1 1278:1 1282:2
-1 397:1 621:1 900:1 1080:1 1247:1 1248:1 1278:1 1282:2
-1 161:1 365:1 545:1 710:1 716:1 900:1 1080:1 1247:1 1253:1 1278:1 1282:3
-1 186:1 477:1 710:1 1080:1 1145:1 1241:1 1253:1 1278:1 1279:1 1282:2
-1 1080:1 1134:1 1177:1 1246:1 1267:1 1278:1 1282:2
-1 1052:1 1080:1 1177:1 1246:1 1278:1 1282:1
-1 710:2 1080:1 1134:1 1253:2 1267:1 1278:1 1282:3
-1 319:1 336:2 423:1 440:1 621:1 715:1 806:1 900:2 1080:4 1134:1 1177:2 1219:1 1234:2 1235:1 1246:2 1247:2 1248:1 1258:1 1260:1 1267:1 1274:1 1278:4 1282:6
-1 336:2 423:1 440:1 583:1 806:1 900:2 1080:4 1134:1 1177:2 1234:2 1235:1 1246:2 1247:2 1260:1 1267:1 1272:1 1274:1 1278:4 1282:6
-1 140:1 225:1 324:1 328:1 336:1 351:1 402:1 423:1 440:1 519:1 543:1 621:1 684:1 697:1 715:1 775:1 806:1 900:1 914:1 1044:1 1080:1 1176:1 1177:1 1222:1 1227:1 1229:1 1234:1 1235:1 1237:1 1240:1 1243:1 1244:1 1246:1 1247:1 1248:1 1251:1 1254:1 1258:1 1259:1 1260:1 1265:1 1274:1 1278:1 1282:2
-1 154:1 1252:1 1282:3
-1 154:1 1252:1 1282:2
-1 336:2 417:1 900:2 1080:4 1177:1 1181:1 1234:2 1246:1 1247:2 1278:4 1282:5
-1 336:3 423:1 440:1 477:2 583:1 621:1 806:1 900:2 1080:4 1145:1 1177:2 1234:3 1235:1 1241:2 1246:2 1247:2 1248:1 1260:1 1272:1 1274:1 1278:4 1279:1 1282:6
-1 477:1 670:1 1080:1 1145:1 1161:1 1181:1 1241:1 1278:1 1279:1 1282:4
-1 423:1 440:1 621:1 715:1 900:1 1080:1 1177:1 1246:1 1247:1 1248:1 1258:1 1260:1 1274:1 1278:1 1282:2
-1 165:1 192:1 223:1 288:1 311:1 330:1 402:1 418:1 593:1 683:1 685:1 710:1 813:1 831:1 845:1 937:1 1005:1 1041:1 1114:1 1237:1 1253:1 1282:2
-1 710:1 1080:1 1253:1 1278:1 1282:5
-1 710:2 1080:1 1253:2 1278:1 1282:3
-1 154:1 1252:1 1282:4
-1 640:1 1261:1 1282:1
-1 192:1 202:1 223:1 224:1 251:1 267:1 288:1 304:1 311:1 330:1 359:1 364:1 386:1 489:1 495:1 530:1 547:1 553:1 565:1 619:1 683:1 710:1 722:1 804:1 813:1 831:1 835:1 843:1 845:1 882:1 883:1 900:1 937:1 939:1 946:1 960:1 1005:1 1015:1 1024:1 1037:1 1041:1 1114:1 1125:1 1130:1 1182:1 1233:1 1247:1 1253:1 1264:1 1282:3
-1 192:1 224:1 311:1 330:1 364:1 683:1 710:1 813:1 845:1 883:1 1005:1 1041:1 1114:1 1253:1 1282:2
-1 154:1 1252:1 1282:2
-1 319:1 423:1 440:1 583:1 684:1 715:1 900:1 1080:1 1177:1 1219:1 1229:1 1246:1 1247:1 1258:1 1260:1 1272:1 1274:1 1278:1 1282:1
-1 640:1 1261:1 1282:1
-1 336:1 440:1 900:2 1080:2 1177:2 1234:1 1246:2 1247:2 1274:1 1278:2 1282:7
-1 304:1 306:1 332:1 336:1 423:1 440:1 710:1 715:1 843:1 900:1 914:1 1080:1 1177:1 1231:1 1234:1 1246:1 1247:1 1253:1 1258:1 1259:1 1260:1 1264:1 1274:1 1277:1 1278:1 1282:2
-1 423:1 440:1 621:1 715:1 806:1 900:1 1080:1 1177:1 1235:1 1246:1 1247:1 1248:1 1258:1 1260:1 1274:1 1278:1 1282:3
-1 640:1 1261:1 1282:1
-1 1282:3
-1 710:1 843:1 900:1 1080:1 1247:1 1253:1 1264:1 1278:1 1282:2
-1 246:1 324:1 328:1 423:1 440:1 583:1 621:1 684:1 710:1 715:1 900:1 944:1 957:1 1044:1 1080:1 1177:1 1217:1 1221:1 1222:1 1227:1 1229:1 1246:1 1247:1 1248:1 1251:1 1253:1 1258:1 1260:1 1272:1 1274:1 1278:1 1282:4
-1 154:1 1252:1 1282:3
-1 336:2 423:1 440:1 715:1 806:1 900:2 1080:4 1177:2 1234:2 1235:1 1246:2 1247:2 1258:1 1260:1 1274:1 1278:4 1282:6
-1 621:1 710:1 953:1 1080:1 1248:1 1253:1 1278:1 1282:1
-1 336:1 621:1 940:1 1183:1 1234:1 1248:1 1282:2
-1 710:2 1080:1 1253:2 1278:1 1282:5
-1 715:1 900:1 1080:1 1177:1 1246:1 1247:1 1258:1 1278:1 1282:3
-1 154:1 1252:1 1282:2
-1 192:1 301:1 304:1 309:1 311:1 330:1 361:1 495:1 563:1 593:1 683:1 685:1 710:1 759:1 783:1 813:1 843:1 845:1 883:1 891:1 937:1 1005:1 1022:1 1024:1 1041:1 1114:1 1253:1 1264:1 1282:3
-1 423:1 440:1 621:1 715:1 806:1 900:1 1080:1 1177:1 1235:1 1246:1 1247:1 1248:1 1258:1 1260:1 1274:1 1278:1 1282:3
-1 154:1 1252:1 1282:3
-1 319:1 336:3 423:1 440:1 477:3 583:1 621:2 697:1 715:1 806:1 900:2 927:1 1080:5 1177:2 1219:1 1234:3 1235:1 1240:1 1241:3 1246:2 1247:2 1248:2 1258:1 1260:1 1266:1 1272:1 1274:1 1278:5 1282:6
-1 154:1 1252:1 1282:3
-1 383:1 1080:1 1278:1 1282:3
-1 276:1 477:1 670:1 693:1 1080:1 1145:1 1241:1 1278:1 1279:1 1282:1
-1 276:1 477:1 670:1 1080:1 1145:1 1241:1 1278:1 1279:1 1282:1
-1 276:1 477:1 670:1 693:1 1080:1 1145:1 1241:1 1278:1 1279:1 1282:1
-1 497:1 622:1 632:1 673:1 769:1 900:1 912:1 1080:1 1247:1 1278:1 1282:1
-1 640:1 1261:1 1282:1
-1 1080:1 1278:1 1282:2
-1 161:1 219:1 354:1 545:1 568:1 710:2 716:1 749:1 1080:1 1253:2 1278:1 1282:2
-1 423:1 583:1 715:1 900:1 1080:1 1177:1 1246:1 1247:1 1258:1 1260:1 1272:1 1278:1 1282:1
-1 180:1 1080:1 1278:1 1282:3
-1 180:1 1080:1 1278:1 1282:3
-1 180:1 1080:1 1278:1 1282:3
-1 180:1 1080:1 1278:1 1282:3
-1 188:1 423:1 878:1 900:1 1019:1 1080:1 1177:1 1224:1 1246:1 1247:1 1260:1 1278:1 1282:2
-1 131:1 336:2 423:1 440:1 583:1 621:1 715:2 806:1 900:3 927:1 1080:5 1134:1 1177:2 1234:2 1235:1 1246:2 1247:3 1248:1 1258:2 1260:1 1266:1 1267:1 1272:1 1274:1 1278:5 1282:6
-1 324:1 710:1 715:1 900:1 1080:1 1222:1 1247:1 1253:1 1258:1 1278:1 1282:6
-1 140:1 153:1 192:1 223:1 224:1 234:1 301:1 304:1 309:1 311:1 330:1 334:1 336:1 361:1 364:1 418:1 495:1 511:1 553:1 563:1 623:1 647:1 683:1 685:1 710:1 721:1 729:1 766:1 783:1 810:1 813:1 831:1 843:1 845:1 880:1 883:1 937:1 960:1 1005:1 1024:1 1037:1 1038:1 1041:1 1053:1 1061:1 1062:1 1069:1 1114:1 1115:1 1202:1 1234:1 1244:1 1253:1 1257:1 1264:1 1269:1 1282:2
-1 192:1 223:1 311:1 330:1 361:1 683:1 710:1 715:1 729:1 813:1 843:1 845:1 1024:1 1041:1 1080:1 1114:1 1253:1 1258:1 1264:1 1278:1 1282:2
-1 192:1 223:1 224:1 288:1 304:1 311:1 330:1 336:1 359:1 361:1 364:1 416:1 418:1 428:1 489:1 553:1 633:1 679:1 683:1 710:1 813:1 818:1 831:1 843:1 845:1 880:1 883:1 937:1 969:1 1005:1 1024:1 1041:1 1053:1 1078:1 1104:1 1114:1 1234:1 1253:1 1264:1 1282:2
-1 177:1 192:1 304:1 311:1 324:1 330:1 683:1 710:1 1041:1 1080:1 1177:1 1222:1 1246:1 1253:1 1278:1 1281:1 1282:1
-1 192:1 311:1 330:1 683:1 710:1 845:1 900:1 1041:1 1080:1 1247:1 1253:1 1278:1 1282:3
-1 640:1 1261:1 1282:1
-1 423:1 440:1 621:1 715:1 806:1 900:1 1080:1 1177:1 1235:1 1246:1 1247:1 1248:1 1258:1 1260:1 1274:1 1278:1 1282:3
-1 154:1 1252:1 1282:3
-1 252:1 336:1 621:1 710:1 843:1 900:1 1080:1 1177:1 1228:1 1234:1 1246:1 1247:1 1248:1 1253:1 1264:1 1278:1 1282:2
-1 1080:1 1278:1 1282:1
-1 304:1 336:1 423:1 440:1 710:1 715:1 843:1 900:1 1022:1 1080:1 1177:1 1234:1 1246:1 1247:1 1253:1 1258:1 1260:1 1264:1 1274:1 1278:1 1282:1
-1 154:1 1252:1 1282:2
-1 710:1 1080:1 1177:1 1246:1 1253:1 1278:1 1282:3
-1 220:1 336:1 423:1 440:1 450:1 583:1 621:1 807:1 900:1 1044:1 1080:1 1177:1 1234:1 1246:1 1247:1 1248:1 1251:1 1260:1 1270:1 1272:1 1274:1 1278:1 1280:1 1282:2
-1 220:1 336:1 423:1 440:1 450:1 583:1 621:1 807:1 900:1 1044:1 1080:1 1177:1 1234:1 1246:1 1247:1 1248:1 1251:1 1260:1 1270:1 1272:1 1274:1 1278:1 1280:1 1282:2
-1 192:1 223:1 272:1 288:1 304:1 309:1 311:1 330:1 335:1 336:1 364:1 418:1 495:1 501:1 610:1 660:1 683:1 813:1 845:1 891:1 937:1 963:1 995:1 1005:1 1024:1 1041:1 1114:1 1130:1 1234:1 1282:1
-1 423:1 635:1 710:1 715:1 900:1 1080:1 1177:1 1246:1 1247:1 1253:1 1258:1 1260:1 1278:1 1282:2
-1 336:2 423:1 440:1 635:1 806:1 900:2 1044:1 1080:4 1177:2 1234:2 1235:1 1246:2 1247:2 1251:1 1260:1 1274:1 1278:4 1282:6
-1 158:1 423:1 440:1 651:1 710:1 715:1 900:1 1080:1 1177:1 1246:1 1247:1 1253:1 1256:1 1258:1 1260:1 1274:1 1278:1 1282:2
-1 336:2 423:1 440:1 715:1 900:2 1080:4 1134:1 1177:2 1234:2 1246:2 1247:2 1258:1 1260:1 1267:1 1274:1 1278:4 1282:6
-1 1080:1 1278:1 1282:1
-1 1080:1 1278:1 1282:2
-1 154:1 1252:1 1282:3
-1 208:1 1282:2
-1 423:1 440:1 583:1 621:1 710:2 715:1 900:1 1080:1 1134:1 1177:1 1246:1 1247:1 1248:1 1253:2 1258:1 1260:1 1267:1 1272:1 1274:1 1278:1 1282:2
-1 710:1 1080:1 1253:1 1278:1 1282:2
-1 316:1 324:1 336:1 402:1 423:1 440:1 480:1 583:1 621:1 715:1 806:1 900:1 1080:1 1177:1 1216:1 1222:1 1234:1 1235:1 1237:1 1246:1 1247:1 1248:1 1258:1 1260:1 1272:1 1274:1 1278:1 1282:2
-1 336:1 423:1 440:1 583:1 621:1 715:1 806:1 900:1 1080:1 1177:1 1234:1 1235:1 1246:1 1247:1 1248:1 1258:1 1260:1 1272:1 1274:1 1278:1 1282:1
-1 304:1 402:1 710:1 806:1 900:1 1080:1 1177:1 1235:1 1237:1 1246:1 1247:1 1253:1 1278:1 1282:1
-1 272:1 309:1 311:1 330:1 361:1 364:1 501:1 683:1 759:1 813:1 843:1 845:1 883:1 891:1 1005:1 1024:1 1041:1 1049:1 1114:1 1264:1 1282:2
-1 304:1 684:1 710:1 806:1 843:1 900:1 1080:1 1177:1 1229:1 1235:1 1246:1 1247:1 1253:1 1264:1 1278:1 1282:1 1284:3
-1 140:1 192:1 234:1 304:1 309:1 311:1 330:1 361:1 402:1 553:1 683:1 710:1 813:1 830:1 831:1 843:1 845:1 1005:1 1024:1 1041:1 1114:1 1237:1 1244:1 1253:1 1264:1 1282:1
-1 336:1 423:1 440:1 583:1 621:1 715:1 900:1 1080:1 1177:1 1234:1 1246:1 1247:1 1248:1 1258:1 1260:1 1272:1 1274:1 1278:1 1282:1
-1 154:1 1252:1 1282:4
-1 336:1 481:1 567:1 710:1 756:1 812:1 843:1 869:1 938:1 945:1 1234:1 1253:1 1264:1 1282:1
-1 118:1 182:1 192:1 311:1 336:1 341:1 350:1 395:1 418:1 420:1 438:1 710:1 728:1 802:1 813:1 843:1 857:1 932:1 977:1 1032:1 1066:1 1130:1 1138:1 1141:1 1196:1 1234:1 1253:1 1264:1 1282:1
-1 142:1 153:1 192:1 251:1 267:1 304:1 311:1 330:1 336:1 361:1 364:1 418:1 433:1 563:1 593:1 623:1 683:1 710:1 729:1 759:1 813:1 843:1 845:1 937:1 939:1 1005:1 1024:1 1041:1 1078:1 1114:1 1208:1 1234:1 1253:1 1264:1 1282:2
-1 154:1 1252:1 1282:3
-1 161:1 710:1 1080:1 1253:1 1278:1 1282:2
-1 154:1 1252:1 1282:3
-1 172:1 192:1 261:1 288:1 304:1 311:1 324:1 330:1 359:1 361:1 364:1 386:1 423:1 440:1 486:1 489:1 495:1 553:1 683:1 710:1 813:1 831:1 843:1 845:1 853:1 883:1 900:1 927:1 937:1 957:1 1041:1 1069:1 1078:1 1080:1 1114:1 1129:1 1177:1 1217:1 1222:1 1246:1 1247:1 1253:1 1260:1 1264:1 1266:1 1274:1 1276:1 1278:1 1282:3
-1 154:1 1252:1 1282:3
-1 154:1 1252:1 1282:3
-1 154:1 1252:1 1282:3
-1 440:1 710:1 900:1 1080:1 1177:1 1246:1 1247:1 1253:1 1274:1 1278:1 1282:2
-1 1080:1 1278:1 1282:1
-1 121:1 423:1 440:1 583:1 621:1 715:1 743:1 900:1 1043:1 1044:1 1080:1 1177:1 1190:1 1220:1 1226:1 1246:1 1247:1 1248:1 1249:1 1251:1 1258:1 1260:1 1263:1 1272:1 1274:1 1278:1 1282:2 1284:2
-1 710:1 715:1 900:1 1080:1 1177:1 1246:1 1247:1 1253:1 1258:1 1278:1 1282:3
-1 336:1 440:1 900:2 1080:4 1177:3 1234:1 1246:3 1247:2 1274:1 1278:4 1282:4
-1 192:1 224:1 311:1 330:1 361:1 402:1 563:1 660:1 683:1 685:1 710:1 721:1 754:1 759:1 766:1 813:1 843:1 845:1 883:1 937:1 995:1 1005:1 1024:1 1041:1 1062:1 1114:1 1203:1 1236:1 1237:1 1253:1 1257:1 1264:1 1282:2
-1 132:1 710:1 925:1 1080:1 1253:1 1278:1 1282:3
-1 636:1 710:1 757:1 1080:1 1099:1 1253:1 1278:1 1282:6
-1 636:1 710:1 757:1 1080:1 1099:1 1253:1 1278:1 1282:6
-1 636:1 710:1 757:1 1080:1 1099:1 1253:1 1278:1 1282:5
-1 636:1 710:1 757:1 1080:1 1099:1 1253:1 1278:1 1282:5
-1 161:1 545:1 710:2 716:1 944:1 1080:1 1253:2 1278:1 1282:2
-1 238:1 272:1 304:1 311:1 330:1 364:1 501:1 683:1 843:1 845:1 891:1 1041:1 1114:1 1264:1 1282:2
-1 238:1 272:1 304:1 311:1 330:1 364:1 501:1 683:1 843:1 845:1 891:1 1041:1 1114:1 1264:1 1282:2
-1 710:1 1080:1 1253:1 1278:1 1282:6
-1 154:1 1252:1 1282:3
-1 140:1 192:1 223:1 224:1 304:1 311:1 330:1 336:1 360:1 361:1 364:1 428:1 489:1 553:1 593:1 610:1 679:1 683:1 710:1 813:1 831:1 845:1 883:1 937:1 1005:1 1024:1 1040:1 1041:1 1078:1 1104:1 1114:1 1234:1 1244:1 1253:1 1268:1 1282:2
-1 192:1 224:1 304:1 311:1 330:1 336:1 361:1 418:1 428:1 575:1 668:1 683:1 705:1 710:1 729:1 813:1 831:1 845:1 880:1 883:1 937:1 1005:1 1024:1 1041:1 1078:1 1104:1 1234:1 1253:1 1282:2
-1 140:1 192:1 223:1 224:1 304:1 311:1 330:1 334:1 364:1 418:1 489:1 553:1 592:1 683:1 710:1 722:1 731:1 813:1 831:1 843:1 845:1 853:1 883:1 953:1 1005:1 1024:1 1041:1 1049:1 1078:1 1114:1 1214:1 1244:1 1253:1 1264:1 1282:2
-1 192:1 304:1 311:1 330:1 361:1 402:1 514:1 683:1 710:1 741:1 813:1 845:1 900:1 937:1 1041:1 1104:1 1129:1 1237:1 1247:1 1253:1 1282:2
-1 192:1 253:1 304:1 311:1 330:1 336:1 361:1 402:1 416:1 428:1 489:1 553:1 575:1 679:1 683:1 710:1 813:1 831:1 845:1 880:1 937:1 1024:1 1041:1 1104:1 1234:1 1237:1 1253:1 1282:2
-1 154:1 1252:1 1282:3
-1 154:1 1252:1 1282:2
-1 192:1 311:1 328:1 330:1 361:1 683:1 710:1 843:1 845:1 937:1 1005:1 1024:1 1041:1 1114:1 1227:1 1253:1 1264:1 1282:2
-1 154:1 1252:1 1282:3
-1 490:1 600:1 710:2 757:1 844:1 1009:1 1080:1 1099:1 1177:1 1246:1 1253:2 1278:1 1282:4
-1 900:1 1080:1 1247:1 1278:1 1282:2
-1 154:1 1252:1 1282:3
-1 154:1 1252:1 1282:3
-1 154:1 1252:1 1282:3
-1 710:1 843:1 1080:1 1193:1 1253:1 1264:1 1278:1 1282:2
-1 316:1 324:1 336:1 402:1 440:1 715:1 806:1 900:1 1080:1 1177:1 1216:1 1222:1 1234:1 1235:1 1237:1 1246:1 1247:1 1258:1 1274:1 1278:1 1282:1 1284:3
-1 423:1 440:1 806:1 900:1 1080:1 1177:1 1235:1 1246:1 1247:1 1260:1 1274:1 1278:1 1282:2
-1 324:1 336:1 423:1 440:1 621:1 775:1 900:1 1080:1 1177:1 1222:1 1234:1 1246:1 1247:1 1248:1 1260:1 1265:1 1274:1 1278:1 1282:1
-1 154:1 1252:1 1282:3
-1 1080:1 1278:1 1282:1
-1 140:1 192:1 304:1 311:1 330:1 440:1 566:1 621:1 683:1 710:1 715:1 766:1 845:1 900:1 1041:1 1080:1 1129:1 1177:1 1244:1 1246:1 1247:1 1248:1 1253:1 1257:1 1258:1 1274:1 1278:1 1282:2
-1 192:1 304:1 311:1 324:1 330:1 621:1 683:1 710:1 715:1 845:1 900:1 1041:1 1222:1 1247:1 1248:1 1253:1 1258:1 1282:3
-1 710:1 1080:1 1253:1 1278:1 1282:2 1284:1
-1 710:1 1080:1 1253:1 1278:1 1282:2 1284:1
-1 324:1 336:1 423:1 440:1 455:1 477:1 583:1 621:1 715:1 900:1 1044:1 1080:1 1145:1 1177:1 1215:1 1222:1 1234:1 1241:1 1246:1 1247:1 1248:1 1251:1 1258:1 1260:1 1272:1 1274:1 1278:1 1279:1 1282:2
-1 324:1 336:1 423:1 440:1 455:1 477:1 583:1 621:1 715:1 900:1 1044:1 1080:1 1145:1 1177:1 1215:1 1222:1 1234:1 1241:1 1246:1 1247:1 1248:1 1251:1 1258:1 1260:1 1272:1 1274:1 1278:1 1279:1 1282:3
-1 710:1 900:1 1080:1 1140:1 1181:1 1247:1 1253:1 1278:1 1282:3
-1 336:1 440:1 900:2 1080:4 1177:3 1234:1 1246:3 1247:2 1274:1 1278:4 1282:4
-1 192:1 304:1 311:1 319:1 324:1 330:1 336:1 408:1 682:1 683:1 684:1 710:1 766:1 806:1 826:1 843:1 845:1 900:1 937:1 1041:1 1080:1 1219:1 1222:1 1229:1 1234:1 1235:1 1247:1 1253:1 1257:1 1264:1 1278:1 1282:2
-1 324:1 336:1 423:1 440:1 621:1 715:1 806:1 900:1 914:1 1028:1 1080:1 1116:1 1146:1 1177:1 1222:1 1234:1 1235:1 1246:1 1247:1 1248:1 1258:1 1259:1 1260:1 1274:1 1278:1 1282:1
-1 423:1 440:1 583:1 684:1 715:1 900:1 914:1 1080:1 1177:1 1229:1 1246:1 1247:1 1258:1 1259:1 1260:1 1272:1 1274:1 1278:1 1282:1
-1 423:1 440:1 621:1 715:1 806:1 900:1 1080:1 1177:1 1235:1 1246:1 1247:1 1248:1 1258:1 1260:1 1274:1 1278:1 1282:2
-1 336:2 423:1 440:1 583:1 621:1 715:2 806:1 900:2 1080:4 1177:2 1234:2 1235:1 1246:2 1247:2 1248:1 1258:2 1260:1 1272:1 1274:1 1278:4 1282:6
-1 336:1 440:1 900:2 1080:2 1177:2 1234:1 1246:2 1247:2 1274:1 1278:2 1282:7
-1 154:1 1252:1 1282:3
-1 192:1 223:1 224:1 311:1 330:1 361:1 364:1 418:1 623:1 683:1 710:1 759:1 783:1 813:1 843:1 845:1 1005:1 1024:1 1041:1 1053:1 1114:1 1130:1 1202:1 1253:1 1264:1 1282:2
-1 192:1 223:1 252:1 311:1 330:1 418:1 433:1 624:1 683:1 710:1 729:1 813:1 843:1 845:1 1005:1 1041:1 1080:1 1228:1 1253:1 1264:1 1278:1 1282:2
-1 154:1 1252:1 1282:3
-1 154:1 1252:1 1282:2
-1 336:2 440:1 900:2 1080:4 1177:3 1234:2 1246:3 1247:2 1274:1 1278:4 1282:6
-1 640:1 1261:1 1282:3
-1 640:1 1261:1 1282:2
-1 640:1 1261:1 1282:2
-1 640:1 1261:1 1282:2
-1 640:1 1261:1 1282:2
-1 640:1 1261:1 1282:2
-1 640:1 1261:1 1282:1
-1 640:1 1261:1 1282:1
-1 640:1 1261:1 1282:2
-1 640:1 1261:1 1282:1
-1 640:1 1261:1 1282:1
-1 640:1 1261:1 1282:1
-1 192:1 252:1 304:1 311:1 324:1 330:1 489:1 553:1 683:1 710:1 845:1 900:1 1041:1 1080:1 1177:1 1222:1 1228:1 1246:1 1247:1 1253:1 1278:1 1282:3
-1 140:1 192:1 304:1 311:1 330:1 336:1 351:1 360:1 364:1 402:1 423:1 456:1 489:1 543:1 564:1 592:1 621:1 647:1 679:1 683:1 710:1 721:1 754:1 766:1 845:1 900:1 1041:1 1080:1 1171:1 1177:1 1214:1 1234:1 1236:1 1237:1 1239:1 1244:1 1246:1 1247:1 1248:1 1253:1 1254:1 1257:1 1260:1 1268:1 1269:1 1278:1 1282:1
-1 192:1 311:1 330:1 575:1 683:1 710:1 813:1 831:1 845:1 1041:1 1253:1 1282:2
-1 324:1 336:1 423:1 440:1 450:1 583:1 621:1 900:1 1080:1 1177:1 1222:1 1234:1 1246:1 1247:1 1248:1 1260:1 1272:1 1274:1 1278:1 1280:1 1282:1
-1 154:1 1252:1 1282:4
-1 154:1 1252:1 1282:3
-1 710:2 1080:1 1134:1 1253:2 1267:1 1278:1 1282:3
-1 710:2 1080:1 1253:2 1278:1 1282:2
-1 192:1 304:1 311:1 330:1 364:1 683:1 685:1 710:1 729:1 813:1 843:1 845:1 883:1 1041:1 1114:1 1253:1 1264:1 1282:1
-1 180:1 329:1 997:1 1080:1 1278:1 1282:2
-1 336:1 440:1 900:2 1080:2 1177:2 1234:1 1246:2 1247:2 1274:1 1278:2 1282:7
-1 324:1 336:1 417:1 423:1 583:1 621:1 710:1 715:1 789:1 871:1 900:1 914:1 930:1 957:1 1080:1 1177:1 1217:1 1222:1 1234:1 1246:1 1247:1 1248:1 1253:1 1258:1 1259:1 1260:1 1272:1 1278:1 1282:1 1284:43
-1 423:1 715:1 900:1 1080:1 1177:1 1246:1 1247:1 1258:1 1260:1 1278:1 1282:2
-1 710:1 1080:1 1177:1 1246:1 1253:1 1278:1 1282:2
-1 127:1 305:1 648:1 832:1 900:1 1080:1 1247:1 1278:1 1282:2
-1 324:1 336:1 351:1 402:1 423:1 440:1 455:1 621:1 710:1 715:1 775:1 806:1 900:1 1080:1 1177:1 1215:1 1222:1 1234:1 1235:1 1237:1 1246:1 1247:1 1248:1 1253:1 1254:1 1258:1 1260:1 1265:1 1274:1 1278:1 1282:3
-1 192:1 199:1 223:1 224:1 301:1 311:1 330:1 364:1 525:1 612:1 619:1 683:1 704:1 710:1 813:1 843:1 845:1 876:1 978:1 1005:1 1041:1 1078:1 1091:1 1114:1 1182:1 1253:1 1264:1 1282:2
-1 336:1 621:1 710:1 715:1 900:1 1080:1 1177:1 1234:1 1246:1 1247:1 1248:1 1253:1 1258:1 1278:1 1282:2
-1 336:1 423:1 440:1 583:1 621:1 715:1 806:1 900:1 1080:1 1177:1 1234:1 1235:1 1246:1 1247:1 1248:1 1258:1 1260:1 1272:1 1274:1 1278:1 1282:2
-1 117:1 148:1 192:1 224:1 304:1 311:1 330:1 352:1 361:1 418:1 623:1 647:1 683:1 710:1 715:1 806:1 813:1 818:1 843:1 845:1 900:1 1024:1 1037:1 1041:1 1078:1 1080:1 1114:1 1177:1 1235:1 1246:1 1247:1 1253:1 1258:1 1264:1 1269:1 1278:1 1282:3
-1 423:1 440:1 806:1 900:1 1080:1 1177:1 1235:1 1246:1 1247:1 1260:1 1274:1 1278:1 1282:2
-1 423:1 440:1 806:1 900:1 1080:1 1177:1 1235:1 1246:1 1247:1 1260:1 1274:1 1278:1 1282:2
-1 336:1 440:1 583:1 621:1 715:1 900:1 1080:1 1177:1 1234:1 1246:1 1247:1 1248:1 1258:1 1272:1 1274:1 1278:1 1282:1
-1 154:1 1252:1 1282:3
-1 336:1 440:1 900:2 1080:2 1177:2 1234:1 1246:2 1247:2 1274:1 1278:2 1282:7
-1 140:1 162:1 172:1 225:1 324:1 336:1 402:1 423:1 621:1 710:1 715:1 843:1 900:1 914:1 953:1 983:1 1080:1 1177:1 1222:1 1234:1 1237:1 1244:1 1246:1 1247:1 1248:1 1253:1 1258:1 1259:1 1260:1 1262:1 1264:1 1276:1 1278:1 1282:1
-1 710:1 715:1 900:1 1080:1 1177:1 1246:1 1247:1 1253:1 1258:1 1278:1 1282:4
-1 124:1 180:1 328:1 1080:1 1227:1 1278:1 1282:3
-1 180:1 328:1 687:1 1080:1 1227:1 1278:1 1282:3
-1 336:2 423:1 440:1 806:1 900:2 1080:5 1177:2 1234:2 1235:1 1246:2 1247:2 1260:1 1274:1 1278:5 1282:6
-1 440:1 715:1 900:1 1080:1 1177:1 1246:1 1247:1 1258:1 1274:1 1278:1 1282:1
-1 865:1 1080:1 1278:1 1282:1
-1 304:1 710:1 900:1 1080:1 1177:1 1246:1 1247:1 1253:1 1278:1 1282:2
-1 124:1 140:1 423:1 684:1 710:2 777:1 900:1 1080:1 1177:1 1229:1 1244:1 1246:1 1247:1 1253:2 1260:1 1278:1 1282:4 1284:5590
-1 336:1 440:1 900:2 1080:2 1177:2 1234:1 1246:2 1247:2 1274:1 1278:2 1282:7
-1 710:1 715:1 900:1 1080:1 1177:1 1246:1 1247:1 1253:1 1258:1 1278:1 1282:4
-1 129:1 261:1 440:1 455:1 621:1 710:1 715:1 843:1 900:1 1080:1 1129:1 1177:1 1215:1 1246:1 1247:1 1248:1 1253:1 1258:1 1264:1 1274:1 1278:1 1282:2
-1 192:1 223:1 304:1 311:1 330:1 402:1 566:1 586:1 683:1 710:1 766:1 843:1 845:1 900:1 919:1 937:1 1005:1 1024:1 1041:1 1072:1 1078:1 1080:1 1177:1 1237:1 1246:1 1247:1 1253:1 1257:1 1264:1 1278:1 1282:3
-1 192:1 304:1 311:1 330:1 380:1 386:1 683:1 710:1 813:1 838:1 845:1 1041:1 1253:1 1282:2
-1 423:1 440:1 621:1 715:1 806:1 900:1 1080:1 1177:1 1235:1 1246:1 1247:1 1248:1 1258:1 1260:1 1274:1 1278:1 1282:3
-1 324:1 336:1 423:1 440:1 621:1 900:1 944:1 1080:1 1124:1 1146:1 1177:1 1222:1 1234:1 1246:1 1247:1 1248:1 1260:1 1274:1 1278:1 1282:2
-1 562:1 632:1 959:1 980:1 1080:1 1278:1 1282:2
-1 324:1 336:1 423:1 440:1 562:1 621:1 632:1 715:1 806:1 900:1 959:1 980:1 1080:1 1177:1 1222:1 1234:1 1235:1 1246:1 1247:1 1248:1 1258:1 1260:1 1274:1 1278:1 1282:1
-1 154:1 1252:1 1282:4
-1 154:1 1252:1 1282:2
-1 154:1 1252:1 1282:3
-1 154:1 1252:1 1282:2
-1 154:1 1252:1 1282:3
-1 336:1 440:1 900:2 1080:2 1177:2 1234:1 1246:2 1247:2 1274:1 1278:2 1282:7
-1 154:1 1252:1 1282:3
-1 423:1 440:1 621:1 715:1 806:1 900:1 1080:1 1177:1 1235:1 1246:1 1247:1 1248:1 1258:1 1260:1 1274:1 1278:1 1282:3
-1 154:1 1252:1 1282:2
-1 154:1 1252:1 1282:2
-1 154:1 1252:1 1282:2
-1 154:1 1252:1 1282:2
-1 477:1 790:1 947:1 994:1 1080:1 1241:1 1278:1 1282:3 1284:66
-1 237:1 266:1 477:1 786:1 1080:1 1241:1 1278:1 1282:1 1284:66
-1 154:1 1252:1 1282:2
-1 192:1 223:1 304:1 309:1 311:1 325:1 330:1 336:1 364:1 402:1 408:1 418:1 593:1 623:1 679:1 710:1 754:1 766:1 781:1 813:1 831:1 845:1 853:1 883:1 937:1 1005:1 1024:1 1041:1 1078:1 1104:1 1114:1 1234:1 1236:1 1237:1 1253:1 1257:1 1282:2
-1 192:1 224:1 251:1 272:1 304:1 311:1 330:1 359:1 364:1 489:1 501:1 553:1 683:1 813:1 845:1 883:1 891:1 1041:1 1114:1 1282:2
-1 324:1 328:1 336:1 351:1 423:1 583:1 715:1 900:1 1080:1 1177:1 1222:1 1227:1 1234:1 1246:1 1247:1 1254:1 1258:1 1260:1 1272:1 1278:1 1282:1
-1 336:1 440:1 900:2 1080:4 1177:3 1234:1 1246:3 1247:2 1274:1 1278:4 1282:5
-1 900:1 1080:1 1177:1 1246:1 1247:1 1278:1 1282:1
-1 423:1 440:1 715:1 900:1 1080:1 1177:1 1246:1 1247:1 1258:1 1260:1 1274:1 1278:1 1282:1
-1 423:1 440:1 715:1 900:1 1080:1 1177:1 1246:1 1247:1 1258:1 1260:1 1274:1 1278:1 1282:1
-1 715:1 900:1 1080:1 1177:1 1246:1 1247:1 1258:1 1278:1 1282:1
-1 715:1 900:1 1080:1 1177:1 1246:1 1247:1 1258:1 1278:1 1282:1
-1 225:1 252:1 319:1 324:1 332:1 336:1 423:1 450:1 583:1 621:1 715:1 806:1 900:1 1043:1 1080:1 1164:1 1177:1 1219:1 1222:1 1228:1 1231:1 1234:1 1235:1 1246:1 1247:1 1248:1 1249:1 1258:1 1260:1 1272:1 1278:1 1280:1 1282:1
-1 225:1 252:1 319:1 324:1 332:1 336:1 423:1 450:1 583:1 621:1 715:1 806:1 900:1 1043:1 1080:1 1164:1 1177:1 1219:1 1222:1 1228:1 1231:1 1234:1 1235:1 1246:1 1247:1 1248:1 1249:1 1258:1 1260:1 1272:1 1278:1 1280:1 1282:1
-1 477:1 670:1 710:1 1080:1 1241:1 1253:1 1278:1 1282:3
-1 423:1 583:1 900:1 1080:1 1177:1 1246:1 1247:1 1260:1 1272:1 1278:1 1282:1
-1 140:1 192:1 311:1 330:1 683:1 710:1 715:1 843:1 845:1 848:1 1041:1 1080:1 1163:1 1177:1 1244:1 1246:1 1253:1 1258:1 1264:1 1278:1 1282:2
-1 324:1 336:1 423:1 621:1 715:1 900:1 1080:1 1177:1 1222:1 1234:1 1246:1 1247:1 1248:1 1258:1 1260:1 1278:1 1282:1
-1 154:1 324:1 336:1 621:1 710:1 1080:1 1177:1 1222:1 1234:1 1246:1 1248:1 1252:1 1253:1 1278:1 1282:3
-1 140:1 336:1 423:1 440:1 621:1 710:1 715:1 843:1 900:1 957:1 1080:1 1177:1 1217:1 1234:1 1244:1 1246:1 1247:1 1248:1 1253:1 1258:1 1260:1 1264:1 1274:1 1278:1 1282:2 1284:1
-1 423:1 440:1 477:1 710:1 900:1 1080:1 1145:1 1241:1 1247:1 1253:1 1260:1 1274:1 1278:1 1279:1 1282:3
-1 710:1 900:1 1080:1 1247:1 1253:1 1278:1 1282:5
-1 220:1 336:1 423:1 440:1 450:1 583:1 621:1 900:1 1080:1 1177:1 1234:1 1246:1 1247:1 1248:1 1260:1 1270:1 1272:1 1274:1 1278:1 1280:1 1282:2
-1 440:1 715:1 782:1 900:1 1080:1 1247:1 1258:1 1274:1 1278:1 1282:2
-1 423:1 715:1 900:1 1080:1 1134:1 1177:1 1246:1 1247:1 1258:1 1260:1 1267:1 1278:1 1282:2
-1 336:3 423:1 440:1 583:1 621:2 697:1 715:2 724:1 806:1 900:2 927:1 1044:1 1080:6 1177:2 1234:3 1235:1 1240:1 1246:2 1247:2 1248:2 1251:1 1258:2 1260:1 1266:1 1272:1 1274:1 1278:6 1282:5
-1 710:1 843:1 850:1 1080:1 1177:1 1246:1 1253:1 1264:1 1278:1 1282:2
-1 246:1 336:1 489:1 543:1 553:1 621:1 710:1 843:1 900:1 1080:1 1177:1 1221:1 1234:1 1246:1 1247:1 1248:1 1253:1 1264:1 1278:1 1282:2
-1 154:1 1252:1 1282:3
-1 342:1 710:2 1080:1 1253:2 1278:1 1282:2
-1 154:1 1252:1 1282:3
-1 154:1 1252:1 1282:3
-1 154:1 1252:1 1282:3
-1 220:1 336:1 351:1 423:1 440:1 450:1 583:1 621:1 715:1 900:1 1080:1 1177:1 1234:1 1246:1 1247:1 1248:1 1254:1 1258:1 1260:1 1270:1 1272:1 1274:1 1278:1 1280:1 1282:2
-1 640:1 1261:1 1282:1
-1 209:1 324:1 328:1 336:1 423:1 440:1 621:1 684:1 715:1 806:1 837:1 900:1 914:1 1044:1 1080:1 1171:1 1177:1 1222:1 1227:1 1229:1 1234:1 1235:1 1239:1 1246:1 1247:1 1248:1 1251:1 1258:1 1259:1 1260:1 1274:1 1278:1 1282:1 1284:4
-1 423:1 477:1 900:1 1080:1 1145:1 1177:1 1241:1 1246:1 1247:1 1260:1 1278:1 1279:1 1282:2
-1 710:1 1080:1 1253:1 1278:1 1282:3
-1 336:3 423:1 440:1 583:1 621:1 715:1 806:1 900:2 1044:1 1080:4 1134:1 1177:2 1234:3 1235:1 1246:2 1247:2 1248:1 1251:1 1258:1 1260:1 1267:1 1272:1 1274:1 1278:4 1282:6
-1 336:1 402:1 423:1 440:1 621:1 715:1 806:1 900:1 1080:1 1164:1 1177:1 1234:1 1235:1 1237:1 1246:1 1247:1 1248:1 1258:1 1260:1 1274:1 1278:1 1282:1
-1 208:1 1282:2
-1 328:1 336:1 423:1 440:1 583:1 715:1 806:1 900:1 1080:1 1134:1 1177:1 1227:1 1234:1 1235:1 1246:1 1247:1 1258:1 1260:1 1267:1 1272:1 1274:1 1278:1 1282:5
-1 324:1 336:1 423:1 440:1 621:1 715:1 900:1 1080:1 1177:1 1222:1 1234:1 1246:1 1247:1 1248:1 1258:1 1260:1 1274:1 1278:1 1282:1
-1 250:1 324:1 336:1 423:1 440:1 450:1 583:1 621:1 715:1 900:1 1080:1 1177:1 1222:1 1234:1 1246:1 1247:1 1248:1 1258:1 1260:1 1272:1 1274:1 1278:1 1280:1 1282:1
-1 250:1 324:1 336:1 423:1 621:1 715:1 900:1 1080:1 1177:1 1222:1 1234:1 1246:1 1247:1 1248:1 1258:1 1260:1 1278:1 1282:1
-1 579:1 620:1 1080:1 1278:1 1282:1
-1 324:1 336:1 423:1 440:1 450:1 583:1 621:1 900:1 1080:1 1177:1 1222:1 1234:1 1246:1 1247:1 1248:1 1260:1 1272:1 1274:1 1278:1 1280:1 1282:1
-1 715:1 900:1 1080:1 1177:1 1246:1 1247:1 1258:1 1278:1 1282:1
-1 131:1 324:1 336:1 423:1 450:1 583:1 621:1 715:1 784:1 900:1 1080:1 1177:1 1222:1 1234:1 1246:1 1247:1 1248:1 1258:1 1260:1 1272:1 1278:1 1280:1 1282:1
-1 140:1 225:1 324:1 336:1 423:1 440:1 450:1 455:1 583:1 621:1 697:1 715:1 900:1 914:1 927:1 957:1 1044:1 1080:1 1177:1 1215:1 1217:1 1222:1 1234:1 1240:1 1244:1 1246:1 1247:1 1248:1 1251:1 1258:1 1259:1 1260:1 1266:1 1272:1 1274:1 1278:1 1280:1 1282:1
-1 324:1 336:1 423:1 450:1 583:1 621:1 715:1 900:1 1080:1 1177:1 1222:1 1234:1 1246:1 1247:1 1248:1 1258:1 1260:1 1272:1 1278:1 1280:1 1282:1
-1 252:1 324:1 328:1 336:1 402:1 423:1 440:1 450:1 455:1 583:1 621:1 684:1 715:1 900:1 1044:1 1080:1 1177:1 1215:1 1222:1 1227:1 1228:1 1229:1 1234:1 1237:1 1246:1 1247:1 1248:1 1251:1 1258:1 1260:1 1272:1 1274:1 1278:1 1280:1 1282:1
-1 324:1 336:1 423:1 440:1 715:1 900:1 1080:1 1177:1 1222:1 1234:1 1246:1 1247:1 1258:1 1260:1 1274:1 1278:1 1282:1
-1 173:1 324:1 336:1 423:1 440:1 450:1 583:1 621:1 900:1 1080:1 1177:1 1222:1 1234:1 1246:1 1247:1 1248:1 1260:1 1272:1 1274:1 1278:1 1280:1 1282:1
-1 336:1 440:1 900:2 1080:2 1177:2 1234:1 1246:2 1247:2 1274:1 1278:2 1282:7
-1 423:1 440:1 621:1 710:1 900:1 1080:1 1177:1 1246:1 1247:1 1248:1 1253:1 1260:1 1274:1 1278:1 1282:2
-1 423:1 440:1 621:1 715:1 900:1 1080:1 1101:1 1177:1 1246:1 1247:1 1248:1 1258:1 1260:1 1274:1 1278:1 1282:1 1284:14
-1 1080:1 1134:1 1267:1 1278:1 1282:2
-1 336:1 423:1 621:1 651:1 710:1 715:1 806:1 900:1 1080:1 1177:1 1234:1 1235:1 1246:1 1247:1 1248:1 1253:1 1258:1 1260:1 1278:1 1282:1
-1 440:1 806:1 900:1 1080:1 1177:1 1235:1 1246:1 1247:1 1274:1 1278:1 1282:2
-1 336:1 440:1 900:2 1080:2 1177:2 1234:1 1246:2 1247:2 1274:1 1278:2 1282:7
-1 1080:1 1134:1 1267:1 1278:1 1282:2
-1 192:1 224:1 309:1 311:1 330:1 364:1 623:1 683:1 710:1 723:1 759:1 783:1 796:1 813:1 831:1 845:1 883:1 937:1 1024:1 1041:1 1053:1 1114:1 1115:1 1195:1 1204:1 1253:1 1282:2
-1 1080:1 1134:1 1267:1 1278:1 1282:2
-1 1080:1 1134:1 1267:1 1278:1 1282:2
-1 1080:1 1134:1 1267:1 1278:1 1282:2
-1 1080:1 1134:1 1267:1 1278:1 1282:2
-1 246:1 324:1 336:1 423:1 900:1 1080:1 1177:1 1221:1 1222:1 1234:1 1246:1 1247:1 1260:1 1278:1 1282:1
-1 715:1 900:1 1080:1 1171:1 1177:1 1239:1 1246:1 1247:1 1258:1 1278:1 1282:1
-1 324:1 336:1 423:1 450:1 455:1 583:1 621:1 715:1 806:1 900:1 927:1 1080:1 1177:1 1215:1 1222:1 1234:1 1235:1 1246:1 1247:1 1248:1 1258:1 1260:1 1266:1 1272:1 1278:1 1280:1 1282:1
-1 177:1 336:1 423:1 440:1 583:1 621:1 710:1 715:1 900:1 927:1 1080:1 1123:1 1177:1 1234:1 1246:1 1247:1 1248:1 1253:1 1258:1 1260:1 1266:1 1272:1 1274:1 1278:1 1281:1 1282:1
-1 336:1 423:1 583:1 621:1 632:1 900:1 1080:1 1177:1 1234:1 1246:1 1247:1 1248:1 1260:1 1272:1 1278:1 1282:1
-1 154:1 1252:1 1282:3
-1 154:1 1252:1 1282:3
-1 324:1 336:1 423:1 450:1 583:1 621:1 715:1 900:1 1080:1 1177:1 1222:1 1234:1 1246:1 1247:1 1248:1 1258:1 1260:1 1272:1 1278:1 1280:1 1282:1
-1 117:1 192:1 311:1 319:1 330:1 408:1 683:1 684:1 710:1 766:1 826:1 843:1 845:1 900:1 1038:1 1041:1 1080:1 1177:1 1219:1 1229:1 1246:1 1247:1 1253:1 1257:1 1264:1 1278:1 1282:2
-1 324:1 710:1 715:1 900:1 1080:1 1222:1 1247:1 1253:1 1258:1 1278:1 1282:2
-1 640:1 1261:1 1282:1
-1 177:1 440:1 710:1 900:1 1080:1 1177:1 1246:1 1247:1 1253:1 1274:1 1278:1 1281:1 1282:1
-1 154:1 1252:1 1282:3
-1 900:1 1080:1 1247:1 1278:1 1282:2
-1 324:1 336:1 423:1 440:1 583:1 621:1 697:1 715:1 900:1 914:1 1080:1 1177:1 1222:1 1234:1 1240:1 1246:1 1247:1 1248:1 1258:1 1259:1 1260:1 1272:1 1274:1 1278:1 1282:1
-1 423:1 621:1 807:1 878:1 900:1 1080:1 1224:1 1247:1 1248:1 1260:1 1278:1 1282:2
-1 423:1 621:1 807:1 878:1 900:1 1080:1 1224:1 1247:1 1248:1 1260:1 1278:1 1282:2
-1 423:1 621:1 807:1 878:1 900:1 1080:1 1224:1 1247:1 1248:1 1260:1 1278:1 1282:2
-1 423:1 621:1 807:1 878:1 900:1 1080:1 1224:1 1247:1 1248:1 1260:1 1278:1 1282:2
-1 477:1 670:1 1080:1 1145:1 1241:1 1278:1 1279:1 1282:3
-1 401:1 1080:1 1278:1 1282:2
-1 154:1 1252:1 1282:4
-1 423:1 440:1 621:1 715:1 806:1 900:1 1080:1 1177:1 1235:1 1246:1 1247:1 1248:1 1258:1 1260:1 1274:1 1278:1 1282:3
-1 154:1 1252:1 1282:4
-1 640:1 1261:1 1282:1
-1 236:1 396:1 501:1 572:1 589:1 605:1 621:1 659:1 688:1 795:1 829:1 909:1 1080:1 1089:1 1101:1 1177:1 1209:1 1246:1 1248:1 1278:1 1282:3 1284:8
-1 336:1 423:1 621:1 786:1 900:1 992:1 1080:1 1177:1 1209:1 1234:1 1246:1 1247:1 1248:1 1260:1 1278:1 1282:1 1284:4
-1 640:1 1261:1 1282:1
-1 161:1 545:1 1028:1 1080:1 1146:1 1278:1 1282:3
-1 710:1 1080:1 1253:1 1278:1 1282:3
-1 336:3 423:1 440:1 583:1 621:1 715:2 806:1 900:2 1044:1 1080:4 1177:2 1234:3 1235:1 1246:2 1247:2 1248:1 1251:1 1258:2 1260:1 1272:1 1274:1 1278:4 1282:6
-1 158:1 390:1 423:1 440:1 621:1 651:1 710:1 715:1 806:1 900:1 1080:1 1177:1 1235:1 1246:1 1247:1 1248:1 1253:1 1256:1 1258:1 1260:1 1274:1 1278:1 1282:2
-1 316:1 402:1 710:1 843:1 900:1 1080:1 1177:1 1216:1 1237:1 1246:1 1247:1 1253:1 1264:1 1278:1 1282:3
-1 336:1 900:2 1080:2 1177:2 1234:1 1246:2 1247:2 1278:2 1282:7
-1 129:1 140:1 172:1 192:1 202:1 203:1 218:1 223:1 224:1 234:1 238:1 288:1 290:1 295:1 304:1 309:1 311:1 324:1 330:1 336:1 340:1 359:1 361:1 364:1 374:1 386:1 402:1 408:1 418:1 423:1 482:1 489:1 495:1 530:1 553:1 560:1 563:1 608:1 623:1 669:1 683:1 685:1 704:1 710:1 715:1 729:1 731:1 781:1 813:1 820:1 831:1 843:1 845:1 883:1 900:1 937:1 950:1 957:1 968:1 969:1 983:1 1005:1 1016:1 1024:1 1041:1 1045:1 1053:1 1069:1 1080:1 1114:1 1171:1 1191:1 1204:1 1217:1 1222:1 1234:1 1237:1 1239:1 1244:1 1247:1 1253:1 1258:1 1260:1 1264:1 1276:1 1278:1 1282:2
-1 423:1 477:1 670:1 900:1 1044:1 1080:1 1145:1 1177:1 1241:1 1246:1 1247:1 1251:1 1260:1 1278:1 1279:1 1282:2
-1 154:1 1252:1 1282:3
-1 154:1 1252:1 1282:2
-1 154:1 1252:1 1282:3
-1 154:1 1252:1 1282:4
-1 154:1 1252:1 1282:2
-1 277:1 324:1 621:1 710:1 715:1 900:1 1080:1 1177:1 1222:1 1246:1 1247:1 1248:1 1253:1 1258:1 1278:1 1282:2
-1 311:1 316:1 330:1 440:1 683:1 710:1 845:1 900:1 1041:1 1080:1 1216:1 1247:1 1253:1 1274:1 1278:1 1282:2
-1 900:1 1043:1 1044:1 1080:1 1247:1 1249:1 1251:1 1278:1 1282:2
-1 277:1 290:1 324:1 336:1 414:1 423:1 621:1 710:1 715:1 775:1 835:1 900:1 1015:1 1080:1 1177:1 1222:1 1234:1 1246:1 1247:1 1248:1 1253:1 1258:1 1260:1 1265:1 1278:1 1282:1
-1 684:1 710:1 900:1 1080:1 1229:1 1247:1 1253:1 1278:1 1282:5 1284:7
-1 154:1 1252:1 1282:4
-1 782:1 1080:1 1278:1 1282:3
-1 1080:1 1278:1 1282:2
-1 423:1 446:1 477:1 485:1 710:1 844:1 900:1 1080:1 1145:1 1241:1 1247:1 1253:1 1260:1 1278:1 1279:1 1282:2
-1 154:1 1252:1 1282:3
-1 154:1 1252:1 1282:3
-1 900:1 1080:1 1247:1 1278:1 1282:4
-1 536:1 684:1 710:2 1080:1 1229:1 1253:2 1278:1 1282:2
-1 710:2 1080:1 1253:2 1278:1 1282:2
-1 324:1 423:1 440:1 583:1 621:1 710:1 715:1 900:1 1080:1 1222:1 1247:1 1248:1 1253:1 1258:1 1260:1 1272:1 1274:1 1278:1 1282:2
-1 583:1 710:1 900:1 1080:1 1247:1 1253:1 1272:1 1278:1 1282:2
-1 583:1 710:1 900:1 1080:1 1247:1 1253:1 1272:1 1278:1 1282:2
-1 423:1 583:1 710:1 900:1 1080:1 1247:1 1253:1 1260:1 1272:1 1278:1 1282:2
-1 710:1 843:1 1080:1 1193:1 1253:1 1264:1 1278:1 1282:2
-1 710:2 806:1 1080:1 1134:1 1235:1 1253:2 1267:1 1278:1 1282:5
-1 154:1 1252:1 1282:3
-1 156:1 246:1 324:1 336:1 421:1 440:1 552:1 583:1 592:1 621:1 684:1 715:1 806:1 900:1 1080:1 1171:1 1176:1 1177:1 1214:1 1221:1 1222:1 1229:1 1234:1 1235:1 1239:1 1243:1 1246:1 1247:1 1248:1 1258:1 1272:1 1274:1 1278:1 1282:2
-1 336:1 621:1 710:1 715:1 900:1 1080:1 1234:1 1247:1 1248:1 1253:1 1258:1 1278:1 1282:3
-1 710:2 1080:1 1134:1 1253:2 1267:1 1278:1 1282:3
-1 870:1 900:1 1080:1 1247:1 1278:1 1282:3
-1 710:2 743:1 900:1 1043:1 1080:1 1134:1 1226:1 1247:1 1249:1 1253:2 1267:1 1278:1 1282:3
-1 710:2 1006:1 1043:1 1080:1 1249:1 1253:2 1278:1 1282:2
-1 1080:1 1278:1 1282:1
-1 336:1 440:1 621:1 710:1 715:1 900:1 961:1 1080:1 1177:1 1234:1 1246:1 1247:1 1248:1 1253:1 1258:1 1274:1 1278:1 1282:1
-1 640:1 1261:1 1282:1
-1 154:1 1252:1 1282:3
-1 172:1 236:1 324:1 331:1 336:1 351:1 423:1 501:1 572:1 589:1 621:1 659:1 715:1 795:1 806:1 829:1 900:1 909:1 981:1 1080:1 1177:1 1222:1 1234:1 1235:1 1246:1 1247:1 1248:1 1254:1 1258:1 1260:1 1276:1 1278:1 1282:2
-1 161:1 545:1 710:1 715:1 716:1 900:1 1080:1 1247:1 1253:1 1258:1 1278:1 1282:4
-1 154:1 324:1 423:1 440:1 621:1 710:1 843:1 900:1 914:1 957:1 1080:1 1217:1 1222:1 1247:1 1248:1 1252:1 1253:1 1259:1 1260:1 1264:1 1274:1 1278:1 1282:3
-1 154:1 1252:1 1282:3
-1 336:1 423:1 440:1 583:1 621:1 710:1 715:1 900:1 1080:1 1134:1 1177:1 1234:1 1246:1 1247:1 1248:1 1253:1 1258:1 1260:1 1267:1 1272:1 1274:1 1278:1 1282:4
-1 154:1 1252:1 1282:3
-1 220:1 324:1 336:1 423:1 440:1 450:1 583:1 621:1 684:1 715:1 900:1 920:1 1044:1 1080:1 1177:1 1222:1 1229:1 1234:1 1246:1 1247:1 1248:1 1251:1 1258:1 1260:1 1270:1 1272:1 1274:1 1278:1 1280:1 1282:2
-1 782:1 900:1 1080:1 1247:1 1278:1 1282:3
-1 324:1 336:1 423:1 621:1 658:1 684:1 715:1 900:1 1080:1 1177:1 1222:1 1229:1 1234:1 1246:1 1247:1 1248:1 1258:1 1260:1 1278:1 1282:4
-1 423:1 440:1 621:1 715:1 900:1 1080:1 1177:1 1246:1 1247:1 1248:1 1258:1 1260:1 1274:1 1278:1 1282:2
-1 140:1 319:1 336:1 423:1 440:1 583:1 621:1 658:1 684:1 710:1 715:1 816:1 875:1 900:1 1044:1 1080:1 1134:1 1177:1 1219:1 1229:1 1234:1 1244:1 1245:1 1246:1 1247:1 1248:1 1251:1 1253:1 1258:1 1260:1 1267:1 1272:1 1274:1 1278:1 1282:5
-1 684:1 806:1 900:1 1080:1 1177:1 1229:1 1235:1 1246:1 1247:1 1278:1 1282:1
-1 324:1 328:1 336:1 423:1 440:1 621:1 684:1 715:1 806:1 900:1 914:1 1080:1 1177:1 1222:1 1227:1 1229:1 1234:1 1235:1 1246:1 1247:1 1248:1 1258:1 1259:1 1260:1 1274:1 1278:1 1282:2
-1 336:3 397:1 423:1 440:1 477:1 583:1 621:1 715:1 806:1 849:1 900:2 933:1 1080:5 1145:1 1177:2 1234:3 1235:1 1241:1 1246:2 1247:2 1248:1 1258:1 1260:1 1272:1 1274:1 1278:5 1279:1 1282:6
-1 710:1 843:1 1080:1 1193:1 1253:1 1264:1 1278:1 1282:2
-1 710:1 715:1 900:1 1080:1 1247:1 1253:1 1258:1 1278:1 1282:3
-1 192:1 224:1 278:1 311:1 330:1 361:1 623:1 683:1 710:1 748:1 759:1 813:1 818:1 843:1 845:1 880:1 883:1 1024:1 1041:1 1078:1 1114:1 1253:1 1264:1 1282:2
-1 423:1 440:1 621:1 900:1 1080:1 1177:1 1246:1 1247:1 1248:1 1260:1 1274:1 1278:1 1282:1 1284:5
-1 192:1 311:1 330:1 361:1 418:1 596:1 683:1 684:1 710:1 759:1 845:1 883:1 937:1 1024:1 1041:1 1114:1 1229:1 1253:1 1282:2
-1 710:1 715:1 900:1 1080:1 1177:1 1246:1 1247:1 1253:1 1258:1 1278:1 1282:3
-1 236:1 501:1 572:1 587:1 589:1 659:1 780:1 795:1 829:1 909:1 1080:1 1177:1 1246:1 1278:1 1282:4 1284:36
-1 336:1 440:1 710:1 715:1 900:1 1080:1 1234:1 1247:1 1253:1 1258:1 1274:1 1278:1 1282:4
-1 192:1 290:1 311:1 330:1 683:1 710:1 845:1 1041:1 1080:1 1253:1 1278:1 1282:3
-1 154:1 1252:1 1282:3
-1 710:2 1080:1 1253:2 1278:1 1282:2
-1 402:1 621:1 710:1 900:1 1080:1 1237:1 1247:1 1248:1 1253:1 1278:1 1282:2
-1 423:1 621:1 715:1 900:1 957:1 1080:1 1177:1 1217:1 1246:1 1247:1 1248:1 1258:1 1260:1 1278:1 1282:2
-1 336:1 423:1 621:1 715:1 900:1 1080:1 1177:1 1234:1 1246:1 1247:1 1248:1 1258:1 1260:1 1278:1 1282:2
-1 336:1 423:1 621:1 715:1 900:1 1080:1 1177:1 1234:1 1246:1 1247:1 1248:1 1258:1 1260:1 1278:1 1282:2
-1 1080:1 1278:1 1282:3
-1 324:1 336:1 423:1 440:1 621:1 710:1 715:1 843:1 862:1 900:1 914:1 957:1 1080:1 1177:1 1217:1 1222:1 1234:1 1246:1 1247:1 1248:1 1253:1 1258:1 1259:1 1260:1 1264:1 1274:1 1278:1 1282:1
-1 640:1 1261:1 1282:1
-1 336:1 621:1 806:1 900:1 1080:1 1234:1 1235:1 1247:1 1248:1 1278:1 1282:2
-1 223:1 272:1 293:1 311:1 330:1 361:1 364:1 418:1 501:1 683:1 759:1 795:1 813:1 845:1 883:1 891:1 937:1 1024:1 1041:1 1114:1 1282:1
-1 336:1 544:1 621:1 651:1 710:1 900:1 1080:1 1177:1 1232:1 1234:1 1246:1 1247:1 1248:1 1253:1 1278:1 1282:2 1284:5
-1 336:1 423:1 440:1 621:1 806:1 900:1 1080:1 1177:1 1234:1 1235:1 1246:1 1247:1 1248:1 1260:1 1274:1 1278:1 1282:5
-1 423:1 710:2 715:1 900:1 1044:1 1080:1 1247:1 1251:1 1253:2 1258:1 1260:1 1278:1 1282:2 1284:116
-1 710:1 806:1 900:1 1044:1 1080:1 1235:1 1247:1 1251:1 1253:1 1278:1 1282:3
-1 336:1 440:1 900:2 1080:2 1177:2 1234:1 1246:2 1247:2 1274:1 1278:2 1282:7
-1 423:1 440:1 621:1 715:1 806:1 900:1 1080:1 1177:1 1235:1 1246:1 1247:1 1248:1 1258:1 1260:1 1274:1 1278:1 1282:3
-1 192:1 304:1 311:1 330:1 336:1 402:1 489:1 553:1 683:1 710:1 715:1 843:1 845:1 1041:1 1080:1 1177:1 1234:1 1237:1 1246:1 1253:1 1258:1 1264:1 1278:1 1282:2
-1 192:1 304:1 311:1 330:1 364:1 621:1 683:1 710:1 813:1 845:1 900:1 1041:1 1080:1 1114:1 1247:1 1248:1 1253:1 1278:1 1282:3
-1 710:1 843:1 1080:1 1253:1 1264:1 1278:1 1282:1
-1 336:2 423:1 440:1 477:3 583:1 806:1 900:2 1080:4 1145:2 1177:2 1234:2 1235:1 1241:3 1246:2 1247:2 1260:1 1272:1 1274:1 1278:4 1279:2 1282:6
-1 192:1 304:1 311:1 324:1 330:1 364:1 423:1 583:1 683:1 710:1 845:1 900:1 1041:1 1080:1 1114:1 1177:1 1222:1 1246:1 1247:1 1253:1 1260:1 1272:1 1278:1 1282:3
-1 324:1 684:1 710:1 806:1 843:1 900:1 1080:1 1222:1 1229:1 1235:1 1247:1 1253:1 1264:1 1278:1 1282:2
-1 231:1 264:1 324:1 336:1 351:1 423:1 440:1 451:1 460:1 508:1 583:1 621:1 684:1 715:1 811:1 900:1 1044:1 1080:1 1134:1 1177:1 1222:1 1229:1 1234:1 1246:1 1247:1 1248:1 1251:1 1254:1 1258:1 1260:1 1267:1 1272:1 1274:1 1278:1 1282:2 1284:368
-1 423:1 806:1 900:1 1044:1 1080:1 1235:1 1247:1 1251:1 1260:1 1278:1 1282:2
-1 618:1 1183:1 1282:2
-1 710:2 715:1 1080:1 1253:2 1258:1 1278:1 1282:2
-1 684:1 1080:1 1229:1 1278:1 1282:2
-1 1080:1 1278:1 1282:2
-1 204:1 336:3 423:1 440:1 583:1 621:1 806:1 900:2 1080:5 1177:2 1234:3 1235:1 1246:2 1247:2 1248:1 1260:1 1272:1 1274:1 1278:5 1282:6
-1 423:1 583:1 900:1 1080:1 1177:1 1246:1 1247:1 1260:1 1272:1 1278:1 1282:4
-1 423:1 440:1 583:1 621:1 684:1 715:1 900:1 1080:1 1146:1 1229:1 1247:1 1248:1 1258:1 1260:1 1272:1 1274:1 1278:1 1282:2
-1 1080:1 1146:1 1181:1 1278:1 1282:2
-1 1080:1 1146:1 1181:1 1278:1 1282:2
-1 1080:1 1278:1 1282:3
-1 477:1 710:2 1080:1 1113:1 1145:1 1181:1 1241:1 1253:2 1278:1 1279:1 1282:2
-1 246:1 324:1 336:1 417:1 423:1 440:1 455:1 473:1 543:1 584:1 621:1 710:1 715:1 789:1 843:1 900:1 914:1 1044:1 1080:1 1098:1 1177:1 1215:1 1221:1 1222:1 1234:1 1246:1 1247:1 1248:1 1251:1 1253:1 1258:1 1259:1 1260:1 1264:1 1274:1 1275:1 1278:1 1282:2
-1 246:1 319:1 324:1 336:1 351:1 369:1 402:1 423:1 440:1 583:1 621:1 684:1 715:1 900:1 970:1 1044:1 1080:1 1176:1 1177:1 1219:1 1221:1 1222:1 1229:1 1234:1 1237:1 1243:1 1246:1 1247:1 1248:1 1251:1 1254:1 1258:1 1260:1 1272:1 1274:1 1278:1 1282:3
-1 319:1 336:1 351:1 402:1 423:1 440:1 583:1 621:1 715:1 900:1 970:1 1044:1 1080:1 1176:1 1177:1 1219:1 1234:1 1237:1 1243:1 1246:1 1247:1 1248:1 1251:1 1254:1 1258:1 1260:1 1272:1 1274:1 1278:1 1282:2
-1 163:1 710:1 900:1 1080:1 1179:1 1247:1 1253:1 1278:1 1282:7
-1 423:1 477:1 583:1 710:2 715:1 900:1 1044:1 1080:1 1145:1 1241:1 1247:1 1251:1 1253:2 1258:1 1260:1 1272:1 1278:1 1279:1 1282:2 1284:112
-1 336:2 423:1 440:1 583:1 621:1 715:1 806:1 900:3 1080:5 1177:2 1234:2 1235:1 1246:2 1247:3 1248:1 1258:1 1260:1 1272:1 1274:1 1278:5 1282:6
-1 336:1 440:1 900:2 1080:4 1177:3 1234:1 1246:3 1247:2 1274:1 1278:4 1282:4
-1 459:1 488:1 601:1 710:2 715:1 900:1 1080:1 1134:1 1247:1 1253:2 1258:1 1267:1 1278:1 1282:2
-1 710:2 1080:1 1177:1 1246:1 1253:2 1278:1 1282:3
-1 328:1 558:1 632:1 684:1 1080:1 1177:1 1227:1 1229:1 1246:1 1278:1 1282:2
-1 158:1 186:1 477:1 710:1 715:1 1080:1 1145:1 1155:1 1241:1 1253:1 1256:1 1258:1 1278:1 1279:1 1282:2
-1 304:1 440:1 710:1 900:1 903:1 1080:1 1177:1 1193:1 1246:1 1247:1 1253:1 1274:1 1278:1 1282:2
-1 640:1 1261:1 1282:1
-1 324:1 402:1 423:1 440:1 583:1 596:1 621:1 658:1 684:1 710:1 715:1 900:1 1080:1 1177:1 1222:1 1229:1 1237:1 1246:1 1247:1 1248:1 1253:1 1258:1 1260:1 1272:1 1274:1 1278:1 1282:1
-1 192:1 223:1 278:1 295:1 304:1 309:1 311:1 321:1 330:1 361:1 418:1 474:1 586:1 623:1 683:1 710:1 729:1 759:1 783:1 813:1 843:1 845:1 883:1 937:1 969:1 1005:1 1024:1 1041:1 1053:1 1078:1 1114:1 1204:1 1253:1 1264:1 1282:2
-1 684:1 710:1 900:1 1080:1 1229:1 1247:1 1253:1 1278:1 1282:2
-1 125:1 180:1 283:1 998:1 1080:1 1206:1 1278:1 1282:3
-1 710:2 806:1 1080:1 1134:1 1235:1 1253:2 1267:1 1278:1 1282:4
-1 192:1 309:1 311:1 330:1 361:1 408:1 418:1 596:1 683:1 684:1 710:1 759:1 783:1 813:1 843:1 845:1 883:1 937:1 1005:1 1024:1 1041:1 1114:1 1229:1 1253:1 1264:1 1282:1
-1 423:1 900:1 1080:1 1247:1 1260:1 1278:1 1282:2
-1 423:1 583:1 900:1 1044:1 1080:1 1247:1 1251:1 1260:1 1272:1 1278:1 1282:2
-1 423:1 477:1 583:1 700:1 900:1 1080:1 1145:1 1241:1 1247:1 1260:1 1272:1 1278:1 1279:1 1282:2
-1 319:1 324:1 336:1 423:1 440:1 450:1 583:1 621:1 715:1 814:1 900:1 928:1 1080:1 1177:1 1219:1 1222:1 1234:1 1246:1 1247:1 1248:1 1258:1 1260:1 1272:1 1274:1 1278:1 1280:1 1282:2
-1 324:1 336:1 423:1 440:1 450:1 583:1 621:1 715:1 900:1 1080:1 1177:1 1222:1 1234:1 1246:1 1247:1 1248:1 1258:1 1260:1 1272:1 1274:1 1278:1 1280:1 1282:1
-1 324:1 336:1 423:1 440:1 450:1 500:1 520:1 583:1 621:1 715:1 814:1 900:1 1080:1 1177:1 1222:1 1234:1 1246:1 1247:1 1248:1 1258:1 1260:1 1272:1 1274:1 1278:1 1280:1 1282:1
-1 168:1 178:1 250:1 324:1 336:1 423:1 440:1 450:1 500:1 520:1 583:1 621:1 715:1 814:1 900:1 974:1 1080:1 1177:1 1222:1 1234:1 1246:1 1247:1 1248:1 1258:1 1260:1 1272:1 1274:1 1278:1 1280:1 1282:1 1284:21
-1 324:1 336:1 423:1 440:1 450:1 583:1 621:1 666:1 715:1 900:1 1080:1 1177:1 1222:1 1234:1 1246:1 1247:1 1248:1 1258:1 1260:1 1272:1 1274:1 1278:1 1280:1 1282:1
-1 324:1 336:1 423:1 440:1 450:1 583:1 621:1 900:1 974:1 1080:1 1177:1 1222:1 1234:1 1246:1 1247:1 1248:1 1260:1 1272:1 1274:1 1278:1 1280:1 1282:1
-1 336:1 440:1 900:2 1080:2 1177:2 1234:1 1246:2 1247:2 1274:1 1278:2 1282:7
-1 304:1 423:1 440:1 710:1 715:1 717:1 900:1 1080:1 1177:1 1246:1 1247:1 1253:1 1258:1 1260:1 1274:1 1278:1 1282:2 1284:39
-1 440:1 710:1 715:1 717:1 900:1 1080:1 1177:1 1246:1 1247:1 1253:1 1258:1 1274:1 1278:1 1282:2 1284:39
-1 336:1 440:1 900:2 1080:2 1177:2 1234:1 1246:2 1247:2 1274:1 1278:2 1282:6
-1 177:1 423:1 583:1 710:1 715:1 900:1 1080:1 1177:1 1246:1 1247:1 1253:1 1258:1 1260:1 1272:1 1278:1 1281:1 1282:1
-1 140:1 324:1 336:1 375:1 402:1 423:1 621:1 635:1 710:1 715:1 806:1 843:1 900:1 1060:1 1080:1 1177:1 1222:1 1234:1 1235:1 1237:1 1244:1 1246:1 1247:1 1248:1 1253:1 1258:1 1260:1 1264:1 1278:1 1282:2
-1 710:1 1080:1 1107:1 1177:1 1246:1 1253:1 1278:1 1282:2
-1 243:1 900:1 1080:1 1146:1 1247:1 1278:1 1282:2
-1 710:2 1080:1 1253:2 1278:1 1282:2
-1 423:1 440:1 621:1 715:1 806:1 900:1 1080:1 1177:1 1235:1 1246:1 1247:1 1248:1 1258:1 1260:1 1274:1 1278:1 1282:3
-1 272:1 303:1 311:1 330:1 335:1 336:1 364:1 402:1 489:1 501:1 553:1 621:1 683:1 845:1 891:1 1041:1 1080:1 1122:1 1177:1 1234:1 1237:1 1246:1 1248:1 1278:1 1282:1
-1 423:1 477:1 485:1 710:2 900:1 1080:1 1145:1 1157:1 1241:1 1247:1 1253:2 1260:1 1278:1 1279:1 1282:2
-1 121:1 324:1 336:1 404:1 423:1 477:1 621:1 684:1 715:1 806:1 900:1 927:1 1044:1 1080:1 1134:1 1177:1 1220:1 1222:1 1229:1 1234:1 1235:1 1241:1 1246:1 1247:1 1248:1 1251:1 1258:1 1260:1 1266:1 1267:1 1278:1 1282:2 1284:5
-1 710:1 715:1 900:1 1080:1 1177:1 1246:1 1247:1 1253:1 1258:1 1278:1 1282:3
-1 640:1 1261:1 1282:1
-1 423:1 477:1 485:1 710:2 900:1 1080:1 1145:1 1241:1 1247:1 1253:2 1260:1 1278:1 1279:1 1282:2
-1 172:1 192:1 251:1 272:1 304:1 311:1 324:1 330:1 336:1 359:1 364:1 402:1 423:1 440:1 444:1 489:1 501:1 547:1 553:1 683:1 689:1 715:1 793:1 795:1 835:1 843:1 845:1 891:1 900:1 911:1 914:1 939:1 946:1 957:1 1015:1 1041:1 1069:1 1080:1 1089:1 1177:1 1217:1 1222:1 1233:1 1234:1 1237:1 1246:1 1247:1 1258:1 1259:1 1260:1 1264:1 1274:1 1276:1 1278:1 1282:2
-1 336:2 423:1 440:1 528:1 621:1 697:1 715:1 806:1 900:2 1080:5 1177:2 1234:2 1235:1 1240:1 1246:2 1247:2 1248:1 1258:1 1260:1 1274:1 1278:5 1282:6
-1 440:1 473:1 583:1 710:1 900:1 1080:1 1247:1 1253:1 1272:1 1274:1 1278:1 1282:1
-1 154:1 1252:1 1282:3
-1 154:1 1252:1 1282:2
-1 423:1 440:1 621:1 715:1 806:1 900:1 1080:1 1177:1 1235:1 1246:1 1247:1 1248:1 1258:1 1260:1 1274:1 1278:1 1282:3
-1 252:1 336:1 402:1 621:1 710:1 843:1 1080:1 1177:1 1228:1 1234:1 1237:1 1246:1 1248:1 1253:1 1264:1 1278:1 1282:2
-1 640:1 1261:1 1282:1
-1 158:1 651:1 710:1 719:1 761:1 900:1 1080:1 1247:1 1253:1 1256:1 1278:1 1282:2
-1 710:1 1080:1 1253:1 1278:1 1282:6
-1 710:2 1080:1 1253:2 1278:1 1282:2
-1 710:1 1080:1 1253:1 1278:1 1282:5
-1 710:2 1080:1 1253:2 1278:1 1282:3
-1 684:1 710:2 844:1 900:1 1080:1 1177:1 1229:1 1246:1 1247:1 1253:2 1278:1 1282:4
-1 684:1 710:2 1080:1 1229:1 1253:2 1278:1 1282:4
-1 600:1 695:1 710:1 1080:1 1253:1 1278:1 1282:3
-1 220:1 324:1 336:1 423:1 440:1 450:1 583:1 621:1 715:1 878:1 900:1 1044:1 1080:1 1177:1 1222:1 1224:1 1234:1 1246:1 1247:1 1248:1 1251:1 1258:1 1260:1 1270:1 1272:1 1274:1 1278:1 1280:1 1282:2
-1 336:1 423:1 440:1 583:1 621:1 697:1 715:1 806:1 900:1 1080:1 1177:1 1234:1 1235:1 1240:1 1246:1 1247:1 1248:1 1258:1 1260:1 1272:1 1274:1 1278:1 1282:5
-1 336:1 423:1 440:1 715:1 806:1 900:1 1080:1 1177:1 1234:1 1235:1 1246:1 1247:1 1258:1 1260:1 1274:1 1278:1 1282:4
-1 319:1 336:1 423:1 440:1 583:1 621:1 697:1 715:1 806:1 900:1 1044:1 1080:1 1177:1 1219:1 1234:1 1235:1 1240:1 1246:1 1247:1 1248:1 1251:1 1258:1 1260:1 1272:1 1274:1 1278:1 1282:5
-1 336:1 423:1 440:1 564:1 583:1 621:1 710:2 715:1 900:1 1080:1 1177:1 1234:1 1246:1 1247:1 1248:1 1253:2 1258:1 1260:1 1272:1 1274:1 1278:1 1282:4
-1 621:1 1080:1 1248:1 1278:1 1282:2
-1 155:1 232:1 347:1 366:1 383:1 539:1 711:1 859:1 948:1 1042:1 1080:1 1278:1 1282:1 1284:75
-1 140:1 192:1 225:1 251:1 304:1 309:1 311:1 330:1 336:1 361:1 402:1 418:1 495:1 514:1 623:1 660:1 683:1 704:1 710:1 813:1 830:1 843:1 845:1 880:1 883:1 937:1 978:1 995:1 1005:1 1024:1 1038:1 1041:1 1049:1 1095:1 1114:1 1234:1 1237:1 1244:1 1253:1 1264:1 1282:2
-1 1080:1 1278:1 1282:2
-1 127:1 305:1 832:1 900:1 1080:1 1247:1 1278:1 1282:3
-1 423:1 440:1 621:1 715:1 806:1 900:1 1080:1 1177:1 1235:1 1246:1 1247:1 1248:1 1258:1 1260:1 1274:1 1278:1 1282:2
-1 710:1 1080:1 1253:1 1278:1 1282:1
-1 154:1 1252:1 1282:3
-1 220:1 336:1 423:1 440:1 450:1 583:1 621:1 900:1 1080:1 1177:1 1234:1 1246:1 1247:1 1248:1 1260:1 1270:1 1272:1 1274:1 1278:1 1280:1 1282:2
-1 621:1 632:1 900:1 912:1 914:1 1080:1 1247:1 1248:1 1259:1 1278:1 1282:1
-1 900:1 1080:1 1247:1 1278:1 1282:3
-1 117:1 192:1 304:1 311:1 319:1 330:1 336:1 408:1 682:1 683:1 684:1 710:1 754:1 766:1 818:1 826:1 843:1 845:1 900:1 937:1 1038:1 1041:1 1080:1 1219:1 1229:1 1234:1 1236:1 1247:1 1253:1 1257:1 1264:1 1278:1 1282:2
-1 900:1 1080:1 1134:1 1177:1 1246:1 1247:1 1267:1 1278:1 1282:2
-1 1080:1 1278:1 1282:2
-1 710:2 1080:1 1253:2 1278:1 1282:2
-1 154:1 1252:1 1282:3
-1 226:1 477:1 554:1 872:1 1002:1 1079:1 1080:1 1136:1 1181:1 1241:1 1278:1 1282:2
-1 423:1 440:1 583:1 710:1 715:1 900:1 927:1 1080:1 1177:1 1246:1 1247:1 1253:1 1258:1 1260:1 1266:1 1272:1 1274:1 1278:1 1282:4
-1 423:1 440:1 621:1 715:1 806:1 900:1 1080:1 1177:1 1235:1 1246:1 1247:1 1248:1 1258:1 1260:1 1274:1 1278:1 1282:3
-1 119:1 217:1 248:1 296:1 312:1 313:1 337:1 357:1 367:1 461:1 467:1 483:1 487:1 517:1 600:1 710:1 738:1 788:1 900:1 943:1 951:1 952:1 1020:1 1054:1 1080:1 1087:1 1247:1 1253:1 1278:1 1282:6
-1 119:1 217:1 248:1 296:1 312:1 313:1 337:1 357:1 367:1 467:1 483:1 487:1 600:1 710:1 788:1 900:1 943:1 951:1 952:1 1020:1 1054:1 1080:1 1087:1 1247:1 1253:1 1278:1 1282:6
-1 423:1 440:1 621:1 715:1 806:1 900:1 1080:1 1177:1 1235:1 1246:1 1247:1 1248:1 1258:1 1260:1 1274:1 1278:1 1282:3
-1 336:1 440:1 900:2 1080:2 1177:2 1234:1 1246:2 1247:2 1274:1 1278:2 1282:7
-1 154:1 1252:1 1282:4
-1 423:1 473:1 621:1 710:1 807:1 900:1 1044:1 1080:1 1159:1 1247:1 1248:1 1251:1 1253:1 1260:1 1278:1 1282:4
-1 423:1 440:1 621:1 715:1 806:1 900:1 1080:1 1177:1 1235:1 1246:1 1247:1 1248:1 1258:1 1260:1 1274:1 1278:1 1282:3
-1 398:1 446:1 477:1 531:1 579:1 620:1 700:1 964:1 1080:1 1113:1 1145:1 1181:1 1241:1 1278:1 1279:1 1282:1
-1 710:2 1080:1 1253:2 1278:1 1282:5 1284:73
-1 423:1 440:1 477:1 900:1 1044:1 1080:1 1134:1 1241:1 1247:1 1251:1 1260:1 1267:1 1274:1 1278:1 1282:2
-1 127:1 197:1 305:1 423:1 477:1 832:1 900:1 1080:1 1145:1 1241:1 1247:1 1260:1 1278:1 1279:1 1282:2
-1 989:1 1080:1 1278:1 1282:2
-1 477:1 621:1 670:1 798:1 900:1 1017:1 1080:1 1145:1 1241:1 1247:1 1248:1 1278:1 1279:1 1282:3
-1 710:1 1080:1 1253:1 1278:1 1282:2
-1 154:1 1252:1 1282:3
-1 336:1 440:1 900:2 1080:2 1177:2 1234:1 1246:2 1247:2 1274:1 1278:2 1282:7
-1 208:1 1282:1
-1 423:1 715:1 900:1 1080:1 1177:1 1246:1 1247:1 1258:1 1260:1 1278:1 1282:3
-1 164:1 314:1 423:1 440:1 583:1 697:1 715:1 786:1 900:1 1080:1 1240:1 1247:1 1258:1 1260:1 1272:1 1274:1 1278:1 1282:1
-1 324:1 402:1 621:1 715:1 806:1 816:1 900:1 1080:1 1171:1 1177:1 1222:1 1235:1 1237:1 1239:1 1245:1 1246:1 1247:1 1248:1 1258:1 1278:1 1282:1
-1 324:1 1080:1 1222:1 1278:1 1282:1
-1 324:1 621:1 715:1 900:1 1080:1 1222:1 1247:1 1248:1 1258:1 1278:1 1282:3
-1 640:1 1261:1 1282:1
-1 336:2 423:1 440:1 583:1 715:2 806:1 900:2 1043:1 1044:1 1080:4 1177:2 1190:1 1234:2 1235:1 1246:2 1247:2 1249:1 1251:1 1258:2 1260:1 1263:1 1272:1 1274:1 1278:4 1282:6
-1 192:1 304:1 311:1 319:1 330:1 336:1 408:1 418:1 422:1 543:1 682:1 683:1 684:1 710:1 721:1 731:1 759:1 766:1 810:1 826:1 845:1 883:1 900:1 1024:1 1038:1 1041:1 1080:1 1114:1 1177:1 1219:1 1229:1 1234:1 1246:1 1247:1 1253:1 1257:1 1278:1 1282:1
-1 710:1 900:1 1080:1 1247:1 1253:1 1278:1 1282:5
-1 192:1 223:1 311:1 330:1 361:1 364:1 418:1 593:1 683:1 710:1 813:1 843:1 845:1 900:1 937:1 1005:1 1024:1 1041:1 1114:1 1247:1 1253:1 1264:1 1282:1
-1 336:3 423:1 440:1 583:1 621:5 715:2 806:1 900:2 1043:1 1080:4 1177:2 1190:1 1234:3 1235:1 1246:2 1247:2 1248:5 1249:1 1258:2 1260:1 1263:1 1272:1 1274:1 1278:4 1282:7
-1 336:1 423:1 440:1 477:1 583:1 621:1 710:2 715:1 716:1 900:1 1080:1 1177:1 1234:1 1241:1 1246:1 1247:1 1248:1 1253:2 1258:1 1260:1 1272:1 1274:1 1278:1 1282:2
-1 205:1 311:1 330:1 683:1 710:1 809:1 843:1 845:1 900:1 1041:1 1080:1 1171:1 1177:1 1239:1 1246:1 1247:1 1253:1 1264:1 1278:1 1282:1
-1 324:1 440:1 684:1 715:1 900:1 1080:1 1177:1 1222:1 1229:1 1246:1 1247:1 1258:1 1274:1 1278:1 1282:2
-1 154:1 1252:1 1282:3
-1 423:1 440:1 477:1 670:1 715:1 900:1 964:1 1028:1 1044:1 1080:1 1116:1 1145:1 1146:1 1181:1 1241:1 1247:1 1251:1 1258:1 1260:1 1274:1 1278:1 1279:1 1282:2
-1 336:1 397:1 423:1 440:1 583:1 621:1 651:1 710:1 715:1 806:1 900:1 1080:1 1177:1 1234:1 1235:1 1246:1 1247:1 1248:1 1253:1 1258:1 1260:1 1272:1 1274:1 1278:1 1282:1
-1 161:1 545:1 637:1 710:1 1080:1 1253:1 1278:1 1282:3
-1 143:1 324:1 336:1 397:1 423:1 440:1 450:1 455:1 583:1 621:1 684:1 697:1 715:1 806:1 900:1 914:1 927:1 953:1 1044:1 1080:1 1177:1 1215:1 1222:1 1229:1 1234:1 1235:1 1240:1 1246:1 1247:1 1248:1 1251:1 1258:1 1259:1 1260:1 1266:1 1272:1 1274:1 1278:1 1280:1 1282:4
-1 161:1 545:1 645:1 710:1 716:1 1080:1 1253:1 1278:1 1282:4
-1 1080:1 1278:1 1282:1
-1 423:1 900:1 1080:1 1247:1 1260:1 1278:1 1282:1
-1 336:1 394:1 423:1 579:1 620:1 715:1 900:1 1080:1 1177:1 1234:1 1246:1 1247:1 1258:1 1260:1 1278:1 1282:1
-1 336:1 440:1 900:2 1080:2 1177:2 1234:1 1246:2 1247:2 1274:1 1278:2 1282:7
-1 246:1 307:1 314:1 316:1 324:1 336:1 379:1 423:1 621:1 697:1 715:1 786:1 900:1 914:1 927:1 957:1 1080:1 1177:1 1216:1 1217:1 1221:1 1222:1 1234:1 1240:1 1246:1 1247:1 1248:1 1258:1 1259:1 1260:1 1266:1 1278:1 1282:1 1284:44
-1 307:1 324:1 336:1 402:1 423:1 621:1 715:1 786:1 900:1 1080:1 1177:1 1222:1 1234:1 1237:1 1246:1 1247:1 1248:1 1258:1 1260:1 1278:1 1282:2 1284:1
-1 192:1 304:1 311:1 324:1 330:1 440:1 683:1 710:1 715:1 845:1 900:1 927:1 1041:1 1080:1 1177:1 1222:1 1246:1 1247:1 1253:1 1258:1 1266:1 1274:1 1278:1 1282:2
-1 158:1 423:1 477:1 651:1 710:1 715:1 900:1 1044:1 1080:1 1145:1 1155:1 1177:1 1241:1 1246:1 1247:1 1251:1 1253:1 1256:1 1258:1 1260:1 1278:1 1279:1 1282:2 1284:92
-1 336:1 423:1 440:1 621:1 715:1 806:1 900:1 1080:1 1234:1 1235:1 1247:1 1248:1 1258:1 1260:1 1274:1 1278:1 1282:5
-1 154:1 1252:1 1282:4
-1 600:1 710:2 1080:1 1253:2 1278:1 1282:3
-1 600:1 710:2 1080:1 1253:2 1278:1 1282:3
-1 423:1 715:1 900:1 1080:1 1177:1 1246:1 1247:1 1258:1 1260:1 1278:1 1282:2
-1 161:1 457:1 545:1 568:1 710:2 716:1 985:1 1080:1 1253:2 1278:1 1282:2
-1 337:1 517:1 600:1 695:1 710:1 1080:1 1253:1 1278:1 1282:3 1284:6
-1 517:1 710:1 943:1 1080:1 1253:1 1278:1 1282:3
-1 336:3 423:1 440:1 583:1 621:1 697:1 806:1 900:2 1080:6 1177:2 1234:3 1235:1 1240:1 1246:2 1247:2 1248:1 1260:1 1272:1 1274:1 1278:6 1282:6
-1 196:1 452:1 710:1 1018:1 1080:1 1253:1 1278:1 1282:3
-1 154:1 1252:1 1282:3
-1 319:1 336:2 423:1 440:1 583:1 621:2 697:1 715:1 724:1 806:1 899:1 900:2 982:1 1080:4 1177:2 1219:1 1234:2 1235:1 1240:1 1246:2 1247:2 1248:2 1258:1 1260:1 1272:1 1274:1 1278:4 1282:5
-1 154:1 1252:1 1282:4
-1 423:1 440:1 650:1 715:1 900:1 1028:1 1080:1 1116:1 1146:1 1177:1 1246:1 1247:1 1258:1 1260:1 1274:1 1278:1 1282:2
-1 423:1 440:1 583:1 621:1 710:1 715:1 806:1 900:1 1080:1 1134:1 1177:1 1235:1 1246:1 1247:1 1248:1 1253:1 1258:1 1260:1 1267:1 1272:1 1274:1 1278:1 1282:4
-1 423:1 440:1 621:1 715:1 806:1 900:1 1080:1 1177:1 1235:1 1246:1 1247:1 1248:1 1258:1 1260:1 1274:1 1278:1 1282:3
-1 1080:1 1278:1 1282:3
-1 423:1 440:1 450:1 583:1 621:1 715:1 900:1 1044:1 1080:1 1134:1 1177:1 1246:1 1247:1 1248:1 1251:1 1258:1 1260:1 1267:1 1272:1 1274:1 1278:1 1280:1 1282:2
-1 1080:1 1278:1 1282:3 1284:1
-1 423:1 715:1 900:1 1080:1 1177:1 1246:1 1247:1 1258:1 1260:1 1278:1 1282:2
-1 710:1 843:1 1080:1 1253:1 1264:1 1278:1 1282:2
-1 1080:1 1278:1 1282:1
-1 154:1 1252:1 1282:3
-1 246:1 324:1 336:1 417:1 423:1 440:1 455:1 473:1 543:1 584:1 621:1 710:1 715:1 789:1 843:1 900:1 914:1 1044:1 1080:1 1098:1 1177:1 1215:1 1221:1 1222:1 1234:1 1246:1 1247:1 1248:1 1251:1 1253:1 1258:1 1259:1 1260:1 1264:1 1274:1 1275:1 1278:1 1282:2
-1 154:1 1252:1 1282:3
-1 154:1 1252:1 1282:3
-1 154:1 1252:1 1282:3
-1 423:1 440:1 621:1 715:1 806:1 900:1 1080:1 1177:1 1235:1 1246:1 1247:1 1248:1 1258:1 1260:1 1274:1 1278:1 1282:2
-1 710:1 1080:1 1253:1 1278:1 1282:2
-1 324:1 336:1 423:1 440:1 445:1 621:1 710:1 715:1 843:1 900:1 1080:1 1177:1 1222:1 1234:1 1246:1 1247:1 1248:1 1253:1 1258:1 1260:1 1264:1 1274:1 1278:1 1282:2
-1 786:1 1080:1 1278:1 1282:2
-1 206:1 621:1 1080:1 1248:1 1278:1 1282:2
-1 710:1 1080:1 1177:1 1246:1 1253:1 1278:1 1282:2
-1 423:1 440:1 583:1 710:2 715:1 900:1 1080:1 1177:1 1246:1 1247:1 1253:2 1258:1 1260:1 1272:1 1274:1 1278:1 1282:3
-1 440:1 710:1 900:1 1080:1 1247:1 1253:1 1274:1 1278:1 1282:2
-1 154:1 1252:1 1282:4
-1 336:1 423:1 440:1 621:1 715:1 806:1 900:1 1080:1 1177:1 1234:1 1235:1 1246:1 1247:1 1248:1 1258:1 1260:1 1274:1 1278:1 1282:2
-1 710:2 1080:1 1134:1 1253:2 1267:1 1278:1 1282:3
-1 710:2 1080:1 1134:1 1253:2 1267:1 1278:1 1282:3
-1 423:1 440:1 715:1 900:1 1080:1 1164:1 1177:1 1246:1 1247:1 1258:1 1260:1 1274:1 1278:1 1282:3
-1 640:1 1261:1 1282:1
-1 336:3 423:1 440:1 583:1 621:1 715:1 806:1 900:2 1080:4 1134:1 1177:2 1234:3 1235:1 1246:2 1247:2 1248:1 1258:1 1260:1 1267:1 1272:1 1274:1 1278:4 1282:6
-1 192:1 311:1 330:1 361:1 418:1 596:1 683:1 684:1 710:1 759:1 845:1 883:1 937:1 1024:1 1041:1 1114:1 1229:1 1253:1 1282:2
-1 342:1 710:1 1080:1 1253:1 1278:1 1282:2
-1 336:1 621:1 1080:1 1234:1 1248:1 1278:1 1282:1
-1 324:1 336:1 543:1 621:1 715:1 806:1 900:1 914:1 1080:1 1176:1 1177:1 1222:1 1234:1 1235:1 1243:1 1246:1 1247:1 1248:1 1258:1 1259:1 1278:1 1282:1
-1 324:1 336:1 423:1 440:1 450:1 583:1 621:1 715:1 900:1 1080:1 1177:1 1222:1 1234:1 1246:1 1247:1 1248:1 1258:1 1260:1 1272:1 1274:1 1278:1 1280:1 1282:2
-1 715:1 900:1 1080:1 1177:1 1246:1 1247:1 1258:1 1278:1 1282:1
-1 324:1 336:1 423:1 900:1 1080:1 1177:1 1222:1 1234:1 1246:1 1247:1 1260:1 1278:1 1282:1
-1 154:1 1252:1 1282:3
-1 423:1 900:1 1080:1 1177:1 1246:1 1247:1 1260:1 1278:1 1282:2 1284:2
-1 184:1 383:1 526:1 1080:1 1084:1 1278:1 1282:3 1284:1
-1 592:1 710:1 1080:1 1214:1 1253:1 1278:1 1282:1
-1 710:1 1080:1 1253:1 1278:1 1282:1
-1 304:1 710:1 715:1 1080:1 1177:1 1246:1 1253:1 1258:1 1278:1 1282:1
-1 806:1 900:1 1080:1 1235:1 1247:1 1278:1 1282:5 1284:1
-1 1080:1 1278:1 1282:2
-1 192:1 223:1 311:1 330:1 361:1 418:1 511:1 593:1 683:1 710:1 759:1 813:1 843:1 845:1 883:1 937:1 969:1 1024:1 1041:1 1114:1 1130:1 1253:1 1264:1 1282:1
-1 154:1 1252:1 1282:3
-1 252:1 336:1 621:1 900:1 1080:1 1171:1 1177:1 1228:1 1234:1 1239:1 1246:1 1247:1 1248:1 1278:1 1282:1
-1 192:1 311:1 330:1 647:1 683:1 685:1 710:1 729:1 758:1 830:1 845:1 1005:1 1041:1 1253:1 1269:1 1282:1
-1 192:1 262:1 304:1 311:1 330:1 683:1 710:1 813:1 845:1 1005:1 1041:1 1253:1 1282:2
-1 154:1 1252:1 1282:3
-1 154:1 1252:1 1282:2
-1 180:1 997:1 1001:1 1080:1 1278:1 1282:2
-1 220:1 336:1 423:1 440:1 450:1 583:1 621:1 715:1 900:1 1080:1 1177:1 1234:1 1246:1 1247:1 1248:1 1258:1 1260:1 1270:1 1272:1 1274:1 1278:1 1280:1 1282:2
-1 710:1 715:1 900:1 1080:1 1177:1 1246:1 1247:1 1253:1 1258:1 1278:1 1282:1
-1 140:1 189:1 277:1 324:1 336:1 351:1 621:1 710:1 715:1 775:1 806:1 816:1 900:1 1080:1 1081:1 1151:1 1177:1 1222:1 1234:1 1235:1 1244:1 1245:1 1246:1 1247:1 1248:1 1253:1 1254:1 1258:1 1265:1 1278:1 1282:1
-1 154:1 336:1 440:1 455:1 621:1 710:1 900:1 1080:1 1215:1 1234:1 1247:1 1248:1 1252:1 1253:1 1274:1 1278:1 1282:4
-1 336:1 621:1 798:1 900:1 1080:1 1177:1 1234:1 1246:1 1247:1 1248:1 1278:1 1282:3
-1 336:1 621:1 1080:1 1146:1 1234:1 1248:1 1278:1 1282:2
-1 225:1 277:1 336:1 402:1 621:1 710:1 775:1 900:1 919:1 1080:1 1177:1 1234:1 1237:1 1246:1 1247:1 1248:1 1253:1 1265:1 1278:1 1282:2
-1 277:1 351:1 621:1 710:1 900:1 1080:1 1247:1 1248:1 1253:1 1254:1 1278:1 1282:2
-1 167:1 186:1 289:1 472:1 515:1 537:1 588:1 598:1 680:1 681:1 787:1 792:1 794:1 803:1 861:1 888:1 889:1 973:1 1051:1 1075:1 1080:1 1278:1 1282:2 1284:427
-1 304:1 324:1 336:1 710:1 715:1 900:1 1080:1 1177:1 1222:1 1234:1 1246:1 1247:1 1253:1 1258:1 1278:1 1282:1 1284:66
-1 277:1 602:1 710:1 939:1 1080:1 1097:1 1167:1 1177:1 1246:1 1253:1 1278:1 1282:3
-1 423:1 440:1 583:1 710:1 806:1 900:1 944:1 1080:1 1177:1 1235:1 1246:1 1247:1 1253:1 1260:1 1272:1 1274:1 1278:1 1282:2
-1 180:1 423:1 440:1 715:1 900:1 1080:1 1177:1 1246:1 1247:1 1258:1 1260:1 1274:1 1278:1 1282:3
-1 256:1 336:1 432:1 498:1 621:1 710:1 715:1 893:1 900:1 1080:1 1177:1 1234:1 1246:1 1247:1 1248:1 1253:1 1258:1 1278:1 1282:2
-1 393:1 1080:1 1230:1 1278:1 1282:2
-1 154:1 336:1 491:1 621:1 900:1 1052:1 1080:1 1177:1 1234:1 1246:1 1247:1 1248:1 1252:1 1278:1 1282:1
-1 324:1 336:1 423:1 440:1 450:1 583:1 621:1 715:1 900:1 914:1 1080:1 1177:1 1222:1 1234:1 1246:1 1247:1 1248:1 1258:1 1259:1 1260:1 1272:1 1274:1 1278:1 1280:1 1282:1
-1 446:1 477:1 531:1 579:1 620:1 700:1 1080:1 1113:1 1145:1 1181:1 1241:1 1278:1 1279:1 1282:1
-1 154:1 1252:1 1282:3
-1 423:1 440:1 621:1 715:1 806:1 900:1 1080:1 1177:1 1235:1 1246:1 1247:1 1248:1 1258:1 1260:1 1274:1 1278:1 1282:3
-1 324:1 336:1 391:1 440:1 621:1 710:1 715:1 900:1 1080:1 1222:1 1234:1 1247:1 1248:1 1253:1 1258:1 1274:1 1278:1 1282:3
-1 336:2 423:1 440:1 621:1 715:1 900:2 1080:3 1177:2 1234:2 1246:2 1247:2 1248:1 1258:1 1260:1 1274:1 1278:3 1282:6
-1 324:1 423:1 440:1 583:1 621:1 710:1 715:1 900:1 927:1 1080:1 1177:1 1222:1 1246:1 1247:1 1248:1 1253:1 1258:1 1260:1 1266:1 1272:1 1274:1 1278:1 1282:1
-1 154:1 1252:1 1282:2
-1 192:1 223:1 224:1 234:1 251:1 288:1 290:1 304:1 309:1 311:1 324:1 330:1 336:1 361:1 364:1 386:1 418:1 495:1 590:1 593:1 623:1 683:1 710:1 715:1 729:1 781:1 783:1 810:1 813:1 831:1 843:1 845:1 883:1 900:1 937:1 953:1 1005:1 1024:1 1038:1 1041:1 1053:1 1080:1 1114:1 1177:1 1222:1 1234:1 1246:1 1247:1 1253:1 1258:1 1264:1 1278:1 1282:2
-1 336:1 352:1 423:1 621:1 710:1 715:1 900:1 1080:1 1177:1 1234:1 1246:1 1247:1 1248:1 1253:1 1258:1 1260:1 1278:1 1282:2
-1 440:1 621:1 710:1 715:1 1080:1 1177:1 1246:1 1248:1 1253:1 1258:1 1274:1 1278:1 1282:1
-1 423:1 621:1 710:1 841:1 900:1 1080:1 1177:1 1246:1 1247:1 1248:1 1253:1 1260:1 1278:1 1282:1
-1 324:1 336:1 440:1 621:1 710:1 715:1 900:1 1080:1 1177:1 1222:1 1234:1 1246:1 1247:1 1248:1 1253:1 1258:1 1274:1 1278:1 1282:2
-1 140:1 192:1 225:1 290:1 304:1 311:1 316:1 324:1 330:1 336:1 418:1 423:1 440:1 621:1 683:1 710:1 715:1 781:1 845:1 900:1 957:1 1041:1 1080:1 1114:1 1177:1 1216:1 1217:1 1222:1 1234:1 1244:1 1246:1 1247:1 1248:1 1253:1 1258:1 1260:1 1274:1 1278:1 1282:2
-1 336:3 423:1 440:1 583:1 621:2 697:1 710:1 715:2 806:1 900:2 1080:4 1177:2 1234:3 1235:1 1240:1 1246:2 1247:2 1248:2 1253:1 1258:2 1260:1 1272:1 1274:1 1278:4 1282:5
-1 324:1 336:1 423:1 440:1 450:1 455:1 583:1 621:1 697:1 715:1 900:1 914:1 927:1 1044:1 1080:1 1177:1 1215:1 1222:1 1234:1 1240:1 1246:1 1247:1 1248:1 1251:1 1258:1 1259:1 1260:1 1266:1 1272:1 1274:1 1278:1 1280:1 1282:1
-1 336:2 423:1 440:1 583:1 621:1 693:1 697:1 715:1 806:1 900:2 1080:5 1177:2 1234:2 1235:1 1240:1 1246:2 1247:2 1248:1 1258:1 1260:1 1272:1 1274:1 1278:5 1282:6
-1 290:1 304:1 311:1 324:1 330:1 336:1 402:1 423:1 440:1 583:1 621:1 683:1 710:1 715:1 781:1 810:1 843:1 845:1 900:1 927:1 1038:1 1041:1 1080:1 1177:1 1222:1 1234:1 1237:1 1246:1 1247:1 1248:1 1253:1 1258:1 1260:1 1264:1 1266:1 1272:1 1274:1 1278:1 1282:2
-1 423:1 710:1 715:1 900:1 1080:1 1177:1 1246:1 1247:1 1253:1 1258:1 1260:1 1278:1 1282:1
-1 192:1 223:1 224:1 288:1 304:1 311:1 330:1 361:1 364:1 423:1 593:1 621:1 683:1 710:1 715:1 729:1 813:1 831:1 843:1 845:1 880:1 883:1 900:1 937:1 1005:1 1041:1 1114:1 1129:1 1247:1 1248:1 1253:1 1258:1 1260:1 1264:1 1282:2
-1 192:1 223:1 234:1 251:1 288:1 290:1 309:1 311:1 316:1 324:1 330:1 336:1 361:1 418:1 511:1 593:1 621:1 623:1 683:1 710:1 715:1 781:1 783:1 806:1 818:1 831:1 843:1 845:1 900:1 1005:1 1024:1 1041:1 1049:1 1053:1 1080:1 1177:1 1216:1 1222:1 1234:1 1235:1 1246:1 1247:1 1248:1 1253:1 1258:1 1264:1 1278:1 1282:2 1284:1
-1 177:1 621:1 710:1 715:1 900:1 1080:1 1177:1 1246:1 1247:1 1248:1 1253:1 1258:1 1278:1 1281:1 1282:1
-1 154:1 1252:1 1282:3
-1 223:1 252:1 272:1 290:1 304:1 311:1 330:1 335:1 336:1 364:1 402:1 501:1 593:1 647:1 683:1 685:1 729:1 781:1 831:1 843:1 845:1 891:1 900:1 937:1 1024:1 1041:1 1064:1 1080:1 1114:1 1177:1 1228:1 1234:1 1237:1 1246:1 1247:1 1264:1 1269:1 1278:1 1282:2
-1 161:1 545:1 637:1 710:2 1080:1 1253:2 1278:1 1282:2
-1 161:1 568:1 637:1 710:1 1080:1 1253:1 1278:1 1282:2
-1 161:1 545:1 568:1 637:1 710:1 1080:1 1253:1 1278:1 1282:2
-1 673:1 710:2 1023:1 1080:1 1253:2 1278:1 1282:5
-1 423:1 440:1 621:1 710:1 900:1 927:1 1080:1 1177:1 1246:1 1247:1 1248:1 1253:1 1260:1 1266:1 1274:1 1278:1 1282:1
-1 337:1 467:1 517:1 600:1 710:2 730:1 738:1 943:1 1080:1 1253:2 1278:1 1282:2 1284:347
-1 324:1 440:1 583:1 621:1 710:1 715:1 900:1 1080:1 1177:1 1222:1 1246:1 1247:1 1248:1 1253:1 1258:1 1272:1 1274:1 1278:1 1282:1
-1 423:1 440:1 583:1 621:1 710:1 715:1 900:1 927:1 1080:1 1177:1 1246:1 1247:1 1248:1 1253:1 1258:1 1260:1 1266:1 1272:1 1274:1 1278:1 1282:3
-1 336:1 440:1 900:2 1080:2 1177:2 1234:1 1246:2 1247:2 1274:1 1278:2 1282:7
-1 423:1 710:1 900:1 1080:1 1247:1 1253:1 1260:1 1278:1 1282:2
-1 154:1 324:1 621:1 710:1 715:1 900:1 1080:1 1222:1 1247:1 1248:1 1252:1 1253:1 1258:1 1278:1 1282:2
-1 252:1 440:1 710:1 715:1 720:1 1080:1 1228:1 1253:1 1258:1 1274:1 1278:1 1282:2
-1 640:1 1261:1 1282:1
-1 336:1 423:1 440:1 583:1 621:1 715:1 806:1 900:1 1044:1 1080:1 1177:1 1234:1 1235:1 1246:1 1247:1 1248:1 1251:1 1258:1 1260:1 1272:1 1274:1 1278:1 1282:2
-1 215:1 710:1 786:1 1080:1 1253:1 1278:1 1282:2
-1 158:1 423:1 477:1 651:1 710:1 900:1 1080:1 1145:1 1241:1 1247:1 1253:1 1256:1 1260:1 1278:1 1279:1 1282:2
-1 324:1 336:1 352:1 423:1 440:1 621:1 710:1 715:1 806:1 843:1 900:1 957:1 1080:1 1129:1 1177:1 1217:1 1222:1 1234:1 1235:1 1246:1 1247:1 1248:1 1253:1 1258:1 1260:1 1264:1 1274:1 1278:1 1282:2
-1 710:2 1080:1 1253:2 1278:1 1282:2
-1 398:1 446:1 477:1 531:1 579:1 620:1 700:1 964:1 1080:1 1113:1 1145:1 1181:1 1241:1 1278:1 1279:1 1282:2
-1 900:1 1080:1 1247:1 1278:1 1282:2
-1 192:1 311:1 324:1 330:1 336:1 364:1 402:1 418:1 538:1 621:1 623:1 683:1 710:1 715:1 845:1 891:1 900:1 927:1 953:1 1041:1 1080:1 1114:1 1222:1 1234:1 1237:1 1247:1 1248:1 1253:1 1258:1 1266:1 1278:1 1282:1
-1 336:1 423:1 440:1 455:1 621:1 806:1 900:1 1080:1 1215:1 1234:1 1235:1 1247:1 1248:1 1260:1 1274:1 1278:1 1282:2
-1 324:1 336:1 423:1 440:1 455:1 583:1 621:1 715:1 900:1 1080:1 1177:1 1215:1 1222:1 1234:1 1246:1 1247:1 1248:1 1258:1 1260:1 1272:1 1274:1 1278:1 1282:3
-1 192:1 223:1 224:1 234:1 288:1 290:1 311:1 330:1 364:1 386:1 418:1 505:1 593:1 623:1 683:1 710:1 813:1 831:1 843:1 845:1 1005:1 1024:1 1041:1 1053:1 1114:1 1253:1 1264:1 1282:2
-1 192:1 223:1 224:1 234:1 288:1 290:1 311:1 330:1 361:1 364:1 418:1 505:1 683:1 710:1 813:1 830:1 831:1 843:1 845:1 880:1 883:1 1005:1 1024:1 1041:1 1078:1 1100:1 1114:1 1253:1 1264:1 1282:2
-1 423:1 440:1 583:1 621:1 715:1 806:1 900:1 1080:1 1177:1 1235:1 1246:1 1247:1 1248:1 1258:1 1260:1 1272:1 1274:1 1278:1 1282:2
-1 154:1 1252:1 1282:3
-1 154:1 1252:1 1282:3
-1 154:1 1252:1 1282:3
-1 423:1 900:1 1080:1 1247:1 1260:1 1278:1 1282:3
-1 423:1 715:1 900:1 1080:1 1247:1 1258:1 1260:1 1278:1 1282:2
-1 423:1 440:1 621:1 715:1 806:1 900:1 1080:1 1177:1 1235:1 1246:1 1247:1 1248:1 1258:1 1260:1 1274:1 1278:1 1282:2
-1 423:1 440:1 621:1 715:1 806:1 900:1 1080:1 1177:1 1235:1 1246:1 1247:1 1248:1 1258:1 1260:1 1274:1 1278:1 1282:3
-1 621:1 715:1 900:1 1080:1 1177:1 1246:1 1247:1 1248:1 1258:1 1278:1 1282:3
-1 154:1 1252:1 1282:2
-1 1080:1 1177:1 1246:1 1278:1 1282:1
-1 423:1 440:1 806:1 900:1 1080:1 1177:1 1235:1 1246:1 1247:1 1260:1 1274:1 1278:1 1282:2
-1 423:1 440:1 806:1 900:1 1080:1 1177:1 1235:1 1246:1 1247:1 1260:1 1274:1 1278:1 1282:2
-1 336:1 402:1 423:1 440:1 621:1 715:1 806:1 900:1 1080:1 1177:1 1234:1 1235:1 1237:1 1246:1 1247:1 1248:1 1258:1 1260:1 1274:1 1278:1 1282:2
-1 423:1 440:1 621:1 715:1 806:1 900:1 1080:1 1177:1 1235:1 1246:1 1247:1 1248:1 1258:1 1260:1 1274:1 1278:1 1282:2
-1 225:1 336:1 423:1 621:1 1080:1 1177:1 1234:1 1246:1 1248:1 1260:1 1278:1 1282:3
-1 710:2 1080:1 1134:1 1253:2 1267:1 1278:1 1282:3
-1 154:1 1252:1 1282:3
-1 154:1 1252:1 1282:3
-1 336:1 440:1 900:2 1080:2 1177:2 1234:1 1246:2 1247:2 1274:1 1278:2 1282:7
-1 192:1 223:1 311:1 328:1 330:1 361:1 418:1 519:1 683:1 684:1 710:1 759:1 776:1 839:1 843:1 845:1 879:1 883:1 937:1 1005:1 1024:1 1041:1 1053:1 1114:1 1204:1 1227:1 1229:1 1253:1 1264:1 1282:2
-1 336:1 440:1 621:1 715:1 900:1 1080:1 1177:1 1234:1 1246:1 1247:1 1248:1 1258:1 1274:1 1278:1 1282:3
-1 336:2 423:1 440:1 715:1 806:1 900:2 1080:4 1134:1 1177:2 1234:2 1235:1 1246:2 1247:2 1258:1 1260:1 1267:1 1274:1 1278:4 1282:6
-1 336:1 423:1 440:1 621:1 715:1 806:1 900:1 1080:1 1177:1 1234:1 1235:1 1246:1 1247:1 1248:1 1258:1 1260:1 1274:1 1278:1 1282:2
-1 177:1 246:1 324:1 336:1 596:1 621:1 684:1 710:1 715:1 843:1 900:1 1044:1 1080:1 1177:1 1221:1 1222:1 1229:1 1234:1 1246:1 1247:1 1248:1 1251:1 1253:1 1258:1 1264:1 1278:1 1281:1 1282:1
-1 423:1 477:1 900:1 1080:1 1241:1 1247:1 1260:1 1278:1 1282:1
-1 336:2 423:1 440:1 583:1 621:1 715:2 806:1 900:2 1080:4 1177:2 1234:2 1235:1 1246:2 1247:2 1248:1 1258:2 1260:1 1272:1 1274:1 1278:4 1282:6
-1 336:2 423:1 440:1 583:1 806:1 900:2 1080:4 1177:2 1234:2 1235:1 1246:2 1247:2 1260:1 1272:1 1274:1 1278:4 1282:6
-1 423:1 440:1 621:1 715:1 806:1 900:1 1080:1 1177:1 1235:1 1246:1 1247:1 1248:1 1258:1 1260:1 1274:1 1278:1 1282:3
-1 1080:1 1278:1 1282:1
-1 423:1 900:1 1080:1 1247:1 1260:1 1278:1 1282:3
-1 423:1 440:1 621:1 715:1 806:1 900:1 1080:1 1177:1 1235:1 1246:1 1247:1 1248:1 1258:1 1260:1 1274:1 1278:1 1282:3
-1 336:1 402:1 423:1 440:1 621:1 715:1 806:1 900:1 1080:1 1164:1 1177:1 1234:1 1235:1 1237:1 1246:1 1247:1 1248:1 1258:1 1260:1 1274:1 1278:1 1282:1
-1 336:1 900:1 1080:1 1234:1 1247:1 1278:1 1282:4
-1 192:1 224:1 275:1 309:1 311:1 330:1 361:1 418:1 514:1 683:1 684:1 710:1 759:1 813:1 845:1 883:1 886:1 996:1 1024:1 1041:1 1078:1 1114:1 1229:1 1253:1 1282:4
-1 324:1 423:1 710:1 715:1 900:1 1080:1 1222:1 1247:1 1253:1 1258:1 1260:1 1278:1 1282:3
-1 710:1 1080:1 1253:1 1278:1 1282:2
-1 319:1 336:3 423:1 440:1 583:1 621:1 715:2 806:1 816:5 900:2 1080:5 1177:6 1219:1 1234:3 1235:1 1245:5 1246:6 1247:2 1248:1 1258:2 1260:1 1272:1 1274:1 1278:5 1282:6
-1 423:1 440:1 621:1 715:1 806:1 900:1 1080:1 1177:1 1235:1 1246:1 1247:1 1248:1 1258:1 1260:1 1274:1 1278:1 1282:5
-1 192:1 251:1 304:1 311:1 324:1 330:1 336:1 440:1 623:1 683:1 710:1 845:1 891:1 900:1 957:1 1041:1 1080:1 1177:1 1217:1 1222:1 1234:1 1246:1 1247:1 1253:1 1274:1 1278:1 1282:1
-1 336:1 423:1 440:1 583:1 621:1 806:1 900:2 1044:1 1080:4 1177:2 1234:1 1235:1 1246:2 1247:2 1248:1 1251:1 1260:1 1272:1 1274:1 1278:4 1282:6
-1 180:1 1080:1 1278:1 1282:2
-1 180:1 1080:1 1278:1 1282:2
-1 423:1 440:1 621:1 715:1 806:1 900:1 1080:1 1177:1 1235:1 1246:1 1247:1 1248:1 1258:1 1260:1 1274:1 1278:1 1282:4
-1 900:1 1080:1 1177:1 1246:1 1247:1 1278:1 1282:3
-1 336:1 423:1 440:1 621:1 715:1 806:1 900:1 1080:1 1177:1 1234:1 1235:1 1246:1 1247:1 1248:1 1258:1 1260:1 1274:1 1278:1 1282:2
-1 423:1 440:1 583:1 621:1 715:1 900:1 1080:1 1177:1 1246:1 1247:1 1248:1 1258:1 1260:1 1272:1 1274:1 1278:1 1282:4
-1 319:1 336:2 900:2 1080:4 1177:1 1219:1 1234:2 1246:1 1247:2 1278:4 1282:6
-1 336:1 440:1 900:2 1080:2 1177:2 1234:1 1246:2 1247:2 1274:1 1278:2 1282:7
-1 628:1 1183:1 1282:2
-1 628:1 1183:1 1282:2
-1 628:1 1183:1 1282:2
-1 423:1 440:1 583:1 621:1 684:1 715:1 900:1 1080:1 1117:1 1177:1 1229:1 1246:1 1247:1 1248:1 1258:1 1260:1 1272:1 1274:1 1278:1 1282:4
-1 158:1 417:1 423:1 651:1 710:1 900:1 1044:1 1080:1 1111:1 1177:1 1246:1 1247:1 1251:1 1253:1 1256:1 1260:1 1278:1 1282:2
-1 527:1 628:1 1183:1 1282:2
-1 440:1 900:1 1080:1 1177:1 1246:1 1247:1 1274:1 1278:1 1282:1
-1 684:1 710:1 900:1 1080:1 1177:1 1229:1 1246:1 1247:1 1253:1 1278:1 1282:4
-1 336:1 621:1 900:1 1080:1 1134:1 1234:1 1247:1 1248:1 1267:1 1278:1 1282:1
-1 640:1 1080:1 1261:1 1278:1 1282:4
-1 336:1 440:1 900:2 1080:2 1177:2 1234:1 1246:2 1247:2 1274:1 1278:2 1282:7
-1 710:2 715:1 900:1 1080:1 1177:1 1246:1 1247:1 1253:2 1258:1 1278:1 1282:4
-1 423:1 715:1 900:1 1080:1 1177:1 1246:1 1247:1 1258:1 1260:1 1278:1 1282:1 1284:26
-1 336:1 440:1 900:2 1080:2 1177:2 1234:1 1246:2 1247:2 1274:1 1278:2 1282:7
-1 324:1 336:1 579:1 621:1 1080:1 1177:1 1222:1 1234:1 1246:1 1248:1 1278:1 1282:1
-1 220:1 336:1 423:1 440:1 450:1 583:1 621:1 715:1 900:1 1080:1 1177:1 1234:1 1246:1 1247:1 1248:1 1258:1 1260:1 1270:1 1272:1 1274:1 1278:1 1280:1 1282:2
-1 324:1 336:3 621:1 715:1 900:2 1080:6 1177:1 1222:1 1234:3 1246:1 1247:2 1248:1 1258:1 1278:6 1282:5
-1 158:1 177:1 324:1 336:1 423:1 440:1 544:1 621:1 710:1 715:1 789:1 843:1 900:1 914:1 957:1 1080:1 1177:1 1217:1 1222:1 1232:1 1234:1 1246:1 1247:1 1248:1 1253:1 1256:1 1258:1 1259:1 1260:1 1264:1 1274:1 1278:1 1281:1 1282:1
-1 154:1 1252:1 1282:3
-1 710:1 1080:1 1253:1 1278:1 1282:3
-1 710:2 1080:1 1253:2 1278:1 1282:4
-1 324:1 336:1 351:1 423:1 440:1 450:1 455:1 621:1 697:1 715:1 900:1 914:1 927:1 957:1 1044:1 1080:1 1177:1 1215:1 1217:1 1222:1 1234:1 1240:1 1246:1 1247:1 1248:1 1251:1 1254:1 1258:1 1259:1 1260:1 1266:1 1274:1 1278:1 1280:1 1282:2
-1 1080:1 1278:1 1282:2
-1 324:1 336:1 423:1 440:1 583:1 621:1 684:1 697:1 715:1 900:1 914:1 1080:1 1177:1 1222:1 1229:1 1234:1 1240:1 1246:1 1247:1 1248:1 1258:1 1259:1 1260:1 1272:1 1274:1 1278:1 1282:1
-1 1080:1 1177:1 1246:1 1278:1 1282:3
-1 710:1 1080:1 1177:1 1246:1 1253:1 1278:1 1282:4
-1 423:1 621:1 887:1 900:1 1079:1 1080:1 1177:1 1246:1 1247:1 1248:1 1260:1 1278:1 1282:3
-1 154:1 1252:1 1282:2
-1 684:1 1080:1 1177:1 1229:1 1246:1 1278:1 1282:2
-1 231:1 684:1 1080:1 1177:1 1229:1 1246:1 1278:1 1282:3
-1 423:1 440:1 583:1 621:1 715:1 900:1 1044:1 1080:1 1247:1 1248:1 1251:1 1258:1 1260:1 1272:1 1274:1 1278:1 1282:4
-1 154:1 1252:1 1282:4
-1 154:1 1252:1 1282:2
-1 640:1 1261:1 1282:1
-1 640:1 1261:1 1282:1
-1 154:1 1252:1 1282:4
-1 402:1 1080:1 1237:1 1278:1 1282:2 1284:4
-1 640:1 1261:1 1282:1
-1 319:1 336:2 423:1 440:1 715:1 806:1 900:2 927:1 1080:4 1177:2 1219:1 1234:2 1235:1 1246:2 1247:2 1258:1 1260:1 1266:1 1274:1 1278:4 1282:6
-1 336:1 440:1 900:2 1080:4 1177:3 1234:1 1246:3 1247:2 1274:1 1278:4 1282:4
-1 336:1 440:1 900:2 1080:4 1177:3 1234:1 1246:3 1247:2 1274:1 1278:4 1282:4
-1 154:1 1252:1 1282:2
-1 259:1 439:1 629:1 710:1 715:1 757:1 1080:1 1179:1 1253:1 1258:1 1278:1 1282:7
-1 782:1 1080:1 1278:1 1282:3
-1 324:1 336:3 423:1 440:1 450:1 583:1 621:1 715:2 806:1 900:2 1044:1 1080:4 1134:1 1177:2 1222:1 1234:3 1235:1 1246:2 1247:2 1248:1 1251:1 1258:2 1260:1 1267:1 1272:1 1274:1 1278:4 1280:1 1282:6
-1 336:1 423:1 440:1 450:1 583:1 621:1 715:1 900:1 1080:1 1177:1 1234:1 1246:1 1247:1 1248:1 1258:1 1260:1 1272:1 1274:1 1278:1 1280:1 1282:2
-1 423:1 440:1 621:1 715:1 900:1 1080:1 1177:1 1246:1 1247:1 1248:1 1258:1 1260:1 1274:1 1278:1 1282:2
-1 1080:1 1278:1 1282:2
-1 324:1 336:1 423:1 440:1 583:1 715:1 900:1 1080:1 1177:1 1222:1 1234:1 1246:1 1247:1 1258:1 1260:1 1272:1 1274:1 1278:1 1282:1
-1 180:1 1080:1 1278:1 1282:3
-1 336:2 715:1 900:2 1080:4 1177:1 1234:2 1246:1 1247:2 1258:1 1278:4 1282:6
-1 192:1 311:1 330:1 361:1 408:1 418:1 683:1 710:1 721:1 759:1 766:1 843:1 845:1 883:1 1024:1 1041:1 1080:1 1114:1 1177:1 1246:1 1253:1 1257:1 1264:1 1278:1 1282:2
-1 423:1 900:1 1080:1 1247:1 1260:1 1278:1 1282:3 1284:2
-1 900:1 1065:1 1080:1 1181:1 1247:1 1278:1 1282:2 1284:35
-1 1080:1 1278:1 1282:3
-1 640:1 1261:1 1282:1
-1 423:1 440:1 621:1 715:1 806:1 900:1 1080:1 1177:1 1235:1 1246:1 1247:1 1248:1 1258:1 1260:1 1274:1 1278:1 1282:3
-1 192:1 311:1 330:1 408:1 418:1 564:1 683:1 710:1 721:1 759:1 766:1 826:1 843:1 845:1 883:1 1024:1 1041:1 1080:1 1114:1 1177:1 1246:1 1253:1 1257:1 1264:1 1278:1 1282:1
-1 336:3 423:1 440:1 583:1 621:1 715:2 806:1 900:2 1044:1 1080:4 1177:2 1234:3 1235:1 1246:2 1247:2 1248:1 1251:1 1258:2 1260:1 1272:1 1274:1 1278:4 1282:6
-1 429:1 579:1 1080:1 1278:1 1282:2
-1 304:1 474:1 710:1 843:1 1080:1 1177:1 1246:1 1253:1 1264:1 1278:1 1282:1
-1 226:1 423:1 440:1 715:1 807:1 900:1 1044:1 1079:1 1080:1 1149:1 1177:1 1246:1 1247:1 1251:1 1258:1 1260:1 1274:1 1278:1 1282:2
-1 710:1 715:1 900:1 1044:1 1080:1 1247:1 1251:1 1253:1 1258:1 1278:1 1282:2
-1 154:1 1252:1 1282:3
-1 423:1 900:1 1080:1 1247:1 1260:1 1278:1 1282:2
-1 710:1 843:1 903:1 1080:1 1193:1 1253:1 1264:1 1278:1 1282:2
-1 124:1 328:1 684:1 710:1 777:1 1080:1 1177:1 1227:1 1229:1 1246:1 1253:1 1278:1 1282:2
-1 154:1 1252:1 1282:4
-1 1080:1 1278:1 1282:4
-1 423:1 440:1 583:1 621:1 710:1 715:1 900:1 1044:1 1080:1 1134:1 1177:1 1246:1 1247:1 1248:1 1251:1 1253:1 1258:1 1260:1 1267:1 1272:1 1274:1 1278:1 1282:2
-1 192:1 251:1 304:1 311:1 330:1 336:1 359:1 364:1 489:1 553:1 683:1 710:1 813:1 845:1 883:1 1041:1 1114:1 1234:1 1253:1 1282:1
-1 154:1 1252:1 1282:3
-1 154:1 1252:1 1282:2
-1 324:1 336:1 543:1 621:1 715:1 806:1 900:1 1044:1 1080:1 1171:1 1177:1 1222:1 1234:1 1235:1 1239:1 1246:1 1247:1 1248:1 1251:1 1258:1 1278:1 1282:1 1284:2
-1 715:1 900:1 1080:1 1177:1 1246:1 1247:1 1258:1 1278:1 1282:3
-1 640:1 1261:1 1282:1
-1 640:1 1261:1 1282:1
-1 192:1 304:1 311:1 330:1 361:1 683:1 710:1 715:1 845:1 1041:1 1114:1 1253:1 1258:1 1282:2
-1 192:1 277:1 304:1 311:1 330:1 336:1 553:1 683:1 710:1 715:1 843:1 845:1 960:1 1041:1 1080:1 1177:1 1234:1 1246:1 1253:1 1258:1 1264:1 1278:1 1282:1
-1 640:1 1261:1 1282:1
-1 328:1 336:3 423:1 440:1 583:1 621:1 715:2 806:1 900:2 1044:1 1080:7 1134:1 1177:2 1227:1 1234:3 1235:1 1246:2 1247:2 1248:1 1251:1 1258:2 1260:1 1267:1 1272:1 1274:1 1278:7 1282:6 1284:1
-1 336:1 423:1 440:1 583:1 621:1 715:1 782:1 806:1 900:1 1080:1 1234:1 1235:1 1247:1 1248:1 1258:1 1260:1 1272:1 1274:1 1278:1 1282:4
-1 154:1 1252:1 1282:3
-1 710:1 900:1 1080:1 1247:1 1253:1 1278:1 1282:5
-1 336:3 423:1 440:1 583:1 621:2 697:1 715:2 806:1 900:2 1080:5 1177:2 1234:3 1235:1 1240:1 1246:2 1247:2 1248:2 1258:2 1260:1 1272:1 1274:1 1278:5 1282:6
-1 710:2 1080:1 1253:2 1278:1 1282:2
-1 220:1 336:1 423:1 440:1 450:1 583:1 621:1 715:1 900:1 1044:1 1080:1 1177:1 1234:1 1246:1 1247:1 1248:1 1251:1 1258:1 1260:1 1270:1 1272:1 1274:1 1278:1 1280:1 1282:2
-1 423:1 583:1 900:1 1080:1 1177:1 1246:1 1247:1 1260:1 1272:1 1278:1 1282:1
-1 192:1 224:1 304:1 311:1 330:1 336:1 361:1 364:1 418:1 623:1 683:1 685:1 710:1 729:1 758:1 813:1 843:1 845:1 883:1 937:1 1005:1 1024:1 1041:1 1078:1 1114:1 1234:1 1253:1 1264:1 1282:2
-1 154:1 1252:1 1282:3
-1 161:1 212:1 297:1 477:1 545:1 965:1 1080:1 1177:1 1241:1 1246:1 1278:1 1282:3
-1 351:1 423:1 715:1 746:1 900:1 1080:1 1177:1 1246:1 1247:1 1254:1 1258:1 1260:1 1278:1 1282:1
-1 423:1 440:1 621:1 715:1 806:1 900:1 1080:1 1177:1 1235:1 1246:1 1247:1 1248:1 1258:1 1260:1 1274:1 1278:1 1282:3
-1 149:1 192:1 304:1 311:1 330:1 361:1 489:1 553:1 623:1 679:1 683:1 710:1 813:1 845:1 937:1 1024:1 1041:1 1078:1 1114:1 1121:1 1253:1 1282:1
-1 192:1 224:1 251:1 304:1 311:1 316:1 330:1 361:1 400:1 418:1 514:1 608:1 623:1 683:1 710:1 813:1 845:1 880:1 883:1 937:1 1005:1 1024:1 1038:1 1041:1 1078:1 1114:1 1202:1 1204:1 1216:1 1253:1 1282:2
-1 192:1 304:1 311:1 330:1 359:1 553:1 683:1 710:1 715:1 845:1 900:1 937:1 1041:1 1080:1 1129:1 1177:1 1246:1 1247:1 1253:1 1258:1 1278:1 1282:2
-1 162:1 314:1 621:1 715:1 786:1 900:1 970:1 1080:1 1177:1 1246:1 1247:1 1248:1 1258:1 1262:1 1278:1 1282:2
-1 710:2 1080:1 1134:1 1253:2 1267:1 1278:1 1282:3
-1 324:1 336:1 440:1 621:1 900:1 1080:1 1177:1 1222:1 1234:1 1246:1 1247:1 1248:1 1274:1 1278:1 1282:1
-1 398:1 446:1 477:1 531:1 579:1 620:1 700:1 964:1 1080:1 1113:1 1145:1 1181:1 1241:1 1278:1 1279:1 1282:1
-1 324:1 621:1 715:1 900:1 1080:1 1177:1 1222:1 1246:1 1247:1 1248:1 1258:1 1278:1 1282:2
-1 423:1 477:1 485:1 710:2 900:1 1080:1 1145:1 1157:1 1241:1 1247:1 1253:2 1260:1 1278:1 1279:1 1282:2
-1 154:1 1252:1 1282:3
-1 423:1 583:1 806:1 900:1 1080:1 1177:1 1235:1 1246:1 1247:1 1260:1 1272:1 1278:1 1282:1
-1 324:1 328:1 336:1 351:1 402:1 423:1 440:1 621:1 684:1 697:1 715:1 900:1 914:1 1044:1 1080:1 1176:1 1177:1 1222:1 1227:1 1229:1 1234:1 1237:1 1240:1 1243:1 1246:1 1247:1 1248:1 1251:1 1254:1 1258:1 1259:1 1260:1 1274:1 1278:1 1282:1
-1 154:1 1252:1 1282:3
-1 205:1 252:1 621:1 710:1 715:1 843:1 900:1 1080:1 1177:1 1228:1 1246:1 1247:1 1248:1 1253:1 1258:1 1264:1 1278:1 1282:3
-1 192:1 304:1 311:1 330:1 621:1 679:1 683:1 710:1 715:1 831:1 843:1 845:1 880:1 900:1 934:1 939:1 1041:1 1080:1 1177:1 1246:1 1247:1 1248:1 1253:1 1258:1 1264:1 1278:1 1282:1
-1 192:1 311:1 330:1 660:1 683:1 710:1 845:1 963:1 1041:1 1253:1 1282:2
-1 192:1 251:1 288:1 304:1 311:1 330:1 359:1 364:1 418:1 489:1 683:1 710:1 813:1 831:1 845:1 864:1 880:1 883:1 1041:1 1114:1 1122:1 1170:1 1253:1 1282:1 1284:2
-1 129:1 192:1 203:1 261:1 288:1 303:1 304:1 311:1 330:1 336:1 359:1 364:1 386:1 418:1 423:1 489:1 495:1 530:1 553:1 593:1 614:1 623:1 683:1 710:1 723:1 813:1 831:1 843:1 845:1 880:1 883:1 900:1 927:1 937:1 1005:1 1041:1 1078:1 1080:1 1129:1 1177:1 1234:1 1246:1 1247:1 1253:1 1260:1 1264:1 1266:1 1278:1 1282:3
-1 172:1 192:1 261:1 304:1 311:1 330:1 359:1 423:1 489:1 495:1 553:1 623:1 683:1 710:1 813:1 843:1 845:1 900:1 1005:1 1041:1 1080:1 1114:1 1129:1 1247:1 1253:1 1260:1 1264:1 1276:1 1278:1 1282:2
-1 192:1 223:1 230:1 311:1 330:1 361:1 418:1 475:1 511:1 683:1 710:1 759:1 813:1 818:1 831:1 845:1 883:1 937:1 1005:1 1024:1 1041:1 1049:1 1114:1 1253:1 1273:1 1282:2
-1 710:2 1080:1 1134:1 1253:2 1267:1 1278:1 1282:3
-1 336:1 351:1 621:1 710:1 900:1 1080:1 1134:1 1177:1 1234:1 1246:1 1247:1 1248:1 1253:1 1254:1 1267:1 1278:1 1282:1
-1 640:1 1261:1 1282:1
-1 154:1 1252:1 1282:3
-1 154:1 1252:1 1282:3
-1 336:3 423:1 440:1 621:2 715:1 806:1 900:2 1080:5 1177:2 1234:3 1235:1 1246:2 1247:2 1248:2 1258:1 1260:1 1274:1 1278:5 1282:6
-1 192:1 223:1 304:1 311:1 324:1 330:1 336:1 361:1 408:1 418:1 593:1 623:1 683:1 710:1 729:1 748:1 759:1 813:1 843:1 845:1 883:1 937:1 1005:1 1024:1 1037:1 1038:1 1041:1 1053:1 1114:1 1130:1 1222:1 1234:1 1253:1 1264:1 1282:2
-1 486:1 710:1 900:1 1080:1 1247:1 1253:1 1278:1 1282:2
-1 192:1 304:1 311:1 330:1 683:1 710:1 845:1 937:1 1041:1 1253:1 1282:2
-1 423:1 440:1 621:1 715:1 806:1 900:1 1080:1 1177:1 1235:1 1246:1 1247:1 1248:1 1258:1 1260:1 1274:1 1278:1 1282:3
-1 423:1 440:1 583:1 621:1 715:1 900:1 1080:1 1247:1 1248:1 1258:1 1260:1 1272:1 1274:1 1278:1 1282:2
-1 710:1 1080:1 1093:1 1253:1 1278:1 1282:3
-1 192:1 251:1 304:1 311:1 330:1 336:1 621:1 683:1 710:1 813:1 843:1 845:1 900:1 1041:1 1234:1 1247:1 1248:1 1253:1 1264:1 1282:1
-1 181:1 290:1 304:1 311:1 324:1 330:1 336:1 364:1 418:1 423:1 440:1 621:1 683:1 710:1 715:1 843:1 845:1 900:1 937:1 1041:1 1080:1 1177:1 1222:1 1234:1 1246:1 1247:1 1248:1 1253:1 1258:1 1260:1 1264:1 1274:1 1278:1 1282:2
-1 192:1 311:1 330:1 489:1 683:1 710:1 843:1 845:1 1041:1 1063:1 1080:1 1177:1 1246:1 1253:1 1264:1 1278:1 1282:1
-1 423:1 440:1 621:1 715:1 806:1 900:1 1080:1 1177:1 1235:1 1246:1 1247:1 1248:1 1258:1 1260:1 1274:1 1278:1 1282:3
-1 224:1 288:1 309:1 311:1 387:1 402:1 420:1 438:1 525:1 683:1 728:1 802:1 813:1 843:1 845:1 1005:1 1032:1 1067:1 1130:1 1139:1 1237:1 1264:1 1282:3 1284:4
-1 900:1 1080:1 1247:1 1278:1 1282:1
-1 336:1 440:1 900:2 1080:4 1177:3 1234:1 1246:3 1247:2 1274:1 1278:4 1282:4
-1 640:1 1261:1 1282:1
