1 263:1 394:1 1144:1 1222:1 1233:1 1276:1 1284:1
1 263:1 409:1 469:1 482:1 1144:1 1228:1 1233:1 1245:1 1247:1 1276:1 1284:3 1286:2
1 137:1 263:1 321:1 345:1 421:1 469:1 481:1 482:1 512:1 559:1 639:1 1144:1 1167:1 1218:1 1226:1 1228:1 1233:1 1242:1 1243:1 1245:1 1249:1 1261:1 1267:1 1271:1 1276:1 1283:1 1284:2
1 746:1 1144:1 1225:1 1276:1 1284:2 1286:15
1 263:1 409:1 482:1 1144:1 1233:1 1245:1 1247:1 1276:1 1284:3 1286:6
1 263:1 469:1 481:1 482:1 1144:1 1228:1 1233:1 1243:1 1245:1 1276:1 1284:2 1286:1
1 1144:1 1276:1 1284:2
1 1284:2 1286:15
1 263:1 409:1 1144:1 1233:1 1247:1 1276:1 1284:2 1286:2
1 134:1 263:1 268:1 693:1 1144:1 1233:1 1238:1 1246:1 1251:1 1276:1 1284:1
1 268:1 1144:1 1246:1 1276:1 1284:6 1286:42
1 254:1 409:1 1223:1 1247:1 1284:2 1286:18
1 137:1 263:1 421:1 481:1 482:1 1144:1 1233:1 1242:1 1243:1 1245:1 1261:1 1276:1 1284:1
1 1284:2 1286:10
1 1144:1 1276:1 1284:3 1286:2
1 263:1 1144:1 1233:1 1276:1 1284:2
1 1284:2 1286:17
1 263:1 409:1 1144:1 1233:1 1247:1 1276:1 1284:2 1286:1
1 1284:2 1286:15
1 263:1 409:1 1144:1 1233:1 1247:1 1276:1 1284:2 1286:1
1 482:1 1086:1 1245:1 1281:1 1284:2 1286:3
1 137:1 263:1 268:1 394:1 481:1 1144:1 1222:1 1233:1 1242:1 1243:1 1246:1 1276:1 1284:5 1286:1
1 1144:1 1276:1 1284:2 1286:3
1 268:1 1144:1 1246:1 1276:1 1284:4 1286:234
1 409:1 1247:1 1284:2 1286:1
1 482:1 1086:1 1144:1 1245:1 1276:1 1281:1 1284:2 1286:13
1 1284:2 1286:14
1 137:1 263:1 321:1 409:1 421:1 469:1 481:1 482:1 1144:1 1218:1 1228:1 1233:1 1242:1 1243:1 1245:1 1247:1 1261:1 1276:1 1284:2
1 263:1 421:1 482:1 1144:1 1233:1 1245:1 1261:1 1276:1 1284:2
1 137:1 263:1 268:1 394:1 481:1 1144:1 1222:1 1233:1 1242:1 1243:1 1246:1 1276:1 1284:5 1286:1
1 263:1 409:1 1144:1 1233:1 1247:1 1276:1 1284:2 1286:1
1 137:1 263:1 321:1 345:1 421:1 469:1 481:1 482:1 512:1 559:1 639:1 1144:1 1167:1 1218:1 1226:1 1228:1 1233:1 1242:1 1243:1 1245:1 1249:1 1261:1 1267:1 1271:1 1276:1 1283:1 1284:2
1 1284:2 1286:15
1 1144:1 1276:1 1284:2
1 482:1 904:1 1086:1 1245:1 1254:1 1281:1 1284:2 1286:34
1 137:1 263:1 321:1 469:1 482:1 1144:1 1218:1 1228:1 1233:1 1242:1 1245:1 1276:1 1284:3 1286:76
1 263:1 409:1 469:1 482:1 1144:1 1228:1 1233:1 1245:1 1247:1 1276:1 1284:3 1286:2
1 137:1 263:1 321:1 409:1 421:1 469:1 481:1 482:1 1144:1 1218:1 1228:1 1233:1 1242:1 1243:1 1245:1 1247:1 1261:1 1276:1 1284:2
1 1284:3 1286:3
1 137:1 263:1 321:1 469:1 859:1 1144:1 1218:1 1228:1 1233:1 1242:1 1275:1 1276:1 1284:6 1286:81
1 1144:1 1276:1 1284:2 1286:1
1 482:1 746:1 1144:1 1225:1 1245:1 1276:1 1284:2 1286:16
1 137:1 263:1 321:1 409:1 469:1 481:1 482:1 513:1 1144:1 1214:1 1218:1 1228:1 1233:1 1242:1 1243:1 1245:1 1247:1 1276:1 1284:2
1 1144:1 1276:1 1284:2
1 268:1 1144:1 1246:1 1276:1 1284:6 1286:423
1 137:1 263:1 321:1 409:1 421:1 469:1 481:1 482:1 1144:1 1218:1 1228:1 1233:1 1242:1 1243:1 1245:1 1247:1 1261:1 1276:1 1284:2
1 1284:3 1286:3
1 263:1 321:1 482:1 513:1 761:1 1144:1 1214:1 1218:1 1233:1 1236:1 1245:1 1276:1 1284:1
1 1144:1 1276:1 1284:3 1286:584
1 1144:1 1276:1 1284:2 1286:1
1 482:1 904:1 1144:1 1245:1 1254:1 1276:1 1284:2 1286:12
1 409:1 469:1 1144:1 1228:1 1247:1 1276:1 1284:2 1286:15
1 263:1 746:1 1144:1 1225:1 1233:1 1276:1 1284:2 1286:16
1 263:1 482:1 1233:1 1245:1 1284:2 1286:7
1 137:1 263:1 321:1 345:1 421:1 469:1 481:1 482:1 512:1 559:1 639:1 1144:1 1167:1 1218:1 1226:1 1228:1 1233:1 1242:1 1243:1 1245:1 1249:1 1261:1 1267:1 1271:1 1276:1 1283:1 1284:2
1 1144:1 1276:1 1284:2 1286:1
1 1144:1 1276:1 1284:3 1286:584
1 133:1 469:1 1144:1 1228:1 1234:1 1276:1 1284:3 1286:39
1 1284:4 1286:7
1 1284:2 1286:29
1 137:1 263:1 321:1 345:1 421:1 469:1 481:1 482:1 512:1 559:1 639:1 1144:1 1167:1 1218:1 1226:1 1228:1 1233:1 1242:1 1243:1 1245:1 1249:1 1261:1 1267:1 1271:1 1276:1 1283:1 1284:2
1 137:1 263:1 321:1 345:1 421:1 469:1 481:1 482:1 512:1 559:1 639:1 1144:1 1167:1 1218:1 1226:1 1228:1 1233:1 1242:1 1243:1 1245:1 1249:1 1261:1 1267:1 1271:1 1276:1 1283:1 1284:2
1 1144:1 1276:1 1284:2
1 263:1 409:1 1144:1 1233:1 1247:1 1276:1 1284:2 1286:4
1 1284:2 1286:16
1 137:1 263:1 421:1 469:1 481:1 482:1 1144:1 1228:1 1233:1 1242:1 1243:1 1245:1 1261:1 1276:1 1284:4
1 263:1 469:1 481:1 482:1 1144:1 1228:1 1233:1 1243:1 1245:1 1276:1 1284:3 1286:3
1 134:1 263:1 268:1 482:1 693:1 1144:1 1233:1 1238:1 1245:1 1246:1 1251:1 1276:1 1284:3
1 137:1 263:1 321:1 469:1 859:1 1144:1 1218:1 1228:1 1233:1 1242:1 1275:1 1276:1 1284:4 1286:60
1 137:1 263:1 321:1 345:1 409:1 421:1 469:1 481:1 482:1 513:1 1144:1 1214:1 1218:1 1228:1 1233:1 1242:1 1243:1 1245:1 1247:1 1249:1 1261:1 1276:1 1284:3
1 137:1 263:1 268:1 321:1 469:1 1144:1 1217:1 1218:1 1228:1 1233:1 1242:1 1246:1 1276:1 1284:4 1286:415
1 409:1 746:1 1225:1 1247:1 1284:2 1286:16
1 263:1 409:1 1144:1 1233:1 1247:1 1276:1 1284:2 1286:1
1 137:1 254:1 263:1 321:1 409:1 469:1 481:1 482:1 585:1 761:1 1053:1 1086:1 1144:1 1216:1 1218:1 1223:1 1228:1 1233:1 1236:1 1242:1 1243:1 1245:1 1247:1 1250:1 1276:1 1281:1 1284:2
1 1144:1 1276:1 1284:3 1286:7
1 1144:1 1276:1 1284:3 1286:5
1 1144:1 1276:1 1284:1 1286:3
1 137:1 1144:1 1242:1 1276:1 1284:2
1 746:1 904:1 1144:1 1225:1 1254:1 1276:1 1284:2 1286:16
1 263:1 409:1 1144:1 1233:1 1247:1 1276:1 1284:2 1286:4
1 263:1 1144:1 1233:1 1276:1 1284:2
1 137:1 263:1 321:1 469:1 482:1 1144:1 1218:1 1228:1 1233:1 1242:1 1245:1 1276:1 1284:4 1286:69
1 1284:2 1286:24
1 263:1 268:1 421:1 449:1 481:1 693:1 1144:1 1233:1 1243:1 1246:1 1251:1 1261:1 1276:1 1280:1 1284:1
1 482:1 1144:1 1245:1 1276:1 1284:2 1286:2
1 1144:1 1276:1 1284:3 1286:584
1 1284:2 1286:8
1 263:1 1233:1 1284:2 1286:1
1 137:1 263:1 321:1 409:1 421:1 469:1 481:1 482:1 1144:1 1218:1 1228:1 1233:1 1242:1 1243:1 1245:1 1247:1 1261:1 1276:1 1284:2
1 137:1 263:1 268:1 394:1 481:1 1144:1 1222:1 1233:1 1242:1 1243:1 1246:1 1276:1 1284:5 1286:1
1 1144:1 1276:1 1284:2 1286:5
1 263:1 409:1 1144:1 1233:1 1247:1 1276:1 1284:2 1286:1
1 137:1 263:1 268:1 394:1 481:1 1144:1 1222:1 1233:1 1242:1 1243:1 1246:1 1276:1 1284:7 1286:1
1 1144:1 1276:1 1284:6 1286:1664
1 1144:1 1276:1 1284:6 1286:185
1 263:1 409:1 1144:1 1233:1 1247:1 1276:1 1284:2 1286:1
1 409:1 1144:1 1247:1 1276:1 1284:2 1286:4
1 263:1 409:1 469:1 482:1 1144:1 1228:1 1233:1 1245:1 1247:1 1276:1 1284:3 1286:2
1 1144:1 1276:1 1284:2 1286:24
1 1144:1 1276:1 1284:3 1286:584
1 133:1 469:1 1228:1 1234:1 1284:2 1286:14
1 137:1 263:1 321:1 409:1 482:1 1144:1 1218:1 1233:1 1242:1 1245:1 1247:1 1276:1 1284:2
1 746:1 1086:1 1144:1 1225:1 1276:1 1281:1 1284:2 1286:16
1 137:1 263:1 321:1 409:1 421:1 469:1 481:1 482:1 1144:1 1218:1 1228:1 1233:1 1242:1 1243:1 1245:1 1247:1 1261:1 1276:1 1284:2
1 137:1 263:1 482:1 1144:1 1233:1 1242:1 1245:1 1276:1 1284:2
1 263:1 409:1 1144:1 1233:1 1247:1 1276:1 1284:2 1286:2
1 263:1 409:1 1144:1 1233:1 1247:1 1276:1 1284:2 1286:4
1 137:1 263:1 321:1 345:1 421:1 469:1 481:1 482:1 512:1 559:1 639:1 1144:1 1167:1 1218:1 1226:1 1228:1 1233:1 1242:1 1243:1 1245:1 1249:1 1261:1 1267:1 1271:1 1276:1 1283:1 1284:2
1 482:1 746:1 1144:1 1225:1 1245:1 1276:1 1284:2 1286:16
1 1284:2 1286:13
1 137:1 263:1 321:1 345:1 421:1 469:1 481:1 482:1 512:1 559:1 639:1 1144:1 1167:1 1218:1 1226:1 1228:1 1233:1 1242:1 1243:1 1245:1 1249:1 1261:1 1267:1 1271:1 1276:1 1283:1 1284:2
1 409:1 482:1 1144:1 1245:1 1247:1 1276:1 1284:2 1286:1
1 1284:2 1286:2
1 137:1 263:1 321:1 409:1 421:1 469:1 481:1 482:1 1144:1 1218:1 1228:1 1233:1 1242:1 1243:1 1245:1 1247:1 1261:1 1276:1 1284:2
1 263:1 409:1 1144:1 1233:1 1247:1 1276:1 1284:2 1286:1
1 1144:1 1276:1 1284:2 1286:24
1 133:1 482:1 1144:1 1234:1 1245:1 1276:1 1284:2 1286:12
1 263:1 409:1 1144:1 1233:1 1247:1 1276:1 1284:2 1286:4
1 137:1 263:1 321:1 345:1 421:1 469:1 481:1 482:1 512:1 559:1 639:1 1144:1 1167:1 1218:1 1226:1 1228:1 1233:1 1242:1 1243:1 1245:1 1249:1 1261:1 1267:1 1271:1 1276:1 1283:1 1284:2
1 1284:2 1286:15
1 254:1 409:1 1223:1 1247:1 1284:2 1286:18
1 263:1 409:1 1144:1 1233:1 1247:1 1276:1 1284:2 1286:4
1 263:1 409:1 1144:1 1233:1 1247:1 1276:1 1284:2 1286:1
1 263:1 409:1 482:1 1233:1 1245:1 1247:1 1284:3 1286:33
1 1284:2 1286:8
1 409:1 469:1 1086:1 1144:1 1228:1 1247:1 1276:1 1281:1 1284:5 1286:32
1 1144:1 1276:1 1284:3 1286:584
1 1284:1 1286:16
1 263:1 268:1 321:1 469:1 1144:1 1218:1 1228:1 1233:1 1246:1 1276:1 1284:6 1286:4
1 1144:1 1276:1 1284:2
1 1144:1 1276:1 1284:2 1286:6
1 1144:1 1276:1 1284:2 1286:5
1 263:1 469:1 481:1 482:1 1144:1 1228:1 1233:1 1243:1 1245:1 1276:1 1284:3 1286:3
1 167:1 200:1 250:1 263:1 474:1 482:1 913:1 1144:1 1219:1 1233:1 1235:1 1245:1 1252:1 1260:1 1276:1 1277:1 1284:3 1286:152
1 409:1 1144:1 1247:1 1276:1 1284:2 1286:4
1 263:1 409:1 904:1 1233:1 1247:1 1254:1 1284:3 1286:39
1 409:1 1144:1 1247:1 1276:1 1284:2 1286:4
1 137:1 263:1 321:1 345:1 421:1 469:1 481:1 482:1 512:1 559:1 639:1 1144:1 1167:1 1218:1 1226:1 1228:1 1233:1 1242:1 1243:1 1245:1 1249:1 1261:1 1267:1 1271:1 1276:1 1283:1 1284:2
1 1144:1 1276:1 1284:2 1286:3
1 263:1 409:1 1144:1 1233:1 1247:1 1276:1 1284:2 1286:11
1 137:1 263:1 321:1 345:1 421:1 469:1 481:1 482:1 512:1 559:1 639:1 1144:1 1167:1 1218:1 1226:1 1228:1 1233:1 1242:1 1243:1 1245:1 1249:1 1261:1 1267:1 1271:1 1276:1 1283:1 1284:2
1 1284:2 1286:3
1 904:1 1144:1 1254:1 1276:1 1284:2 1286:13
1 263:1 409:1 1144:1 1233:1 1247:1 1276:1 1284:2 1286:1
1 137:1 263:3 268:1 321:1 469:1 481:1 482:1 699:1 761:1 1144:3 1218:1 1228:1 1233:3 1236:1 1242:1 1243:1 1245:1 1246:1 1262:1 1276:3 1284:12
1 137:1 263:1 482:1 512:1 761:1 1144:1 1233:1 1236:1 1242:1 1245:1 1276:1 1283:1 1284:6
1 1284:2 1286:15
1 263:1 482:1 512:1 548:1 1144:1 1233:1 1245:1 1256:1 1276:1 1283:1 1284:4
1 137:1 263:1 321:1 409:1 421:1 469:1 481:1 482:1 1144:1 1218:1 1228:1 1233:1 1242:1 1243:1 1245:1 1247:1 1261:1 1276:1 1284:2
1 1284:2 1286:24
1 263:1 482:1 512:1 859:1 1144:1 1233:1 1245:1 1275:1 1276:1 1283:1 1284:5 1286:7
1 1144:1 1276:1 1284:2 1286:24
1 263:1 699:1 1144:1 1233:1 1262:1 1276:1 1284:2
1 1284:2 1286:13
1 409:1 482:1 1144:1 1245:1 1247:1 1276:1 1284:2 1286:1
1 1284:2 1286:16
1 137:1 254:1 263:1 321:1 409:1 469:1 481:1 482:1 585:1 761:1 1053:1 1086:1 1144:1 1216:1 1218:1 1223:1 1228:1 1233:1 1236:1 1242:1 1243:1 1245:1 1247:1 1250:1 1276:1 1281:1 1284:2
1 137:1 263:1 321:1 409:1 421:1 469:1 481:1 482:1 1144:1 1218:1 1228:1 1233:1 1242:1 1243:1 1245:1 1247:1 1261:1 1276:1 1284:2
1 482:1 904:1 1086:1 1245:1 1254:1 1281:1 1284:2 1286:31
1 1144:1 1276:1 1284:1
1 1284:2 1286:3
1 1284:2 1286:16
1 137:1 263:1 421:1 469:1 481:1 482:1 512:1 1144:1 1228:1 1233:1 1242:1 1243:1 1245:1 1261:1 1276:1 1283:1 1284:2
1 137:1 263:1 321:1 469:1 481:1 859:1 896:1 1144:1 1218:1 1228:1 1233:1 1242:1 1243:1 1244:1 1275:1 1276:1 1284:4 1286:89
1 1144:1 1276:1 1284:1
1 260:1 469:1 1144:1 1228:1 1229:1 1264:1 1276:1 1284:2
1 268:1 1144:1 1246:1 1276:1 1284:6 1286:42
1 263:1 409:1 1144:1 1233:1 1247:1 1276:1 1284:2 1286:1
1 133:1 469:1 746:1 1225:1 1228:1 1234:1 1284:2 1286:32
1 263:1 409:1 469:1 482:1 1144:1 1228:1 1233:1 1245:1 1247:1 1276:1 1284:2 1286:5
1 137:1 263:1 321:1 345:1 421:1 469:1 481:1 482:1 512:1 559:1 639:1 1144:1 1167:1 1218:1 1226:1 1228:1 1233:1 1242:1 1243:1 1245:1 1249:1 1261:1 1267:1 1271:1 1276:1 1283:1 1284:2
1 263:1 421:1 482:1 1144:1 1233:1 1245:1 1261:1 1276:1 1284:2
1 1284:2 1286:3
1 137:1 263:1 321:1 345:1 421:1 469:1 481:1 482:1 512:1 559:1 639:1 1144:1 1167:1 1218:1 1226:1 1228:1 1233:1 1242:1 1243:1 1245:1 1249:1 1261:1 1267:1 1271:1 1276:1 1283:1 1284:2
1 1144:1 1276:1 1284:3 1286:584
1 133:1 904:1 1234:1 1254:1 1284:2 1286:19
1 133:1 482:1 746:1 1086:1 1225:1 1234:1 1245:1 1281:1 1284:2 1286:34
1 1284:2 1286:13
1 1284:2 1286:18
1 1284:2 1286:9
1 1284:2 1286:1
1 1284:3 1286:7
1 263:1 409:1 1144:1 1233:1 1247:1 1276:1 1284:2 1286:5
1 263:1 409:1 1144:1 1233:1 1247:1 1276:1 1284:2 1286:1
1 409:1 1144:1 1247:1 1276:1 1284:2 1286:4
1 1144:1 1276:1 1284:3 1286:584
1 1284:2 1286:14
1 137:1 263:1 321:1 409:1 421:1 469:1 481:1 482:1 1144:1 1218:1 1228:1 1233:1 1242:1 1243:1 1245:1 1247:1 1261:1 1276:1 1284:2
1 263:1 409:1 1144:1 1233:1 1247:1 1276:1 1284:2 1286:4
1 1284:2 1286:29
1 904:1 1144:1 1254:1 1276:1 1284:2 1286:15
1 263:1 409:1 1144:1 1233:1 1247:1 1276:1 1284:2 1286:2
1 1284:2 1286:8
1 1284:2 1286:2
1 1144:1 1276:1 1284:2 1286:68
1 1144:1 1276:1 1284:3 1286:584
1 469:1 482:1 1228:1 1245:1 1284:2 1286:3
1 263:1 409:1 1144:1 1233:1 1247:1 1276:1 1284:2 1286:2
1 133:1 482:1 1234:1 1245:1 1284:3 1286:12
1 1284:3 1286:7
1 321:1 469:1 1144:1 1218:1 1228:1 1276:1 1284:3 1286:256
1 263:1 409:1 482:1 1144:1 1233:1 1245:1 1247:1 1276:1 1284:2 1286:4
1 1284:2 1286:16
1 1144:1 1276:1 1284:2 1286:7
1 137:1 263:1 321:1 409:1 421:1 469:1 481:1 482:1 1144:1 1218:1 1228:1 1233:1 1242:1 1243:1 1245:1 1247:1 1261:1 1276:1 1284:2
1 1284:2 1286:28
1 1284:2 1286:5
1 1284:3
1 482:1 746:1 1144:1 1225:1 1245:1 1276:1 1284:2 1286:1
1 137:1 254:1 263:1 321:1 409:1 469:1 481:1 482:1 585:1 761:1 1053:1 1086:1 1144:1 1216:1 1218:1 1223:1 1228:1 1233:1 1236:1 1242:1 1243:1 1245:1 1247:1 1250:1 1276:1 1281:1 1284:2
1 137:1 263:1 268:1 1144:1 1233:1 1242:1 1246:1 1276:1 1284:4 1286:18
1 263:1 1144:1 1233:1 1276:1 1284:2
1 1284:2 1286:1
1 1144:1 1276:1 1284:2 1286:68
1 263:1 409:1 1144:1 1233:1 1247:1 1276:1 1284:2 1286:1
1 904:1 1144:1 1254:1 1276:1 1284:2 1286:15
1 1144:1 1276:1 1284:2 1286:1
1 1144:1 1276:1 1284:3 1286:3
1 263:1 409:1 1144:1 1233:1 1247:1 1276:1 1284:2 1286:1
1 482:1 1086:1 1245:1 1281:1 1284:2 1286:7
1 263:1 409:1 1144:1 1233:1 1247:1 1276:1 1284:2 1286:1
1 263:1 409:1 482:1 1144:1 1233:1 1245:1 1247:1 1276:1 1284:3 1286:6
1 263:1 1233:1 1284:2 1286:1
1 263:1 409:1 1144:1 1233:1 1247:1 1276:1 1284:2 1286:2
1 1144:1 1276:1 1284:3 1286:584
1 137:1 263:1 321:1 345:1 421:1 469:1 481:1 482:1 512:1 559:1 639:1 1144:1 1167:1 1218:1 1226:1 1228:1 1233:1 1242:1 1243:1 1245:1 1249:1 1261:1 1267:1 1271:1 1276:1 1283:1 1284:2
1 263:1 1144:1 1233:1 1276:1 1284:2
1 1284:2 1286:2
1 1284:2 1286:13
1 137:1 263:1 321:1 409:1 421:1 469:1 481:1 482:1 1144:1 1218:1 1228:1 1233:1 1242:1 1243:1 1245:1 1247:1 1261:1 1276:1 1284:2
1 137:1 263:1 268:1 321:1 469:1 1144:1 1217:1 1218:1 1228:1 1233:1 1242:1 1246:1 1276:1 1284:4 1286:415
1 137:2 254:1 263:1 469:1 481:1 482:1 699:1 1144:1 1223:1 1228:1 1233:1 1242:2 1243:1 1245:1 1262:1 1276:1 1284:2 1286:129
1 137:1 263:1 321:1 469:1 859:1 1144:1 1218:1 1228:1 1233:1 1242:1 1275:1 1276:1 1284:6 1286:81
1 263:1 409:1 1144:1 1233:1 1247:1 1276:1 1284:2 1286:2
1 409:1 482:1 746:1 1225:1 1245:1 1247:1 1284:2 1286:40
1 1284:2 1286:2
1 263:1 1233:1 1284:2 1286:1
1 263:1 409:1 1144:1 1233:1 1247:1 1276:1 1284:2 1286:1
1 409:1 1144:1 1247:1 1276:1 1284:2 1286:4
1 1284:2 1286:11
1 263:1 1144:1 1233:1 1276:1 1284:2 1286:2
1 1284:2 1286:7
1 1284:4 1286:449
1 1284:2 1286:10
1 137:1 263:1 321:1 469:1 859:1 1144:1 1218:1 1228:1 1233:1 1242:1 1275:1 1276:1 1284:6 1286:81
1 263:1 409:1 1144:1 1233:1 1247:1 1276:1 1284:3 1286:4
1 137:1 254:1 263:1 321:1 409:1 469:1 481:1 482:1 585:1 761:1 1053:1 1086:1 1144:1 1216:1 1218:1 1223:1 1228:1 1233:1 1236:1 1242:1 1243:1 1245:1 1247:1 1250:1 1276:1 1281:1 1284:2
1 133:1 482:1 746:1 1086:1 1225:1 1234:1 1245:1 1281:1 1284:2 1286:34
1 409:1 746:1 1225:1 1247:1 1284:2 1286:16
1 1144:1 1276:1 1284:2 1286:1
1 137:1 263:1 321:1 345:1 421:1 469:1 481:1 482:1 512:1 559:1 639:1 1144:1 1167:1 1218:1 1226:1 1228:1 1233:1 1242:1 1243:1 1245:1 1249:1 1261:1 1267:1 1271:1 1276:1 1283:1 1284:2
1 1284:2 1286:3
1 1144:1 1276:1 1284:2 1286:5
1 1144:1 1276:1 1284:2 1286:2
1 1144:1 1276:1 1284:2 1286:68
1 409:1 1247:1 1284:2 1286:1
1 1284:2 1286:3
1 137:1 263:1 321:1 469:1 548:1 1144:1 1218:1 1228:1 1233:1 1242:1 1256:1 1276:1 1284:3
1 1144:1 1276:1 1284:2 1286:3
1 137:1 263:1 321:1 345:1 421:1 469:1 481:1 482:1 512:1 559:1 639:1 1144:1 1167:1 1218:1 1226:1 1228:1 1233:1 1242:1 1243:1 1245:1 1249:1 1261:1 1267:1 1271:1 1276:1 1283:1 1284:2
1 137:1 263:1 321:1 345:1 421:1 469:1 481:1 482:1 512:1 559:1 639:1 1144:1 1167:1 1218:1 1226:1 1228:1 1233:1 1242:1 1243:1 1245:1 1249:1 1261:1 1267:1 1271:1 1276:1 1283:1 1284:2
1 1284:2 1286:16
1 1144:1 1276:1 1284:2
1 268:1 469:1 1144:1 1228:1 1246:1 1276:1 1284:7
1 409:1 746:1 1225:1 1247:1 1284:2 1286:16
1 137:1 263:1 321:1 409:1 421:1 469:1 481:1 482:1 1144:1 1218:1 1228:1 1233:1 1242:1 1243:1 1245:1 1247:1 1261:1 1276:1 1284:2
1 263:1 409:1 1144:1 1233:1 1247:1 1276:1 1284:2 1286:4
1 746:1 904:1 1144:1 1225:1 1254:1 1276:1 1284:2 1286:16
1 1144:1 1276:1 1284:3 1286:584
1 1144:1 1276:1 1284:2 1286:1
1 263:1 1233:1 1284:2 1286:1
1 137:1 263:1 321:1 345:1 421:1 469:1 481:1 482:1 512:1 559:1 639:1 1144:1 1167:1 1218:1 1226:1 1228:1 1233:1 1242:1 1243:1 1245:1 1249:1 1261:1 1267:1 1271:1 1276:1 1283:1 1284:2
1 1144:1 1276:1 1284:3 1286:584
1 263:1 409:1 1144:1 1233:1 1247:1 1276:1 1284:2 1286:1
1 137:1 263:1 321:1 345:1 421:1 469:1 481:1 482:1 512:1 559:1 639:1 1144:1 1167:1 1218:1 1226:1 1228:1 1233:1 1242:1 1243:1 1245:1 1249:1 1261:1 1267:1 1271:1 1276:1 1283:1 1284:2
1 263:1 1144:1 1233:1 1276:1 1284:1
1 1144:1 1276:1 1284:2 1286:3
1 263:1 482:1 1144:1 1233:1 1245:1 1276:1 1284:3 1286:456
1 268:1 1144:1 1246:1 1276:1 1284:4 1286:59
1 1284:2 1286:7
1 1284:2 1286:20
1 137:1 263:1 421:1 469:1 481:1 482:1 512:1 1144:1 1228:1 1233:1 1242:1 1243:1 1245:1 1261:1 1276:1 1283:1 1284:2
1 137:1 263:1 321:1 345:1 421:1 469:1 481:1 482:1 512:1 559:1 639:1 1144:1 1167:1 1218:1 1226:1 1228:1 1233:1 1242:1 1243:1 1245:1 1249:1 1261:1 1267:1 1271:1 1276:1 1283:1 1284:2
1 268:1 469:1 1144:1 1228:1 1246:1 1276:1 1284:7
1 1284:2 1286:19
1 137:1 263:1 321:1 345:1 421:1 469:1 481:1 482:1 512:1 559:1 639:1 1144:1 1167:1 1218:1 1226:1 1228:1 1233:1 1242:1 1243:1 1245:1 1249:1 1261:1 1267:1 1271:1 1276:1 1283:1 1284:2
1 263:1 1144:1 1233:1 1276:1 1284:2 1286:1
1 137:1 263:1 421:1 482:1 761:1 1144:1 1233:1 1236:1 1242:1 1245:1 1261:1 1276:1 1284:3
1 1284:2 1286:7
1 1144:1 1276:1 1284:2 1286:8
1 1284:1 1286:19
1 137:1 263:1 321:1 469:1 481:1 1144:1 1218:1 1228:1 1233:1 1242:1 1243:1 1276:1 1284:2 1286:100
1 1284:2 1286:9
1 254:1 1086:1 1223:1 1281:1 1284:2 1286:10
1 1144:1 1276:1 1284:4 1286:1329
1 258:1 409:1 421:1 469:1 1144:1 1227:1 1228:1 1247:1 1261:1 1276:1 1284:3
1 268:1 1144:1 1246:1 1276:1 1284:5 1286:253
1 1144:1 1276:1 1284:2 1286:3
1 1144:1 1276:1 1284:3 1286:584
1 1144:1 1276:1 1284:4 1286:73
1 137:1 263:1 321:1 345:1 421:1 469:1 481:1 482:1 512:1 559:1 639:1 1144:1 1167:1 1218:1 1226:1 1228:1 1233:1 1242:1 1243:1 1245:1 1249:1 1261:1 1267:1 1271:1 1276:1 1283:1 1284:2
1 263:1 482:1 512:1 859:1 1144:1 1233:1 1245:1 1275:1 1276:1 1283:1 1284:2 1286:24
1 1284:2 1286:19
1 1144:1 1276:1 1284:3 1286:2
1 263:1 482:1 512:1 859:1 1144:1 1233:1 1245:1 1275:1 1276:1 1283:1 1284:4 1286:30
1 133:1 469:1 746:1 1225:1 1228:1 1234:1 1284:2 1286:32
1 137:1 263:1 321:1 345:1 421:1 469:1 481:1 482:1 512:1 559:1 639:1 1144:1 1167:1 1218:1 1226:1 1228:1 1233:1 1242:1 1243:1 1245:1 1249:1 1261:1 1267:1 1271:1 1276:1 1283:1 1284:2
1 263:1 469:1 481:1 482:1 1144:1 1228:1 1233:1 1243:1 1245:1 1276:1 1284:3
1 1144:1 1276:1 1284:3 1286:584
1 1144:1 1276:1 1284:2 1286:126
1 263:1 321:1 482:1 513:1 1144:1 1214:1 1218:1 1233:1 1245:1 1276:1 1284:2
1 1144:1 1276:1 1284:3 1286:584
1 137:1 263:1 394:1 481:1 1144:1 1222:1 1233:1 1242:1 1243:1 1276:1 1284:3
1 1144:1 1276:1 1284:3
1 263:1 1086:1 1233:1 1281:1 1284:3 1286:11
1 263:1 482:1 512:1 859:1 1144:1 1233:1 1245:1 1275:1 1276:1 1283:1 1284:5 1286:33
1 263:1 409:1 1144:1 1233:1 1247:1 1276:1 1284:2 1286:1
1 1144:1 1276:1 1284:2 1286:3
1 1144:1 1276:1 1284:2 1286:2
1 1284:2 1286:15
1 263:1 409:1 1144:1 1233:1 1247:1 1276:1 1284:2 1286:4
1 1284:1 1286:2483
1 1284:2 1286:16
1 263:1 482:1 1144:1 1233:1 1245:1 1276:1 1284:1
1 263:1 1233:1 1284:2 1286:1
1 1284:2 1286:10
1 137:1 263:1 321:1 345:1 421:1 469:1 481:1 482:1 512:1 559:1 639:1 1144:1 1167:1 1218:1 1226:1 1228:1 1233:1 1242:1 1243:1 1245:1 1249:1 1261:1 1267:1 1271:1 1276:1 1283:1 1284:2
1 1144:1 1276:1 1284:2 1286:24
1 1284:2 1286:13
1 137:1 263:1 321:1 469:1 481:1 482:1 1144:1 1218:1 1228:1 1233:1 1242:1 1243:1 1245:1 1276:1 1284:4 1286:63
1 263:1 482:1 1144:1 1233:1 1245:1 1276:1 1284:3 1286:57
1 1284:2 1286:1
1 263:1 409:1 1144:1 1233:1 1247:1 1276:1 1284:2 1286:1
1 263:1 1144:1 1233:1 1276:1 1284:2 1286:2
1 1144:1 1276:1 1284:3 1286:584
1 1284:2 1286:16
1 263:1 409:1 1144:1 1233:1 1247:1 1276:1 1284:2 1286:4
1 137:1 263:1 321:1 409:1 421:1 469:1 481:1 482:1 1144:1 1218:1 1228:1 1233:1 1242:1 1243:1 1245:1 1247:1 1261:1 1276:1 1284:2
1 864:1 971:1 1144:1 1248:1 1276:1 1278:1 1284:2
1 1284:2 1286:7
1 1284:2 1286:1
1 137:1 263:1 421:1 469:1 481:1 482:1 512:1 1144:1 1228:1 1233:1 1242:1 1243:1 1245:1 1261:1 1276:1 1283:1 1284:2
1 137:1 263:1 321:1 345:1 421:1 469:1 481:1 482:1 512:1 559:1 639:1 1144:1 1167:1 1218:1 1226:1 1228:1 1233:1 1242:1 1243:1 1245:1 1249:1 1261:1 1267:1 1271:1 1276:1 1283:1 1284:2
1 1144:1 1276:1 1284:2 1286:5
1 137:1 263:1 321:1 345:1 421:1 469:1 481:1 482:1 512:1 559:1 639:1 1144:1 1167:1 1218:1 1226:1 1228:1 1233:1 1242:1 1243:1 1245:1 1249:1 1261:1 1267:1 1271:1 1276:1 1283:1 1284:2
1 409:1 469:1 1086:1 1144:1 1228:1 1247:1 1276:1 1281:1 1284:5 1286:32
1 133:1 482:1 1234:1 1245:1 1284:2 1286:8
1 263:1 409:1 1144:1 1233:1 1247:1 1276:1 1284:2 1286:1
1 1144:1 1276:1 1284:2 1286:2
1 137:1 263:1 321:1 345:1 421:1 469:1 481:1 482:1 512:1 559:1 639:1 1144:1 1167:1 1218:1 1226:1 1228:1 1233:1 1242:1 1243:1 1245:1 1249:1 1261:1 1267:1 1271:1 1276:1 1283:1 1284:2
1 263:1 409:1 1144:1 1233:1 1247:1 1276:1 1284:2 1286:1
1 263:1 409:1 1144:1 1233:1 1247:1 1276:1 1284:2 1286:1
1 1284:2 1286:15
1 1144:1 1276:1 1284:3 1286:182
1 1144:1 1276:1 1284:3 1286:584
1 268:1 1144:1 1246:1 1276:1 1284:5 1286:10
1 137:1 263:1 321:1 469:1 481:1 859:1 1144:1 1218:1 1228:1 1233:1 1242:1 1243:1 1275:1 1276:1 1284:4 1286:94
1 137:1 263:1 321:1 345:1 409:1 421:1 469:1 481:1 482:1 512:1 968:1 1144:1 1218:1 1228:1 1233:1 1241:1 1242:1 1243:1 1245:1 1247:1 1249:1 1261:1 1276:1 1283:1 1284:2
1 1144:1 1276:1 1284:3 1286:2
1 1144:1 1276:1 1284:2 1286:5
1 263:1 409:1 1144:1 1233:1 1247:1 1276:1 1284:2 1286:1
1 167:1 200:1 542:1 611:1 638:1 722:1 913:1 1144:1 1239:1 1240:1 1252:1 1253:1 1260:1 1269:1 1276:1 1277:1 1282:1 1284:2 1286:4
1 263:1 409:1 1144:1 1233:1 1247:1 1276:1 1284:2 1286:1
1 469:1 904:1 1144:1 1228:1 1254:1 1276:1 1284:2 1286:11
1 1284:2 1286:13
1 1144:1 1276:1 1284:2 1286:3
1 133:1 482:1 1144:1 1234:1 1245:1 1276:1 1284:2 1286:21
1 1284:2 1286:27
1 133:1 746:1 904:1 1086:1 1225:1 1234:1 1254:1 1281:1 1284:2 1286:8
1 1086:1 1144:1 1276:1 1281:1 1284:2 1286:12
1 1144:1 1276:1 1284:3 1286:584
1 409:1 746:1 1144:1 1225:1 1247:1 1276:1 1284:2 1286:13
1 263:1 482:1 512:1 859:1 1144:1 1233:1 1245:1 1275:1 1276:1 1283:1 1284:5 1286:19
1 137:1 189:1 260:1 263:1 421:1 469:1 482:1 512:1 513:1 896:1 1086:1 1144:1 1214:1 1228:1 1229:1 1232:1 1233:1 1242:1 1244:1 1245:1 1261:1 1276:1 1281:1 1283:1 1284:1
1 1284:2 1286:24
1 1144:1 1276:1 1284:3 1286:584
1 1144:1 1276:1 1284:3 1286:584
1 263:1 409:1 1144:1 1233:1 1247:1 1276:1 1284:2 1286:1
1 1144:1 1276:1 1284:2 1286:1
1 1144:1 1276:1 1284:2 1286:2
1 481:1 1144:1 1243:1 1276:1 1284:3 1286:6
1 254:1 263:1 409:1 482:1 746:1 1223:1 1225:1 1233:1 1245:1 1247:1 1284:2 1286:1
1 158:1 1270:1 1284:4
1 1284:2 1286:13
1 1144:1 1276:1 1284:2 1286:3
1 137:1 263:1 321:1 409:1 421:1 469:1 481:1 482:1 1144:1 1218:1 1228:1 1233:1 1242:1 1243:1 1245:1 1247:1 1261:1 1276:1 1284:2
1 1284:2 1286:1
1 1144:1 1276:1 1284:2 1286:1
1 263:1 409:1 1144:1 1233:1 1247:1 1276:1 1284:2 1286:1
1 1144:1 1276:1 1284:3 1286:3
1 263:1 409:1 1144:1 1233:1 1247:1 1276:1 1284:2 1286:1
1 1284:2 1286:16
1 137:1 263:1 268:1 394:1 481:1 1144:1 1222:1 1233:1 1242:1 1243:1 1246:1 1276:1 1284:4 1286:4
1 137:1 321:1 409:1 469:1 864:1 937:1 1144:1 1165:1 1215:1 1218:1 1224:1 1228:1 1242:1 1247:1 1276:1 1278:1 1284:5 1286:33
1 263:1 469:1 482:1 1228:1 1233:1 1245:1 1284:2 1286:35
1 134:1 263:1 268:1 693:1 1144:1 1233:1 1238:1 1246:1 1251:1 1276:1 1284:3
1 133:1 409:1 746:1 1225:1 1234:1 1247:1 1284:2 1286:40
1 137:1 254:1 263:1 409:1 421:1 469:1 481:1 482:1 512:1 513:1 585:1 859:1 971:1 1053:1 1086:1 1144:1 1214:1 1216:1 1223:1 1228:1 1233:1 1242:1 1243:1 1245:1 1247:1 1248:1 1250:1 1261:1 1275:1 1276:1 1281:1 1283:1 1284:3
1 137:1 263:1 321:1 409:1 421:1 469:1 481:1 482:1 1144:1 1218:1 1228:1 1233:1 1242:1 1243:1 1245:1 1247:1 1261:1 1276:1 1284:2
1 904:1 1144:1 1254:1 1276:1 1284:2 1286:15
1 263:1 409:1 1233:1 1247:1 1284:3 1286:40
1 1284:2 1286:1
1 137:1 263:1 321:1 345:1 421:1 469:1 481:1 482:1 512:1 559:1 639:1 1144:1 1167:1 1218:1 1226:1 1228:1 1233:1 1242:1 1243:1 1245:1 1249:1 1261:1 1267:1 1271:1 1276:1 1283:1 1284:2
1 263:1 409:1 469:1 482:1 1144:1 1228:1 1233:1 1245:1 1247:1 1276:1 1284:3 1286:2
1 137:1 254:1 263:1 321:1 409:1 469:1 481:1 482:1 585:1 761:1 1053:1 1086:1 1144:1 1216:1 1218:1 1223:1 1228:1 1233:1 1236:1 1242:1 1243:1 1245:1 1247:1 1250:1 1276:1 1281:1 1284:2
1 1144:1 1276:1 1284:2 1286:3
1 263:1 1144:1 1233:1 1276:1 1284:2 1286:65
1 409:1 1144:1 1247:1 1276:1 1284:2 1286:4
1 1144:1 1276:1 1284:2 1286:1
1 263:1 409:1 1144:1 1233:1 1247:1 1276:1 1284:2 1286:1
1 137:1 263:1 321:1 345:1 421:1 469:1 481:1 482:1 512:1 559:1 639:1 1144:1 1167:1 1218:1 1226:1 1228:1 1233:1 1242:1 1243:1 1245:1 1249:1 1261:1 1267:1 1271:1 1276:1 1283:1 1284:2
1 137:1 263:1 321:1 469:1 859:1 1144:1 1218:1 1228:1 1233:1 1242:1 1275:1 1276:1 1284:6 1286:81
1 1144:1 1276:1 1284:3
1 409:1 469:1 746:1 1144:1 1225:1 1228:1 1247:1 1276:1 1284:2 1286:1
1 746:1 1086:1 1225:1 1281:1 1284:3 1286:20
1 263:1 1144:1 1233:1 1276:1 1284:2 1286:3
1 137:1 263:1 321:1 469:1 481:1 482:1 586:1 1144:1 1218:1 1220:1 1228:1 1233:1 1242:1 1243:1 1245:1 1276:1 1284:9 1286:60
1 263:1 409:1 1144:1 1233:1 1247:1 1276:1 1284:2 1286:1
1 263:1 469:1 481:1 482:1 1144:1 1228:1 1233:1 1243:1 1245:1 1276:1 1284:3 1286:3
1 137:1 263:1 321:1 469:1 859:1 1144:1 1218:1 1228:1 1233:1 1242:1 1275:1 1276:1 1284:6 1286:81
1 133:1 482:1 1234:1 1245:1 1284:2 1286:8
1 137:1 263:1 321:1 469:1 482:1 859:1 1144:1 1218:1 1228:1 1233:1 1242:1 1245:1 1275:1 1276:1 1284:4 1286:95
1 268:1 1144:1 1246:1 1276:1 1284:4 1286:234
1 263:1 1144:1 1233:1 1276:1 1284:2
1 263:1 409:1 1144:1 1233:1 1247:1 1276:1 1284:2 1286:4
1 1144:1 1276:1 1284:3 1286:7
1 137:1 263:1 421:1 469:1 481:1 482:1 512:1 1144:1 1228:1 1233:1 1242:1 1243:1 1245:1 1261:1 1276:1 1283:1 1284:2
1 263:1 469:1 481:1 482:1 1144:1 1228:1 1233:1 1243:1 1245:1 1276:1 1284:3
1 137:1 213:1 263:1 321:1 409:1 469:1 481:1 482:1 513:1 564:1 832:1 1144:1 1214:1 1218:1 1228:1 1233:1 1242:1 1243:1 1245:1 1247:1 1255:1 1263:1 1274:1 1276:1 1284:1
1 137:1 263:1 321:1 421:1 425:1 761:1 1144:1 1218:1 1233:1 1236:1 1242:1 1261:1 1266:1 1276:1 1284:4 1286:3
1 469:1 482:1 904:1 1228:1 1245:1 1254:1 1284:2 1286:1
1 1144:1 1276:1 1284:3 1286:2
1 263:1 409:1 1144:1 1233:1 1247:1 1276:1 1284:2 1286:4
1 137:1 263:1 321:1 469:1 859:1 1144:1 1218:1 1228:1 1233:1 1242:1 1275:1 1276:1 1284:6 1286:81
1 1144:1 1276:1 1284:3 1286:584
1 137:1 263:1 321:1 345:1 421:1 469:1 481:1 482:1 512:1 559:1 639:1 1144:1 1167:1 1218:1 1226:1 1228:1 1233:1 1242:1 1243:1 1245:1 1249:1 1261:1 1267:1 1271:1 1276:1 1283:1 1284:2
1 1144:1 1276:1 1284:2 1286:2
1 1284:2 1286:29
1 409:1 482:1 1144:1 1245:1 1247:1 1276:1 1284:2 1286:15
1 1144:1 1276:1 1284:3 1286:2
1 1144:1 1276:1 1284:2 1286:24
1 263:1 482:1 512:1 859:1 1144:1 1233:1 1245:1 1275:1 1276:1 1283:1 1284:5 1286:14
1 1284:2 1286:16
1 263:1 1144:1 1233:1 1276:1 1284:2
1 1144:1 1276:1 1284:3 1286:584
1 1144:1 1276:1 1284:3 1286:2
1 133:1 746:1 1144:1 1225:1 1234:1 1276:1 1284:2 1286:15
1 1284:2 1286:16
1 263:1 409:1 1144:1 1233:1 1247:1 1276:1 1284:2 1286:1
1 263:1 406:1 421:1 482:1 548:1 1144:1 1165:1 1224:1 1233:1 1245:1 1256:1 1258:1 1261:1 1276:1 1284:2
1 1284:2 1286:16
1 137:1 263:1 321:1 345:1 421:1 469:1 481:1 482:1 512:1 559:1 639:1 1144:1 1167:1 1218:1 1226:1 1228:1 1233:1 1242:1 1243:1 1245:1 1249:1 1261:1 1267:1 1271:1 1276:1 1283:1 1284:2
1 137:1 263:1 321:1 409:1 421:1 469:1 481:1 482:1 1144:1 1218:1 1228:1 1233:1 1242:1 1243:1 1245:1 1247:1 1261:1 1276:1 1284:2
1 1284:3 1286:4
1 263:1 409:1 1144:1 1233:1 1247:1 1276:1 1284:2 1286:1
1 1144:1 1276:1 1284:3 1286:584
1 137:1 263:1 321:1 345:1 421:1 469:1 481:1 482:1 512:1 559:1 639:1 1144:1 1167:1 1218:1 1226:1 1228:1 1233:1 1242:1 1243:1 1245:1 1249:1 1261:1 1267:1 1271:1 1276:1 1283:1 1284:2
1 1284:2 1286:29
1 137:1 263:1 321:1 409:1 421:1 469:1 481:1 482:1 1144:1 1218:1 1228:1 1233:1 1242:1 1243:1 1245:1 1247:1 1261:1 1276:1 1284:2
1 1144:1 1276:1 1284:4 1286:56
1 133:1 409:1 746:1 1225:1 1234:1 1247:1 1284:2 1286:40
1 1144:1 1276:1 1284:3 1286:2
1 1144:1 1276:1 1284:2 1286:24
1 1284:2 1286:15
1 1144:1 1276:1 1284:3 1286:82
1 1284:2 1286:25
1 213:1 469:1 859:1 1144:1 1228:1 1263:1 1268:1 1275:1 1276:1 1284:1
1 263:1 469:1 481:1 482:1 1144:1 1228:1 1233:1 1243:1 1245:1 1276:1 1284:2
1 137:1 263:1 421:1 469:1 481:1 482:1 512:1 1144:1 1228:1 1233:1 1242:1 1243:1 1245:1 1261:1 1276:1 1283:1 1284:2
1 746:1 1086:1 1144:1 1225:1 1276:1 1281:1 1284:2 1286:16
1 263:1 1144:1 1233:1 1276:1 1284:3 1286:7
1 1284:2 1286:5
1 263:1 1144:1 1233:1 1276:1 1284:2 1286:65
1 409:1 1144:1 1247:1 1276:1 1284:2 1286:4
1 137:1 263:1 321:1 345:1 421:1 469:1 481:1 482:1 512:1 559:1 639:1 1144:1 1167:1 1218:1 1226:1 1228:1 1233:1 1242:1 1243:1 1245:1 1249:1 1261:1 1267:1 1271:1 1276:1 1283:1 1284:2
1 263:1 409:1 1144:1 1233:1 1247:1 1276:1 1284:2 1286:1
1 263:1 268:1 421:1 482:1 1144:1 1233:1 1245:1 1246:1 1261:1 1276:1 1284:6
1 1144:1 1276:1 1284:3 1286:584
1 746:1 1086:1 1225:1 1281:1 1284:3 1286:20
1 1144:1 1276:1 1284:2 1286:3
1 1144:1 1276:1 1284:2 1286:2
1 1144:1 1276:1 1284:2
1 137:1 263:1 321:1 409:1 421:1 469:1 481:1 482:1 1144:1 1218:1 1228:1 1233:1 1242:1 1243:1 1245:1 1247:1 1261:1 1276:1 1284:2
1 409:1 1247:1 1284:2 1286:1
1 133:1 1144:1 1234:1 1276:1 1284:2 1286:11
1 263:1 1086:1 1233:1 1281:1 1284:3 1286:11
1 1284:2 1286:24
1 137:1 263:1 482:1 512:1 761:1 1144:1 1233:1 1236:1 1242:1 1245:1 1276:1 1283:1 1284:6
1 263:1 409:1 1144:1 1233:1 1247:1 1276:1 1284:2 1286:4
1 263:1 699:1 1144:1 1233:1 1262:1 1276:1 1284:2
1 263:1 409:1 469:1 482:1 1144:1 1228:1 1233:1 1245:1 1247:1 1276:1 1284:3 1286:2
1 137:1 263:1 321:1 409:1 421:1 469:1 481:1 482:1 1144:1 1218:1 1228:1 1233:1 1242:1 1243:1 1245:1 1247:1 1261:1 1276:1 1284:2
1 1144:1 1276:1 1284:3 1286:584
1 191:1 321:1 1144:1 1218:1 1237:1 1276:1 1284:2
1 268:1 1144:1 1246:1 1276:1 1284:6 1286:423
1 137:1 263:1 421:1 481:1 482:1 896:1 1144:1 1233:1 1242:1 1243:1 1244:1 1245:1 1261:1 1276:1 1284:2
1 137:1 263:1 321:1 345:1 421:1 469:1 481:1 482:1 512:1 559:1 639:1 1144:1 1167:1 1218:1 1226:1 1228:1 1233:1 1242:1 1243:1 1245:1 1249:1 1261:1 1267:1 1271:1 1276:1 1283:1 1284:2
1 268:1 1144:1 1246:1 1276:1 1284:4 1286:5
1 263:1 482:1 1233:1 1245:1 1284:3 1286:9
1 1144:1 1276:1 1284:3 1286:584
1 1284:2 1286:13
1 1284:2 1286:1
1 1284:2 1286:19
1 137:1 263:1 482:1 512:1 761:1 1144:1 1233:1 1236:1 1242:1 1245:1 1276:1 1283:1 1284:6
1 137:1 263:1 321:1 482:1 761:1 1144:1 1218:1 1233:1 1236:1 1242:1 1245:1 1276:1 1284:2
1 409:1 469:1 1228:1 1247:1 1284:2 1286:19
1 137:1 263:1 321:1 345:1 421:1 469:1 481:1 482:1 512:1 559:1 639:1 1144:1 1167:1 1218:1 1226:1 1228:1 1233:1 1242:1 1243:1 1245:1 1249:1 1261:1 1267:1 1271:1 1276:1 1283:1 1284:2
1 1144:1 1276:1 1284:2 1286:24
1 137:1 263:1 321:1 345:1 421:1 469:1 481:1 482:1 512:1 559:1 639:1 1144:1 1167:1 1218:1 1226:1 1228:1 1233:1 1242:1 1243:1 1245:1 1249:1 1261:1 1267:1 1271:1 1276:1 1283:1 1284:2
1 409:1 469:1 746:1 1144:1 1225:1 1228:1 1247:1 1276:1 1284:2 1286:1
1 1144:1 1276:1 1284:4 1286:495
1 1144:1 1276:1 1284:3 1286:584
1 1284:2 1286:1
1 263:1 1144:1 1233:1 1276:1 1284:4 1286:30
1 1144:1 1276:1 1284:3 1286:584
1 263:1 409:1 1144:1 1233:1 1247:1 1276:1 1284:2 1286:1
1 137:1 263:1 268:1 394:1 481:1 1144:1 1222:1 1233:1 1242:1 1243:1 1246:1 1276:1 1284:5 1286:1
1 1144:1 1276:1 1284:1
1 263:1 1086:1 1233:1 1281:1 1284:3 1286:11
1 1284:2 1286:24
1 268:1 1144:1 1246:1 1276:1 1284:5
1 746:1 904:1 1225:1 1254:1 1284:2 1286:3
1 1284:1 1286:2
1 482:1 1086:1 1245:1 1281:1 1284:2 1286:3
1 1144:1 1276:1 1284:2 1286:3
1 1144:1 1276:1 1284:3 1286:584
1 263:1 409:1 904:1 1233:1 1247:1 1254:1 1284:3 1286:39
1 263:1 409:1 1144:1 1233:1 1247:1 1276:1 1284:2 1286:1
1 1284:2 1286:18
1 137:1 263:1 482:1 1144:1 1233:1 1242:1 1245:1 1276:1 1284:2
1 1284:2 1286:1
1 1144:1 1276:1 1284:1 1286:4
1 1144:1 1276:1 1284:2 1286:1
1 409:1 1144:1 1247:1 1276:1 1284:2 1286:1
1 263:1 1086:1 1144:1 1233:1 1276:1 1281:1 1284:2 1286:16
1 746:1 1086:1 1144:1 1225:1 1276:1 1281:1 1284:2 1286:16
1 469:1 746:1 1225:1 1228:1 1284:2 1286:12
1 137:1 263:1 321:1 345:1 421:1 469:1 481:1 482:1 512:1 559:1 639:1 1144:1 1167:1 1218:1 1226:1 1228:1 1233:1 1242:1 1243:1 1245:1 1249:1 1261:1 1267:1 1271:1 1276:1 1283:1 1284:2
1 1144:1 1276:1 1284:3 1286:584
1 137:1 263:1 268:1 394:1 481:1 1144:1 1222:1 1233:1 1242:1 1243:1 1246:1 1276:1 1284:4 1286:4
1 1284:2 1286:1
1 1284:2 1286:29
1 137:1 263:1 321:1 469:1 482:1 1144:1 1218:1 1228:1 1233:1 1242:1 1245:1 1276:1 1284:3 1286:76
1 1144:1 1276:1 1284:3 1286:584
1 263:1 469:1 513:1 585:1 1086:1 1144:1 1214:1 1216:1 1228:1 1233:1 1268:1 1276:1 1281:1 1284:1
1 1284:2 1286:20
1 137:1 263:1 321:1 345:1 421:1 469:1 481:1 482:1 512:1 559:1 639:1 1144:1 1167:1 1218:1 1226:1 1228:1 1233:1 1242:1 1243:1 1245:1 1249:1 1261:1 1267:1 1271:1 1276:1 1283:1 1284:2
1 1144:1 1276:1 1284:3 1286:2
1 746:1 904:1 1144:1 1225:1 1254:1 1276:1 1284:2 1286:16
1 137:1 263:1 321:1 469:1 859:1 1144:1 1218:1 1228:1 1233:1 1242:1 1275:1 1276:1 1284:6 1286:81
1 1144:1 1276:1 1284:2 1286:3
1 151:1 263:1 469:1 481:1 482:1 512:1 548:1 1053:1 1144:1 1228:1 1233:1 1243:1 1245:1 1250:1 1256:1 1265:1 1276:1 1283:1 1284:4
1 263:1 904:1 1144:1 1233:1 1254:1 1276:1 1284:2 1286:13
1 263:1 1144:1 1233:1 1276:1 1284:2
1 1144:1 1276:1 1284:3 1286:584
1 213:1 263:1 321:1 421:1 469:1 482:1 564:1 1144:1 1218:1 1228:1 1233:1 1245:1 1261:1 1263:1 1274:1 1276:1 1284:1
1 1144:1 1276:1 1284:3 1286:584
1 137:1 263:1 321:1 409:1 421:1 469:1 481:1 482:1 1144:1 1218:1 1228:1 1233:1 1242:1 1243:1 1245:1 1247:1 1261:1 1276:1 1284:2
1 263:1 409:1 1144:1 1233:1 1247:1 1276:1 1284:2 1286:2
1 746:1 1144:1 1225:1 1276:1 1284:2 1286:12
1 1284:2 1286:1
1 1144:1 1276:1 1284:3 1286:584
1 1144:1 1276:1 1284:2 1286:3
1 137:1 263:1 321:1 409:1 421:1 469:1 481:1 482:1 1144:1 1218:1 1228:1 1233:1 1242:1 1243:1 1245:1 1247:1 1261:1 1276:1 1284:2
1 1284:2 1286:1
1 263:1 1233:1 1284:2 1286:1
1 133:1 254:1 409:1 746:1 1223:1 1225:1 1234:1 1247:1 1284:2 1286:21
1 482:1 904:1 1144:1 1245:1 1254:1 1276:1 1284:2 1286:12
1 263:1 409:1 1144:1 1233:1 1247:1 1276:1 1284:2 1286:1
1 1284:2 1286:16
1 263:1 1144:1 1233:1 1276:1 1284:3 1286:4
1 1144:1 1276:1 1284:2
1 409:1 1144:1 1247:1 1276:1 1284:2 1286:4
1 1144:1 1276:1 1284:2 1286:3
1 263:1 409:1 1144:1 1233:1 1247:1 1276:1 1284:2 1286:2
1 1284:2 1286:18
1 137:1 263:1 321:1 345:1 421:1 469:1 481:1 482:1 512:1 559:1 639:1 1144:1 1167:1 1218:1 1226:1 1228:1 1233:1 1242:1 1243:1 1245:1 1249:1 1261:1 1267:1 1271:1 1276:1 1283:1 1284:2
1 971:1 1144:1 1248:1 1276:1 1284:3 1286:94
1 263:1 409:1 1144:1 1233:1 1247:1 1276:1 1284:2 1286:4
1 1144:1 1276:1 1284:3 1286:584
1 1144:1 1276:1 1284:2 1286:3
1 137:1 263:1 321:1 345:1 421:1 469:1 481:1 482:1 512:1 559:1 639:1 1144:1 1167:1 1218:1 1226:1 1228:1 1233:1 1242:1 1243:1 1245:1 1249:1 1261:1 1267:1 1271:1 1276:1 1283:1 1284:2
1 263:1 409:1 1144:1 1233:1 1247:1 1276:1 1284:2 1286:1
1 1144:1 1276:1 1284:3 1286:5
1 1144:1 1276:1 1284:2 1286:3
1 137:1 263:1 321:1 345:1 421:1 469:1 481:1 482:1 512:1 559:1 639:1 1144:1 1167:1 1218:1 1226:1 1228:1 1233:1 1242:1 1243:1 1245:1 1249:1 1261:1 1267:1 1271:1 1276:1 1283:1 1284:2
1 137:1 263:1 421:1 469:1 481:1 482:1 512:1 1144:1 1228:1 1233:1 1242:1 1243:1 1245:1 1261:1 1276:1 1283:1 1284:2
1 137:1 261:1 263:1 321:1 409:1 469:1 481:1 482:1 1053:1 1086:1 1144:1 1218:1 1228:1 1230:1 1233:1 1242:1 1243:1 1245:1 1247:1 1250:1 1276:1 1281:1 1284:3
1 137:1 263:1 482:1 699:1 896:1 1144:1 1233:1 1242:1 1244:1 1245:1 1262:1 1276:1 1284:1
1 1144:1 1276:1 1284:3 1286:3
1 1144:1 1276:1 1284:2 1286:5
1 137:1 263:1 482:1 585:1 1144:1 1216:1 1233:1 1242:1 1245:1 1276:1 1284:2
1 1284:3 1286:7
1 469:1 1144:1 1228:1 1276:1 1284:1
1 137:1 254:1 263:1 321:1 409:1 469:1 481:1 482:1 585:1 761:1 1053:1 1086:1 1144:1 1216:1 1218:1 1223:1 1228:1 1233:1 1236:1 1242:1 1243:1 1245:1 1247:1 1250:1 1276:1 1281:1 1284:2
1 1284:2 1286:1
1 263:1 1086:1 1144:1 1233:1 1276:1 1281:1 1284:1
1 409:1 469:1 1144:1 1228:1 1247:1 1276:1 1284:3 1286:39
1 1144:1 1276:1 1284:3 1286:2
1 263:1 409:1 1144:1 1233:1 1247:1 1276:1 1284:2 1286:4
1 133:1 263:1 1144:1 1233:1 1234:1 1276:1 1284:2 1286:17
1 1144:1 1276:1 1284:3 1286:584
1 1144:1 1276:1 1284:2 1286:3
1 469:1 710:1 1120:1 1144:1 1228:1 1257:1 1268:1 1272:1 1276:1 1284:2
1 469:1 482:1 904:1 1228:1 1245:1 1254:1 1284:2 1286:34
1 469:1 710:1 1120:1 1144:1 1228:1 1257:1 1268:1 1272:1 1276:1 1284:1
1 263:1 409:1 1144:1 1233:1 1247:1 1276:1 1284:2 1286:1
1 1144:1 1276:1 1284:3 1286:2
1 1284:2 1286:1
1 1144:1 1276:1 1284:3 1286:584
1 1284:2 1286:20
1 137:1 263:1 321:1 469:1 859:1 1144:1 1218:1 1228:1 1233:1 1242:1 1275:1 1276:1 1284:6 1286:81
1 263:1 1144:1 1233:1 1276:1 1284:2 1286:1
1 1284:2 1286:3
1 1284:2 1286:15
1 133:1 482:1 1144:1 1234:1 1245:1 1276:1 1284:2 1286:16
1 137:1 263:1 321:1 409:1 421:1 469:1 481:1 482:1 1144:1 1218:1 1228:1 1233:1 1242:1 1243:1 1245:1 1247:1 1261:1 1276:1 1284:2
1 133:1 746:1 904:1 1086:1 1225:1 1234:1 1254:1 1281:1 1284:2 1286:8
1 1144:1 1276:1 1284:2 1286:1
1 1284:2 1286:1
1 263:1 409:1 469:1 482:1 1144:1 1228:1 1233:1 1245:1 1247:1 1276:1 1284:3 1286:2
1 263:1 482:1 512:1 859:1 1144:1 1233:1 1245:1 1275:1 1276:1 1283:1 1284:5 1286:20
1 137:1 263:1 268:1 394:1 409:1 1144:1 1222:1 1233:1 1242:1 1246:1 1247:1 1276:1 1284:3
1 482:1 1086:1 1245:1 1281:1 1284:2 1286:3
1 263:1 409:1 1144:1 1233:1 1247:1 1276:1 1284:2 1286:1
1 263:1 409:1 1144:1 1233:1 1247:1 1276:1 1284:2 1286:1
1 1144:1 1276:1 1284:2 1286:2
1 1284:2 1286:10
1 746:1 1144:1 1225:1 1276:1 1284:2 1286:12
1 263:1 409:1 1144:1 1233:1 1247:1 1276:1 1284:2 1286:1
1 1144:1 1276:1 1284:1
1 133:1 482:1 1144:1 1234:1 1245:1 1276:1 1284:2 1286:12
1 1144:1 1276:1 1284:3 1286:584
1 1144:1 1276:1 1284:2 1286:3
1 1144:1 1276:1 1284:3 1286:584
1 137:1 263:1 321:1 345:1 421:1 469:1 481:1 482:1 512:1 559:1 639:1 1144:1 1167:1 1218:1 1226:1 1228:1 1233:1 1242:1 1243:1 1245:1 1249:1 1261:1 1267:1 1271:1 1276:1 1283:1 1284:2
1 1284:2 1286:1
1 263:1 409:1 482:1 1144:1 1233:1 1245:1 1247:1 1276:1 1284:3 1286:6
1 1284:2 1286:20
1 263:1 482:1 746:1 1225:1 1233:1 1245:1 1284:3 1286:33
1 1144:1 1276:1 1284:3 1286:584
1 263:1 409:1 1144:1 1233:1 1247:1 1276:1 1284:2 1286:2
1 1144:1 1276:1 1284:3 1286:584
1 137:1 263:1 321:1 345:1 421:1 469:1 481:1 482:1 512:1 559:1 639:1 1144:1 1167:1 1218:1 1226:1 1228:1 1233:1 1242:1 1243:1 1245:1 1249:1 1261:1 1267:1 1271:1 1276:1 1283:1 1284:2
1 137:1 263:1 321:1 469:1 481:1 482:1 1144:1 1218:1 1228:1 1233:1 1242:1 1243:1 1245:1 1276:1 1284:5 1286:67
1 1284:1 1286:29
1 482:1 1245:1 1284:2 1286:16
1 137:1 263:1 321:1 345:1 409:1 421:1 469:1 482:1 512:1 1144:1 1218:1 1228:1 1233:1 1242:1 1245:1 1247:1 1249:1 1261:1 1276:1 1283:1 1284:2
1 263:1 409:1 1144:1 1233:1 1247:1 1276:1 1284:2 1286:1
1 1284:2 1286:29
1 482:1 746:1 1144:1 1225:1 1245:1 1276:1 1284:2 1286:1
1 137:1 263:1 268:1 394:1 481:1 1144:1 1222:1 1233:1 1242:1 1243:1 1246:1 1276:1 1284:5 1286:1
1 263:1 1144:1 1233:1 1276:1 1284:2 1286:2
1 746:1 1144:1 1225:1 1276:1 1284:2 1286:12
1 137:1 263:1 321:1 409:1 469:1 481:1 482:1 513:1 1144:1 1214:1 1218:1 1228:1 1233:1 1242:1 1243:1 1245:1 1247:1 1276:1 1284:2
1 1284:2 1286:1
1 137:1 263:1 1144:1 1233:1 1242:1 1276:1 1284:1 1286:1
1 268:1 1144:1 1246:1 1276:1 1284:6 1286:42
1 137:1 263:1 321:1 409:1 421:1 469:1 481:1 482:1 1144:1 1218:1 1228:1 1233:1 1242:1 1243:1 1245:1 1247:1 1261:1 1276:1 1284:2
1 263:1 409:1 1144:1 1233:1 1247:1 1276:1 1284:2 1286:11
1 263:1 409:1 1144:1 1233:1 1247:1 1276:1 1284:2 1286:1
1 263:1 409:1 1144:1 1233:1 1247:1 1276:1 1284:2 1286:4
1 263:1 1144:1 1233:1 1276:1 1284:2 1286:65
1 1284:2 1286:1
1 133:1 469:1 1144:1 1228:1 1234:1 1276:1 1284:2 1286:11
1 263:1 268:1 482:1 559:1 1144:1 1233:1 1245:1 1246:1 1267:1 1276:1 1284:7
1 1144:1 1276:1 1284:3 1286:584
1 137:1 263:1 321:1 469:1 548:1 1144:1 1218:1 1228:1 1233:1 1242:1 1256:1 1276:1 1284:3
1 1284:2 1286:10
1 268:1 1144:1 1246:1 1276:1 1284:6
1 137:1 263:1 321:1 345:1 421:1 469:1 481:1 482:1 512:1 559:1 639:1 1144:1 1167:1 1218:1 1226:1 1228:1 1233:1 1242:1 1243:1 1245:1 1249:1 1261:1 1267:1 1271:1 1276:1 1283:1 1284:2
1 137:1 263:1 321:1 345:1 421:1 469:1 481:1 482:1 512:1 559:1 639:1 1144:1 1167:1 1218:1 1226:1 1228:1 1233:1 1242:1 1243:1 1245:1 1249:1 1261:1 1267:1 1271:1 1276:1 1283:1 1284:2
1 1284:2 1286:3
1 1284:2 1286:17
1 137:1 263:1 321:1 345:1 421:1 469:1 481:1 482:1 512:1 559:1 639:1 1144:1 1167:1 1218:1 1226:1 1228:1 1233:1 1242:1 1243:1 1245:1 1249:1 1261:1 1267:1 1271:1 1276:1 1283:1 1284:2
1 268:1 1144:1 1246:1 1276:1 1284:6 1286:423
1 263:1 1144:1 1233:1 1276:1 1284:2 1286:14
1 263:1 746:1 1144:1 1225:1 1233:1 1276:1 1284:2 1286:16
1 469:1 1144:1 1228:1 1276:1 1284:2
1 1144:1 1276:1 1284:2 1286:20
1 1284:2 1286:1
1 137:1 263:1 321:1 345:1 409:1 421:1 469:1 481:1 482:1 512:1 968:1 1144:1 1218:1 1228:1 1233:1 1241:1 1242:1 1243:1 1245:1 1247:1 1249:1 1261:1 1276:1 1283:1 1284:2
1 263:1 409:1 1144:1 1233:1 1247:1 1276:1 1284:2 1286:4
1 1284:3 1286:7
1 254:1 482:1 1144:1 1223:1 1245:1 1276:1 1284:2 1286:5
1 137:1 263:1 321:1 345:1 409:1 421:1 469:1 481:1 482:1 512:1 968:1 1144:1 1218:1 1228:1 1233:1 1241:1 1242:1 1243:1 1245:1 1247:1 1249:1 1261:1 1276:1 1283:1 1284:2
1 1144:1 1276:1 1284:1
1 1144:1 1276:1 1284:3 1286:584
1 1284:2 1286:1
1 263:1 409:1 1144:1 1233:1 1247:1 1276:1 1284:2 1286:1
1 137:1 263:1 321:1 409:1 421:1 469:1 481:1 482:1 1144:1 1218:1 1228:1 1233:1 1242:1 1243:1 1245:1 1247:1 1261:1 1276:1 1284:2
1 1144:1 1276:1 1284:2 1286:24
1 268:1 1144:1 1246:1 1276:1 1284:7 1286:87
1 137:1 263:1 321:1 345:1 409:1 421:1 469:1 481:1 482:1 512:1 971:1 1144:1 1218:1 1228:1 1233:1 1242:1 1243:1 1245:1 1247:1 1248:1 1249:1 1261:1 1276:1 1283:1 1284:2
1 1144:1 1276:1 1284:3 1286:584
1 189:1 263:1 1144:1 1232:1 1233:1 1276:1 1284:1
1 137:2 263:2 321:3 421:1 469:1 482:1 761:1 1144:4 1218:3 1228:1 1233:2 1236:1 1242:2 1245:1 1261:1 1276:4 1284:7
1 263:1 409:1 469:1 482:1 1144:1 1228:1 1233:1 1245:1 1247:1 1276:1 1284:3 1286:2
1 1144:1 1276:1 1284:2 1286:3
1 1284:2 1286:24
1 258:1 260:1 263:1 904:1 1046:1 1144:1 1227:1 1229:1 1231:1 1233:1 1254:1 1276:1 1284:2
1 1144:1 1276:1 1284:2 1286:24
1 263:1 481:1 482:1 1144:1 1233:1 1243:1 1245:1 1276:1 1284:5 1286:31
1 137:1 263:1 268:1 321:1 469:1 1144:1 1217:1 1218:1 1228:1 1233:1 1242:1 1246:1 1276:1 1284:4 1286:415
1 1144:1 1276:1 1284:2
1 1284:2 1286:7
1 263:1 268:1 1144:1 1233:1 1246:1 1276:1 1284:7 1286:6731
1 1144:1 1276:1 1284:2 1286:144
1 1144:1 1276:1 1284:6 1286:237
1 137:1 263:1 321:1 345:1 421:1 469:1 481:1 482:1 512:1 559:1 639:1 1144:1 1167:1 1218:1 1226:1 1228:1 1233:1 1242:1 1243:1 1245:1 1249:1 1261:1 1267:1 1271:1 1276:1 1283:1 1284:2
1 263:1 409:1 469:1 482:1 1144:1 1228:1 1233:1 1245:1 1247:1 1276:1 1284:3 1286:2
1 482:1 1086:1 1245:1 1281:1 1284:2 1286:3
1 1144:1 1276:1 1284:3 1286:584
1 137:1 263:1 321:1 345:1 421:1 469:1 481:1 482:1 512:1 559:1 639:1 1144:1 1167:1 1218:1 1226:1 1228:1 1233:1 1242:1 1243:1 1245:1 1249:1 1261:1 1267:1 1271:1 1276:1 1283:1 1284:2
1 1284:2 1286:13
1 137:1 263:1 321:1 345:1 421:1 469:1 481:1 482:1 512:1 559:1 639:1 1144:1 1167:1 1218:1 1226:1 1228:1 1233:1 1242:1 1243:1 1245:1 1249:1 1261:1 1267:1 1271:1 1276:1 1283:1 1284:2
1 263:1 1144:1 1233:1 1276:1 1284:2 1286:14
1 1144:1 1276:1 1284:2 1286:68
1 482:1 1086:1 1245:1 1281:1 1284:2 1286:7
1 746:1 904:1 1144:1 1225:1 1254:1 1276:1 1284:2 1286:16
1 1144:1 1276:1 1284:3 1286:3
1 1144:1 1276:1 1284:2 1286:1
1 137:1 263:1 321:1 345:1 421:1 469:1 481:1 482:1 512:1 559:1 639:1 1144:1 1167:1 1218:1 1226:1 1228:1 1233:1 1242:1 1243:1 1245:1 1249:1 1261:1 1267:1 1271:1 1276:1 1283:1 1284:2
1 1144:1 1276:1 1284:1 1286:3
1 1144:1 1276:1 1284:3 1286:2
1 1144:1 1276:1 1284:5 1286:24
1 1086:1 1144:1 1276:1 1281:1 1284:2 1286:12
1 263:1 482:1 512:1 859:1 1144:1 1233:1 1245:1 1275:1 1276:1 1283:1 1284:5 1286:23
1 137:1 261:1 263:1 321:1 409:1 469:1 481:1 482:1 1053:1 1086:1 1144:1 1218:1 1228:1 1230:1 1233:1 1242:1 1243:1 1245:1 1247:1 1250:1 1276:1 1281:1 1284:4
1 904:1 1254:1 1284:2 1286:19
1 263:1 469:1 1144:1 1228:1 1233:1 1276:1 1284:3
1 1144:1 1276:1 1284:2 1286:1
1 409:1 469:1 1144:1 1228:1 1247:1 1276:1 1284:3 1286:39
1 1144:1 1276:1 1284:3 1286:584
1 1144:1 1276:1 1284:2 1286:3
1 137:1 263:1 321:1 345:1 421:1 469:1 481:1 482:1 512:1 559:1 639:1 1144:1 1167:1 1218:1 1226:1 1228:1 1233:1 1242:1 1243:1 1245:1 1249:1 1261:1 1267:1 1271:1 1276:1 1283:1 1284:2
1 137:1 263:1 321:1 469:1 859:1 1144:1 1218:1 1228:1 1233:1 1242:1 1275:1 1276:1 1284:6 1286:81
1 1284:3 1286:3
1 137:1 263:1 321:1 469:1 1144:1 1218:1 1228:1 1233:1 1242:1 1276:1 1284:3 1286:95
1 1144:1 1276:1 1284:6 1286:185
1 1144:1 1276:1 1284:2 1286:2
1 137:1 263:1 321:1 469:1 482:1 1144:1 1218:1 1228:1 1233:1 1242:1 1245:1 1276:1 1284:3 1286:76
1 469:1 482:1 904:1 1228:1 1245:1 1254:1 1284:2 1286:34
1 137:1 263:1 321:1 345:1 421:1 469:1 481:1 482:1 512:1 559:1 639:1 1144:1 1167:1 1218:1 1226:1 1228:1 1233:1 1242:1 1243:1 1245:1 1249:1 1261:1 1267:1 1271:1 1276:1 1283:1 1284:2
1 263:1 482:1 512:1 859:1 1144:1 1233:1 1245:1 1275:1 1276:1 1283:1 1284:5 1286:26
1 263:1 409:1 1144:1 1233:1 1247:1 1276:1 1284:2 1286:2
1 1284:2 1286:24
1 1284:2 1286:20
1 1144:1 1276:1 1284:3 1286:5
1 1284:2 1286:11
1 137:1 263:1 321:1 345:1 409:1 469:1 481:1 482:1 512:1 1144:1 1218:1 1228:1 1233:1 1242:1 1243:1 1245:1 1247:1 1249:1 1276:1 1283:1 1284:2
1 469:1 904:1 1228:1 1254:1 1284:2 1286:14
1 137:1 263:1 321:1 409:1 469:1 481:1 482:1 513:1 1144:1 1214:1 1218:1 1228:1 1233:1 1242:1 1243:1 1245:1 1247:1 1276:1 1284:4
1 1284:2 1286:1
1 167:1 200:1 542:1 611:1 638:1 722:1 913:1 1144:1 1239:1 1240:1 1252:1 1253:1 1260:1 1269:1 1276:1 1277:1 1282:1 1284:2 1286:4
1 137:1 263:1 321:1 409:1 421:1 469:1 481:1 482:1 1144:1 1218:1 1228:1 1233:1 1242:1 1243:1 1245:1 1247:1 1261:1 1276:1 1284:2
1 1284:2 1286:5
1 133:1 482:1 1234:1 1245:1 1284:2 1286:8
1 263:1 1144:1 1233:1 1276:1 1284:3 1286:7
1 263:1 409:1 1144:1 1233:1 1247:1 1276:1 1284:2 1286:1
1 1284:4 1286:8
1 137:1 263:1 321:1 409:1 421:1 469:1 481:1 482:1 1144:1 1218:1 1228:1 1233:1 1242:1 1243:1 1245:1 1247:1 1261:1 1276:1 1284:2
1 133:1 482:1 1144:1 1234:1 1245:1 1276:1 1284:2 1286:16
1 482:1 904:1 1144:1 1245:1 1254:1 1276:1 1284:2 1286:12
1 1144:1 1276:1 1284:2 1286:24
1 1144:1 1276:1 1284:2 1286:1
1 137:1 263:1 321:1 345:1 421:1 469:1 481:1 482:1 512:1 559:1 639:1 1144:1 1167:1 1218:1 1226:1 1228:1 1233:1 1242:1 1243:1 1245:1 1249:1 1261:1 1267:1 1271:1 1276:1 1283:1 1284:2
1 1284:2 1286:13
1 746:1 1086:1 1144:1 1225:1 1276:1 1281:1 1284:2 1286:11
1 263:1 1144:1 1233:1 1276:1 1284:2 1286:65
1 263:1 746:1 1144:1 1225:1 1233:1 1276:1 1284:2 1286:16
1 133:1 469:1 746:1 1144:1 1225:1 1228:1 1234:1 1276:1 1284:2 1286:3
1 133:1 904:1 1144:1 1234:1 1254:1 1276:1 1284:2 1286:15
1 263:1 409:1 469:1 482:1 1144:1 1228:1 1233:1 1245:1 1247:1 1276:1 1284:4 1286:5
1 1284:2 1286:15
1 1284:2 1286:27
1 133:1 746:1 904:1 1086:1 1225:1 1234:1 1254:1 1281:1 1284:2 1286:8
1 1284:2 1286:19
1 263:1 409:1 469:1 482:1 1144:1 1228:1 1233:1 1245:1 1247:1 1276:1 1284:3 1286:2
1 137:1 263:1 268:1 394:1 481:1 1144:1 1222:1 1233:1 1242:1 1243:1 1246:1 1276:1 1284:4 1286:4
1 137:1 263:1 421:1 469:1 481:1 482:1 1144:1 1228:1 1233:1 1242:1 1243:1 1245:1 1261:1 1276:1 1284:3
1 1284:1 1286:1
1 1284:3 1286:11
1 746:1 1144:1 1225:1 1276:1 1284:2 1286:11
1 1144:1 1276:1 1284:3 1286:584
1 1086:1 1144:1 1276:1 1281:1 1284:2 1286:14
1 263:1 409:1 1144:1 1233:1 1247:1 1276:1 1284:2 1286:4
1 263:1 409:1 1233:1 1247:1 1284:2 1286:3
1 469:1 746:1 1144:1 1225:1 1228:1 1276:1 1284:2 1286:15
1 137:1 213:1 263:1 321:1 409:1 469:1 481:1 482:1 513:1 564:1 832:1 1144:1 1214:1 1218:1 1228:1 1233:1 1242:1 1243:1 1245:1 1247:1 1255:1 1263:1 1274:1 1276:1 1284:1
1 137:1 263:1 321:1 409:1 421:1 469:1 481:1 482:1 1144:1 1218:1 1228:1 1233:1 1242:1 1243:1 1245:1 1247:1 1261:1 1276:1 1284:2
1 469:1 1144:1 1228:1 1276:1 1284:2
1 1144:1 1276:1 1284:2 1286:24
1 167:1 200:1 250:1 263:1 474:1 482:1 913:1 1144:1 1219:1 1233:1 1235:1 1245:1 1252:1 1260:1 1276:1 1277:1 1284:3 1286:152
1 133:1 1144:1 1234:1 1276:1 1284:2 1286:11
1 1144:2 1276:2 1284:3 1286:22
1 137:1 263:1 394:1 481:1 1144:1 1222:1 1233:1 1242:1 1243:1 1276:1 1284:3
1 263:1 469:1 481:1 482:1 1144:1 1228:1 1233:1 1243:1 1245:1 1276:1 1284:4 1286:22
1 263:1 409:1 1144:1 1233:1 1247:1 1276:1 1284:2 1286:1
1 1144:1 1276:1 1284:2 1286:68
1 263:1 421:1 586:1 1144:1 1220:1 1233:1 1261:1 1276:1 1284:1
1 469:1 904:1 1144:1 1228:1 1254:1 1276:1 1284:2 1286:11
1 137:1 263:1 321:1 469:1 481:1 482:1 1144:1 1218:1 1228:1 1233:1 1242:1 1243:1 1245:1 1276:1 1284:4 1286:89
1 137:1 263:1 321:1 469:1 481:1 1144:1 1218:1 1228:1 1233:1 1242:1 1243:1 1276:1 1284:3 1286:15
1 263:1 1144:1 1233:1 1276:1 1284:2 1286:65
1 263:1 409:1 469:1 482:1 1144:1 1228:1 1233:1 1245:1 1247:1 1276:1 1284:3 1286:2
1 263:1 409:1 1144:1 1233:1 1247:1 1276:1 1284:2 1286:1
1 268:1 409:1 481:1 1144:1 1243:1 1246:1 1247:1 1276:1 1284:3 1286:1
1 1144:1 1276:1 1284:3 1286:7
1 263:1 482:1 512:1 859:1 1144:1 1233:1 1245:1 1275:1 1276:1 1283:1 1284:5 1286:33
1 1284:2 1286:19
1 263:1 482:1 512:1 859:1 1144:1 1233:1 1245:1 1275:1 1276:1 1283:1 1284:5 1286:18
1 409:1 746:1 1225:1 1247:1 1284:2 1286:16
1 137:1 263:1 321:1 345:1 421:1 469:1 481:1 482:1 512:1 559:1 639:1 1144:1 1167:1 1218:1 1226:1 1228:1 1233:1 1242:1 1243:1 1245:1 1249:1 1261:1 1267:1 1271:1 1276:1 1283:1 1284:2
1 137:1 254:1 263:1 321:1 409:1 469:1 481:1 482:1 585:1 761:1 1053:1 1086:1 1144:1 1216:1 1218:1 1223:1 1228:1 1233:1 1236:1 1242:1 1243:1 1245:1 1247:1 1250:1 1276:1 1281:1 1284:2
1 133:1 482:1 1144:1 1234:1 1245:1 1276:1 1284:2 1286:16
1 263:1 469:1 481:1 482:1 1144:1 1228:1 1233:1 1243:1 1245:1 1276:1 1284:3 1286:63
1 1144:1 1276:1 1284:3 1286:584
1 1284:2 1286:20
1 263:1 481:1 482:1 1144:1 1233:1 1243:1 1245:1 1276:1 1284:5 1286:31
1 263:1 394:1 1144:1 1222:1 1233:1 1276:1 1284:1
1 1144:1 1276:1 1284:2 1286:24
1 263:1 1086:1 1233:1 1281:1 1284:3 1286:11
1 137:1 263:1 321:1 409:1 421:1 469:1 481:1 482:1 1144:1 1218:1 1228:1 1233:1 1242:1 1243:1 1245:1 1247:1 1261:1 1276:1 1284:2
1 263:1 1086:1 1144:1 1233:1 1276:1 1281:1 1284:1
1 409:1 482:1 1245:1 1247:1 1284:2 1286:1
1 263:1 409:1 1144:1 1233:1 1247:1 1276:1 1284:2 1286:2
1 268:1 1144:1 1246:1 1276:1 1284:6 1286:42
1 263:1 482:1 512:1 859:1 1144:1 1233:1 1245:1 1275:1 1276:1 1283:1 1284:5 1286:17
1 1284:2 1286:11
1 1144:1 1276:1 1284:2 1286:3
1 1144:1 1276:1 1284:2 1286:3
1 1144:1 1276:1 1284:2 1286:24
1 482:1 1086:1 1144:1 1245:1 1276:1 1281:1 1284:3 1286:39
1 1144:1 1276:1 1284:4 1286:1329
1 1284:2 1286:14
1 1284:2 1286:29
1 1144:1 1276:1 1284:3 1286:7
1 1144:1 1276:1 1284:3 1286:73
1 1284:2 1286:11
1 409:1 746:1 1225:1 1247:1 1284:2 1286:16
1 1284:2 1286:13
1 137:1 263:1 321:1 409:1 421:1 469:1 481:1 482:1 1144:1 1218:1 1228:1 1233:1 1242:1 1243:1 1245:1 1247:1 1261:1 1276:1 1284:2
1 137:1 263:1 321:1 345:1 421:1 469:1 481:1 482:1 512:1 559:1 639:1 1144:1 1167:1 1218:1 1226:1 1228:1 1233:1 1242:1 1243:1 1245:1 1249:1 1261:1 1267:1 1271:1 1276:1 1283:1 1284:2
1 263:1 1233:1 1284:2 1286:1
1 1284:2 1286:15
1 137:1 254:1 263:1 321:1 409:1 469:1 481:1 482:1 585:1 761:1 1053:1 1086:1 1144:1 1216:1 1218:1 1223:1 1228:1 1233:1 1236:1 1242:1 1243:1 1245:1 1247:1 1250:1 1276:1 1281:1 1284:2
1 1284:2 1286:1
1 137:1 263:1 268:1 458:1 469:1 937:1 971:1 1144:1 1215:1 1221:1 1228:1 1233:1 1242:1 1246:1 1248:1 1276:1 1284:2 1286:1149
1 268:1 1144:1 1246:1 1276:1 1284:4 1286:75
1 263:1 409:1 1144:1 1233:1 1247:1 1276:1 1284:2 1286:1
1 1284:2 1286:20
1 133:1 482:1 1234:1 1245:1 1284:2 1286:8
1 1144:1 1276:1 1284:3 1286:5
1 263:1 409:1 1144:1 1233:1 1247:1 1276:1 1284:2 1286:1
1 1086:1 1144:1 1276:1 1281:1 1284:2 1286:14
1 409:1 746:1 1144:1 1225:1 1247:1 1276:1 1284:2 1286:13
1 1284:2 1286:16
1 1284:3 1286:5
1 1144:1 1276:1 1284:3 1286:584
1 263:1 409:1 1144:1 1233:1 1247:1 1276:1 1284:2 1286:1
1 1144:1 1276:1 1284:3 1286:584
1 409:1 482:1 1144:1 1245:1 1247:1 1276:1 1284:2 1286:1
1 263:1 409:1 1144:1 1233:1 1247:1 1276:1 1284:2 1286:1
1 1144:1 1276:1 1284:3 1286:584
1 263:1 409:1 1144:1 1233:1 1247:1 1276:1 1284:2 1286:2
1 482:1 746:1 1144:1 1225:1 1245:1 1276:1 1284:3 1286:40
1 263:1 409:1 1233:1 1247:1 1284:2 1286:14
1 137:1 263:1 321:1 469:1 1144:1 1218:1 1228:1 1233:1 1242:1 1276:1 1284:5 1286:70
1 1284:2 1286:20
1 1144:1 1276:1 1284:2 1286:2
1 1144:1 1276:1 1284:3 1286:584
1 263:1 409:1 1144:1 1233:1 1247:1 1276:1 1284:2 1286:1
1 137:1 263:1 321:1 409:1 421:1 469:1 481:1 482:1 1144:1 1218:1 1228:1 1233:1 1242:1 1243:1 1245:1 1247:1 1261:1 1276:1 1284:2
1 1144:1 1276:1 1284:3 1286:2
1 263:1 1086:1 1233:1 1281:1 1284:3 1286:11
1 263:1 409:1 482:1 1144:1 1233:1 1245:1 1247:1 1276:1 1284:3 1286:6
1 263:1 482:1 1233:1 1245:1 1284:3 1286:38
1 1144:1 1276:1 1284:3 1286:2
1 137:1 263:1 421:1 469:1 481:1 482:1 512:1 1144:1 1228:1 1233:1 1242:1 1243:1 1245:1 1261:1 1276:1 1283:1 1284:2
1 1284:2 1286:15
1 263:1 409:1 1144:1 1233:1 1247:1 1276:1 1284:2 1286:1
1 1144:1 1276:1 1284:3 1286:584
1 1144:1 1276:1 1284:2 1286:3
1 1144:1 1276:1 1284:5 1286:24
1 1284:2 1286:10
1 1144:1 1276:1 1284:3 1286:2
1 1284:2 1286:10
1 263:1 482:1 512:1 859:1 1144:1 1233:1 1245:1 1275:1 1276:1 1283:1 1284:2 1286:3
1 137:1 263:1 321:1 469:1 481:1 482:1 1144:1 1218:1 1228:1 1233:1 1242:1 1243:1 1245:1 1276:1 1284:5 1286:38
1 1284:2 1286:5
1 1144:1 1276:1 1284:3 1286:584
1 1144:1 1264:1 1276:1 1284:1
1 137:1 263:1 321:1 469:1 481:1 482:1 586:1 1144:1 1218:1 1220:1 1228:1 1233:1 1242:1 1243:1 1245:1 1276:1 1284:1 1286:42
1 263:1 1144:1 1233:1 1276:1 1284:2 1286:2
1 1284:2 1286:13
1 1284:2 1286:5
1 263:1 1086:1 1233:1 1281:1 1284:3 1286:11
1 263:1 1144:1 1233:1 1276:1 1284:2 1286:2
1 263:1 409:1 1144:1 1233:1 1247:1 1276:1 1284:2 1286:5
1 263:1 409:1 1233:1 1247:1 1284:3 1286:40
1 1144:1 1276:1 1284:2 1286:3
1 1284:2 1286:12
1 137:1 263:1 321:1 345:1 421:1 469:1 481:1 482:1 512:1 559:1 639:1 1144:1 1167:1 1218:1 1226:1 1228:1 1233:1 1242:1 1243:1 1245:1 1249:1 1261:1 1267:1 1271:1 1276:1 1283:1 1284:2
1 1144:1 1276:1 1284:2 1286:24
1 263:1 409:1 1144:1 1233:1 1247:1 1276:1 1284:2 1286:1
1 1284:2 1286:15
1 1144:1 1276:1 1284:5 1286:5
1 1144:1 1276:1 1284:2 1286:2
1 469:1 1144:1 1228:1 1276:1 1284:2
1 1144:1 1276:1 1284:3 1286:584
1 137:1 213:1 263:1 321:1 409:1 469:1 481:1 482:1 513:1 564:1 832:1 1144:1 1214:1 1218:1 1228:1 1233:1 1242:1 1243:1 1245:1 1247:1 1255:1 1263:1 1274:1 1276:1 1284:1
1 1144:1 1276:1 1284:2
1 1284:2 1286:5
1 1284:2 1286:24
1 137:1 263:1 421:1 469:1 481:1 482:1 1144:1 1228:1 1233:1 1242:1 1243:1 1245:1 1261:1 1276:1 1284:3
1 137:1 263:1 321:1 469:1 1144:1 1218:1 1228:1 1233:1 1242:1 1276:1 1284:2 1286:95
1 137:1 263:1 321:1 409:1 421:1 469:1 481:1 482:1 1144:1 1218:1 1228:1 1233:1 1242:1 1243:1 1245:1 1247:1 1261:1 1276:1 1284:2
1 746:1 1086:1 1144:1 1225:1 1276:1 1281:1 1284:2 1286:16
1 1284:3 1286:6
1 137:1 1144:1 1242:1 1276:1 1284:2 1286:1
1 263:1 482:1 512:1 859:1 1144:1 1233:1 1245:1 1275:1 1276:1 1283:1 1284:5 1286:11
1 469:1 1144:1 1228:1 1276:1 1284:2
1 1284:2 1286:20
1 137:1 254:1 263:1 321:1 409:1 469:1 481:1 482:1 585:1 761:1 1053:1 1086:1 1144:1 1216:1 1218:1 1223:1 1228:1 1233:1 1236:1 1242:1 1243:1 1245:1 1247:1 1250:1 1276:1 1281:1 1284:2
1 1284:2 1286:12
1 137:1 263:1 321:1 345:1 409:1 421:1 469:1 481:1 482:1 512:1 968:1 1144:1 1218:1 1228:1 1233:1 1241:1 1242:1 1243:1 1245:1 1247:1 1249:1 1261:1 1276:1 1283:1 1284:1
1 1284:2 1286:16
1 137:1 263:1 321:1 469:1 859:1 1144:1 1218:1 1228:1 1233:1 1242:1 1275:1 1276:1 1284:6 1286:81
1 1284:2 1286:17
1 137:1 263:1 321:1 345:1 421:1 469:1 481:1 482:1 512:1 559:1 639:1 1144:1 1167:1 1218:1 1226:1 1228:1 1233:1 1242:1 1243:1 1245:1 1249:1 1261:1 1267:1 1271:1 1276:1 1283:1 1284:2
1 1144:1 1276:1 1284:3 1286:584
1 1284:2 1286:1
1 1144:1 1276:1 1284:2 1286:3
1 133:1 482:1 1144:1 1234:1 1245:1 1276:1 1284:2 1286:16
1 137:1 263:1 321:1 421:1 469:1 481:1 482:1 512:1 513:1 1144:1 1165:1 1214:1 1218:1 1224:1 1228:1 1233:1 1242:1 1243:1 1245:1 1261:1 1276:1 1283:1 1284:1
1 137:1 263:1 268:1 394:1 481:1 1144:1 1222:1 1233:1 1242:1 1243:1 1246:1 1276:1 1284:3 1286:1
1 137:1 263:1 394:1 481:1 1144:1 1222:1 1233:1 1242:1 1243:1 1276:1 1284:2
1 263:1 1144:1 1233:1 1276:1 1284:2 1286:65
1 1144:1 1276:1 1284:2 1286:3
1 1284:2 1286:1
1 1144:1 1276:1 1284:2 1286:2
1 1144:1 1276:1 1284:4 1286:284
1 263:1 1144:1 1233:1 1276:1 1284:2 1286:2
1 1144:1 1276:1 1284:2 1286:1
1 263:1 1144:1 1233:1 1276:1 1284:2
1 1284:2 1286:2
1 137:1 263:1 321:1 409:1 421:1 469:1 481:1 482:1 513:1 1144:1 1214:1 1218:1 1228:1 1233:1 1242:1 1243:1 1245:1 1247:1 1261:1 1276:1 1284:1
1 263:1 409:1 1233:1 1247:1 1284:2 1286:14
1 1284:2 1286:21
1 409:1 1247:1 1284:2 1286:1
1 137:1 263:1 321:1 345:1 421:1 469:1 481:1 482:1 512:1 559:1 639:1 1144:1 1167:1 1218:1 1226:1 1228:1 1233:1 1242:1 1243:1 1245:1 1249:1 1261:1 1267:1 1271:1 1276:1 1283:1 1284:2
1 137:1 263:1 421:1 469:1 481:1 482:1 512:1 1144:1 1228:1 1233:1 1242:1 1243:1 1245:1 1261:1 1276:1 1283:1 1284:2
1 263:1 409:1 1144:1 1233:1 1247:1 1276:1 1284:2 1286:4
1 263:1 409:1 1144:1 1233:1 1247:1 1276:1 1284:2 1286:1
1 1144:1 1276:1 1284:5 1286:24
1 137:1 263:1 421:1 469:1 481:1 482:1 512:1 1144:1 1228:1 1233:1 1242:1 1243:1 1245:1 1261:1 1276:1 1283:1 1284:2
1 1284:2 1286:9
1 137:1 263:1 421:1 469:1 481:1 482:1 512:1 1144:1 1228:1 1233:1 1242:1 1243:1 1245:1 1261:1 1276:1 1283:1 1284:2
1 137:1 263:1 321:1 345:1 421:1 469:1 481:1 482:1 512:1 559:1 639:1 1144:1 1167:1 1218:1 1226:1 1228:1 1233:1 1242:1 1243:1 1245:1 1249:1 1261:1 1267:1 1271:1 1276:1 1283:1 1284:2
1 263:1 409:1 1144:1 1233:1 1247:1 1276:1 1284:2 1286:1
1 1284:2 1286:15
1 1144:1 1276:1 1284:2 1286:1
1 1284:2 1286:20
1 133:1 137:1 263:1 321:1 345:1 421:1 469:1 481:1 482:1 512:1 1144:1 1167:1 1218:1 1226:1 1228:1 1233:1 1234:1 1242:1 1243:1 1245:1 1249:1 1261:1 1276:1 1283:1 1284:1
1 134:1 263:1 268:1 693:1 1144:1 1233:1 1238:1 1246:1 1251:1 1276:1 1284:2
1 137:1 263:1 421:1 469:1 481:1 482:1 512:1 1144:1 1228:1 1233:1 1242:1 1243:1 1245:1 1261:1 1276:1 1283:1 1284:2
1 1144:1 1276:1 1284:2 1286:1
1 1284:2 1286:28
1 1284:2 1286:5
1 133:1 482:1 1234:1 1245:1 1284:2 1286:8
1 263:1 1086:1 1233:1 1281:1 1284:3 1286:11
1 1284:3 1286:3
1 1144:1 1276:1 1284:5 1286:40
1 263:1 409:1 1144:1 1233:1 1247:1 1276:1 1284:2 1286:4
1 409:1 482:1 1144:1 1245:1 1247:1 1276:1 1284:3 1286:32
1 1284:2 1286:13
1 137:1 263:1 321:1 469:1 859:1 1144:1 1218:1 1228:1 1233:1 1242:1 1275:1 1276:1 1284:6 1286:81
1 904:1 1254:1 1284:2 1286:19
1 137:1 263:1 421:1 469:1 481:1 482:1 512:1 1144:1 1228:1 1233:1 1242:1 1243:1 1245:1 1261:1 1276:1 1283:1 1284:2
1 263:1 409:1 1144:1 1233:1 1247:1 1276:1 1284:2 1286:1
1 1284:2 1286:24
1 137:1 263:1 268:1 394:1 481:1 1144:1 1222:1 1233:1 1242:1 1243:1 1246:1 1276:1 1284:5 1286:1
1 1284:2 1286:13
1 137:1 263:1 321:1 345:1 421:1 469:1 481:1 482:1 512:1 559:1 639:1 1144:1 1167:1 1218:1 1226:1 1228:1 1233:1 1242:1 1243:1 1245:1 1249:1 1261:1 1267:1 1271:1 1276:1 1283:1 1284:2
1 263:1 409:1 1144:1 1233:1 1247:1 1276:1 1284:2 1286:1
1 137:1 263:1 394:1 481:1 1144:1 1222:1 1233:1 1242:1 1243:1 1276:1 1284:2
1 1144:1 1276:1 1284:2
1 263:1 1144:1 1233:1 1276:1 1284:2
1 1144:1 1276:1 1284:3
1 137:1 263:1 321:1 469:1 481:1 482:1 586:1 1144:1 1218:1 1220:1 1228:1 1233:1 1242:1 1243:1 1245:1 1276:1 1284:5 1286:56
1 268:1 469:1 1144:1 1228:1 1246:1 1276:1 1284:6
1 137:1 263:1 321:1 469:1 481:1 859:1 1144:1 1218:1 1228:1 1233:1 1242:1 1243:1 1275:1 1276:1 1284:4 1286:71
1 263:1 409:1 1144:1 1233:1 1247:1 1276:1 1284:2 1286:4
1 1284:2 1286:1
1 263:1 409:1 1144:1 1233:1 1247:1 1276:1 1284:2 1286:4
1 409:1 1086:1 1144:1 1247:1 1276:1 1281:1 1284:2 1286:11
1 1284:2 1286:1
1 137:1 263:1 321:1 409:1 421:1 469:1 481:1 482:1 1144:1 1218:1 1228:1 1233:1 1242:1 1243:1 1245:1 1247:1 1261:1 1276:1 1284:2
1 137:1 263:1 321:1 345:1 421:1 469:1 481:1 482:1 512:1 559:1 639:1 1144:1 1167:1 1218:1 1226:1 1228:1 1233:1 1242:1 1243:1 1245:1 1249:1 1261:1 1267:1 1271:1 1276:1 1283:1 1284:2
1 1284:4 1286:7
1 137:1 263:1 321:1 409:1 421:1 469:1 481:1 482:1 1144:1 1218:1 1228:1 1233:1 1242:1 1243:1 1245:1 1247:1 1261:1 1276:1 1284:2
1 1284:2 1286:7
1 1144:1 1276:1 1284:2 1286:6
1 263:1 268:1 1144:1 1233:1 1246:1 1276:1 1284:7 1286:6731
1 263:1 482:1 512:1 859:1 1144:1 1233:1 1245:1 1275:1 1276:1 1283:1 1284:3 1286:31
1 1284:2 1286:1
1 137:1 268:1 394:1 409:1 458:1 550:1 971:1 1144:1 1221:1 1222:1 1242:1 1246:1 1247:1 1248:1 1259:1 1276:1 1284:3 1286:77
1 137:1 263:1 421:1 469:1 481:1 482:1 512:1 1144:1 1228:1 1233:1 1242:1 1243:1 1245:1 1261:1 1276:1 1283:1 1284:2
1 1284:2 1286:19
1 409:1 1144:1 1247:1 1276:1 1284:2 1286:4
1 746:1 1144:1 1225:1 1276:1 1284:2 1286:15
1 1144:1 1276:1 1284:3 1286:584
1 1284:2 1286:15
1 263:1 409:1 1144:1 1233:1 1247:1 1276:1 1284:2 1286:4
1 263:1 409:1 1144:1 1233:1 1247:1 1276:1 1284:2 1286:4
1 263:1 421:1 482:1 1144:1 1233:1 1245:1 1261:1 1276:1 1284:2
1 254:1 409:1 482:1 746:1 1223:1 1225:1 1245:1 1247:1 1284:2 1286:16
1 409:1 469:1 1086:1 1144:1 1228:1 1247:1 1276:1 1281:1 1284:5 1286:32
1 263:1 482:1 512:1 859:1 1144:1 1233:1 1245:1 1275:1 1276:1 1283:1 1284:5 1286:10
1 1144:1 1276:1 1284:2 1286:55
1 263:1 268:1 482:1 559:1 1144:1 1233:1 1245:1 1246:1 1267:1 1276:1 1284:7
1 263:1 409:1 1144:1 1233:1 1247:1 1276:1 1284:2 1286:2
1 482:1 904:1 1086:1 1245:1 1254:1 1281:1 1284:2 1286:34
1 409:1 469:1 1086:1 1144:1 1228:1 1247:1 1276:1 1281:1 1284:5 1286:32
1 263:1 409:1 1144:1 1233:1 1247:1 1276:1 1284:2 1286:1
1 133:1 254:1 409:1 746:1 1223:1 1225:1 1234:1 1247:1 1284:2 1286:21
1 1284:2 1286:13
1 133:1 254:1 904:1 1223:1 1234:1 1254:1 1284:2 1286:16
1 1144:1 1276:1 1284:3 1286:584
1 1284:2 1286:1
1 268:1 409:1 481:1 1144:1 1243:1 1246:1 1247:1 1276:1 1284:3 1286:1
1 137:1 263:1 321:1 345:1 421:1 469:1 481:1 482:1 512:1 559:1 639:1 1144:1 1167:1 1218:1 1226:1 1228:1 1233:1 1242:1 1243:1 1245:1 1249:1 1261:1 1267:1 1271:1 1276:1 1283:1 1284:2
1 137:1 189:1 260:1 263:1 421:1 469:1 482:1 512:1 513:1 896:1 1086:1 1144:1 1214:1 1228:1 1229:1 1232:1 1233:1 1242:1 1244:1 1245:1 1261:1 1276:1 1281:1 1283:1 1284:2
1 263:1 409:1 1144:1 1233:1 1247:1 1276:1 1284:2 1286:4
1 133:1 482:1 1234:1 1245:1 1284:2 1286:8
1 263:1 482:1 512:1 859:1 1144:1 1233:1 1245:1 1275:1 1276:1 1283:1 1284:5 1286:8
1 133:1 482:1 1086:1 1144:1 1234:1 1245:1 1276:1 1281:1 1284:1 1286:14
1 1284:2 1286:7
1 1284:2 1286:16
1 137:1 263:1 321:1 409:1 421:1 469:1 481:1 482:1 1144:1 1218:1 1228:1 1233:1 1242:1 1243:1 1245:1 1247:1 1261:1 1276:1 1284:2
1 263:2 699:1 1144:3 1233:2 1262:1 1276:3 1284:9
1 263:1 409:1 1144:1 1233:1 1247:1 1276:1 1284:2 1286:2
1 1284:2 1286:10
1 263:1 409:1 1144:1 1233:1 1247:1 1276:1 1284:2 1286:1
1 263:1 1144:1 1233:1 1276:1 1284:2 1286:4
1 482:1 1086:1 1144:1 1245:1 1276:1 1281:1 1284:2 1286:15
1 1284:2 1286:1
1 133:1 746:1 904:1 1086:1 1225:1 1234:1 1254:1 1281:1 1284:2 1286:8
1 263:1 469:1 481:1 482:1 1144:1 1228:1 1233:1 1243:1 1245:1 1276:1 1284:4 1286:22
1 263:1 1144:1 1233:1 1276:1 1284:2
1 263:1 409:1 1144:1 1233:1 1247:1 1276:1 1284:2 1286:4
1 263:1 409:1 1144:1 1233:1 1247:1 1276:1 1284:2 1286:1
1 1144:1 1276:1 1284:3 1286:584
1 263:1 409:1 1144:1 1233:1 1247:1 1276:1 1284:2 1286:1
1 263:1 469:1 481:1 482:1 1144:1 1228:1 1233:1 1243:1 1245:1 1276:1 1284:2 1286:47
1 137:1 263:1 321:1 345:1 421:1 469:1 481:1 482:1 512:1 559:1 639:1 1144:1 1167:1 1218:1 1226:1 1228:1 1233:1 1242:1 1243:1 1245:1 1249:1 1261:1 1267:1 1271:1 1276:1 1283:1 1284:2
1 263:1 409:1 1144:1 1233:1 1247:1 1276:1 1284:2 1286:1
1 137:1 263:1 321:1 469:1 481:1 482:1 1144:1 1218:1 1228:1 1233:1 1242:1 1243:1 1245:1 1276:1 1284:5 1286:32
1 137:1 263:1 321:1 421:1 469:1 482:1 512:1 1086:1 1144:1 1218:1 1228:1 1233:1 1242:1 1245:1 1261:1 1276:1 1281:1 1283:1 1284:2
1 1144:1 1276:1 1284:2 1286:2
1 137:1 263:1 321:1 345:1 409:1 469:1 482:1 512:1 1144:1 1218:1 1228:1 1233:1 1242:1 1245:1 1247:1 1249:1 1276:1 1283:1 1284:2
1 268:1 469:1 1144:1 1228:1 1246:1 1276:1 1284:6
1 1284:2 1286:19
1 137:1 263:1 321:1 345:1 421:1 469:1 481:1 482:1 512:1 559:1 639:1 1144:1 1167:1 1218:1 1226:1 1228:1 1233:1 1242:1 1243:1 1245:1 1249:1 1261:1 1267:1 1271:1 1276:1 1283:1 1284:2
1 1144:1 1276:1 1284:2
1 1284:2 1286:11
1 268:1 469:1 1144:1 1228:1 1246:1 1276:1 1284:7
1 1284:2 1286:12
1 137:1 263:1 321:1 409:1 421:1 469:1 481:1 482:1 1144:1 1218:1 1228:1 1233:1 1242:1 1243:1 1245:1 1247:1 1261:1 1276:1 1284:2
1 137:1 213:1 254:1 260:1 263:1 321:1 409:1 421:1 469:1 481:1 482:1 513:1 585:1 896:1 932:1 1053:1 1086:1 1144:1 1214:1 1216:1 1218:1 1223:1 1228:1 1229:1 1233:1 1242:1 1243:1 1244:1 1245:1 1247:1 1250:1 1261:1 1263:1 1276:1 1279:1 1281:1 1284:4
1 263:1 1144:1 1233:1 1276:1 1284:2
1 137:1 263:1 321:1 345:1 421:1 469:1 481:1 482:1 512:1 559:1 639:1 1144:1 1167:1 1218:1 1226:1 1228:1 1233:1 1242:1 1243:1 1245:1 1249:1 1261:1 1267:1 1271:1 1276:1 1283:1 1284:2
1 158:1 1270:1 1284:4
1 137:1 263:1 321:1 345:1 421:1 469:1 481:1 482:1 512:1 559:1 639:1 1144:1 1167:1 1218:1 1226:1 1228:1 1233:1 1242:1 1243:1 1245:1 1249:1 1261:1 1267:1 1271:1 1276:1 1283:1 1284:2
1 137:1 263:1 421:1 469:1 481:1 482:1 512:1 1144:1 1228:1 1233:1 1242:1 1243:1 1245:1 1261:1 1276:1 1283:1 1284:2
1 1144:1 1276:1 1284:3 1286:584
1 263:1 268:1 1144:1 1233:1 1246:1 1276:1 1284:7 1286:6731
1 1144:1 1276:1 1284:2 1286:3
1 133:1 263:1 409:1 482:1 1233:1 1234:1 1245:1 1247:1 1284:2 1286:21
1 1144:1 1276:1 1284:3 1286:584
1 137:1 263:3 268:1 394:1 481:1 699:1 1144:3 1222:1 1233:3 1242:1 1243:1 1246:1 1262:1 1276:3 1284:5 1286:1
1 1284:2 1286:10
1 133:1 263:1 1144:1 1233:1 1234:1 1276:1 1284:2 1286:16
1 1144:1 1276:1 1284:3 1286:164
1 1144:1 1276:1 1284:3 1286:584
1 263:1 1233:1 1284:2 1286:1
1 134:1 263:1 268:1 482:1 693:1 1144:1 1233:1 1238:1 1245:1 1246:1 1251:1 1276:1 1284:1
1 137:1 263:3 268:1 394:1 481:1 699:1 1144:3 1222:1 1233:3 1242:1 1243:1 1246:1 1262:1 1276:3 1284:9 1286:1
1 1144:1 1276:1 1284:3 1286:7
1 137:1 263:1 268:1 394:1 481:1 1144:1 1222:1 1233:1 1242:1 1243:1 1246:1 1276:1 1284:4 1286:4
1 1284:2 1286:1
1 1284:2 1286:15
1 137:1 213:1 254:1 260:1 263:1 321:1 409:1 421:1 469:1 481:1 482:1 513:1 564:1 585:1 896:1 1053:1 1086:1 1144:1 1214:1 1216:1 1218:1 1223:1 1228:1 1229:1 1233:1 1242:1 1243:1 1244:1 1245:1 1247:1 1250:1 1261:1 1263:1 1274:1 1276:1 1281:1 1284:4
1 1144:1 1276:1 1284:2 1286:3
1 263:1 1144:1 1233:1 1276:1 1284:2
1 263:1 1144:1 1233:1 1276:1 1284:3 1286:7
1 263:1 482:1 512:1 859:1 1144:1 1233:1 1245:1 1275:1 1276:1 1283:1 1284:5 1286:28
1 263:1 1144:1 1233:1 1276:1 1284:2
1 1144:1 1276:1 1284:3 1286:5
1 263:1 409:1 1144:1 1233:1 1247:1 1276:1 1284:2 1286:1
1 263:1 409:1 1144:1 1233:1 1247:1 1276:1 1284:2 1286:2
1 1144:1 1276:1 1284:3 1286:584
1 469:1 1144:1 1228:1 1276:1 1284:2
1 1144:1 1276:1 1284:2 1286:24
1 263:1 1086:1 1233:1 1281:1 1284:3 1286:11
1 137:1 261:1 263:1 321:1 409:1 469:1 481:1 482:1 1053:1 1086:1 1144:1 1218:1 1228:1 1230:1 1233:1 1242:1 1243:1 1245:1 1247:1 1250:1 1276:1 1281:1 1284:4
1 1284:2 1286:10
1 263:1 746:1 1225:1 1233:1 1284:2 1286:3
1 133:1 482:1 1234:1 1245:1 1284:2 1286:8
1 1284:2 1286:10
1 263:1 409:1 1144:1 1233:1 1247:1 1276:1 1284:2 1286:1
1 1144:1 1276:1 1284:2 1286:5
1 268:1 1144:1 1246:1 1276:1 1284:4 1286:38
1 1284:2 1286:14
1 263:1 409:1 1144:1 1233:1 1247:1 1276:1 1284:2 1286:1
1 1284:2 1286:11
1 263:1 409:1 1144:1 1233:1 1247:1 1276:1 1284:2 1286:2
1 133:1 469:1 746:1 1225:1 1228:1 1234:1 1284:2 1286:32
1 482:1 904:1 1086:1 1245:1 1254:1 1281:1 1284:2 1286:34
1 1144:1 1276:1 1284:5 1286:24
1 409:1 469:1 1086:1 1144:1 1228:1 1247:1 1276:1 1281:1 1284:5 1286:32
1 137:1 263:1 421:1 469:1 481:1 482:1 512:1 1144:1 1228:1 1233:1 1242:1 1243:1 1245:1 1261:1 1276:1 1283:1 1284:2
1 137:1 263:1 321:1 345:1 421:1 469:1 481:1 482:1 512:1 559:1 639:1 1144:1 1167:1 1218:1 1226:1 1228:1 1233:1 1242:1 1243:1 1245:1 1249:1 1261:1 1267:1 1271:1 1276:1 1283:1 1284:2
1 137:1 263:1 268:1 321:1 469:1 1144:1 1217:1 1218:1 1228:1 1233:1 1242:1 1246:1 1276:1 1284:4 1286:415
1 137:1 263:1 321:1 469:1 482:1 859:1 896:1 1144:1 1218:1 1228:1 1233:1 1242:1 1244:1 1245:1 1275:1 1276:1 1284:3 1286:14
1 1284:2 1286:20
1 1144:1 1276:1 1284:2 1286:2
1 1284:2 1286:15
1 263:1 1086:1 1233:1 1281:1 1284:3 1286:11
1 137:1 263:1 321:1 409:1 421:1 469:1 481:1 482:1 1144:1 1218:1 1228:1 1233:1 1242:1 1243:1 1245:1 1247:1 1261:1 1276:1 1284:2
1 133:1 746:1 1225:1 1234:1 1284:1 1286:1
1 1284:2 1286:17
1 1284:2 1286:3
1 1144:1 1276:1 1284:3 1286:1
1 263:1 1144:1 1233:1 1276:1 1284:2
1 1144:1 1276:1 1284:3 1286:584
1 137:1 263:1 321:1 409:1 421:1 469:1 481:1 482:1 1144:1 1218:1 1228:1 1233:1 1242:1 1243:1 1245:1 1247:1 1261:1 1276:1 1284:2
1 263:1 409:1 1144:1 1233:1 1247:1 1276:1 1284:2 1286:1
1 263:1 469:1 482:1 904:1 1144:1 1228:1 1233:1 1245:1 1254:1 1276:1 1284:2 1286:12
1 137:1 254:1 263:1 321:1 409:1 469:1 481:1 482:1 585:1 761:1 1053:1 1086:1 1144:1 1216:1 1218:1 1223:1 1228:1 1233:1 1236:1 1242:1 1243:1 1245:1 1247:1 1250:1 1276:1 1281:1 1284:2
1 1284:2 1286:21
1 137:1 263:1 421:1 469:1 481:1 482:1 512:1 1144:1 1228:1 1233:1 1242:1 1243:1 1245:1 1261:1 1276:1 1283:1 1284:2
1 1284:2 1286:1
1 1144:1 1276:1 1284:2 1286:3
1 1144:1 1264:1 1276:1 1284:1
1 133:1 482:1 1234:1 1245:1 1284:2 1286:8
1 263:1 409:1 469:1 482:1 1144:1 1228:1 1233:1 1245:1 1247:1 1276:1 1284:3 1286:2
1 268:1 469:1 1144:1 1228:1 1246:1 1276:1 1284:7
1 137:1 263:1 321:1 409:1 421:1 469:1 481:1 482:1 1144:1 1218:1 1228:1 1233:1 1242:1 1243:1 1245:1 1247:1 1261:1 1276:1 1284:2
1 1284:5 1286:8
1 137:1 263:1 321:1 345:1 421:1 469:1 481:1 482:1 512:1 559:1 639:1 1144:1 1167:1 1218:1 1226:1 1228:1 1233:1 1242:1 1243:1 1245:1 1249:1 1261:1 1267:1 1271:1 1276:1 1283:1 1284:2
1 1284:2 1286:3
1 1284:1 1286:14
1 481:1 1144:1 1243:1 1276:1 1284:2 1286:6
1 1144:1 1276:1 1284:3 1286:584
1 904:1 1144:1 1254:1 1276:1 1284:2 1286:15
1 1284:3 1286:3
1 746:1 1086:1 1144:1 1225:1 1276:1 1281:1 1284:2 1286:11
1 263:1 409:1 1144:1 1233:1 1247:1 1276:1 1284:2 1286:4
1 1144:2 1276:2 1284:3 1286:131
1 1284:2 1286:17
1 263:1 1144:1 1233:1 1276:1 1284:2
1 137:1 254:1 263:1 321:1 409:1 469:1 481:1 482:1 585:1 761:1 1053:1 1086:1 1144:1 1216:1 1218:1 1223:1 1228:1 1233:1 1236:1 1242:1 1243:1 1245:1 1247:1 1250:1 1276:1 1281:1 1284:2
1 263:1 409:1 1144:1 1233:1 1247:1 1276:1 1284:2 1286:1
1 268:1 1144:1 1246:1 1276:1 1284:6
1 133:1 482:1 1234:1 1245:1 1284:2 1286:8
1 137:1 263:1 268:1 394:1 481:1 1144:1 1222:1 1233:1 1242:1 1243:1 1246:1 1276:1 1284:4 1286:4
1 409:1 469:1 746:1 1144:1 1225:1 1228:1 1247:1 1276:1 1284:2 1286:1
1 1284:2 1286:7
1 1144:1 1276:1 1284:3 1286:584
1 1284:2 1286:1
1 263:1 268:1 1144:1 1233:1 1246:1 1276:1 1284:7 1286:1333
1 137:1 263:1 321:1 409:1 421:1 469:1 481:1 482:1 1144:1 1218:1 1228:1 1233:1 1242:1 1243:1 1245:1 1247:1 1261:1 1276:1 1284:2
1 1144:1 1276:1 1284:2 1286:24
1 263:1 409:1 1144:1 1233:1 1247:1 1276:1 1284:2 1286:1
1 1144:1 1276:1 1284:3 1286:584
1 1284:2 1286:10
1 137:1 263:1 421:1 481:1 482:1 896:1 1144:1 1233:1 1242:1 1243:1 1244:1 1245:1 1261:1 1276:1 1284:2
1 409:1 469:1 746:1 1144:1 1225:1 1228:1 1247:1 1276:1 1284:2 1286:1
1 137:1 263:1 321:1 345:1 421:1 469:1 482:1 512:1 1144:1 1167:1 1218:1 1226:1 1228:1 1233:1 1242:1 1245:1 1249:1 1261:1 1276:1 1283:1 1284:2
1 1144:1 1276:1 1284:2 1286:3
1 1144:1 1276:1 1284:3 1286:584
1 1144:1 1276:1 1284:3 1286:584
1 263:1 746:1 904:1 1144:1 1225:1 1233:1 1254:1 1276:1 1284:2 1286:13
1 409:1 746:1 1225:1 1247:1 1284:2 1286:16
1 409:1 469:1 746:1 1144:1 1225:1 1228:1 1247:1 1276:1 1284:2 1286:1
1 133:1 409:1 746:1 1225:1 1234:1 1247:1 1284:2 1286:40
1 133:1 469:1 1144:1 1228:1 1234:1 1276:1 1284:3 1286:39
1 1284:2 1286:3
1 1284:2 1286:1
1 137:1 263:1 321:1 469:1 859:1 1144:1 1218:1 1228:1 1233:1 1242:1 1275:1 1276:1 1284:6 1286:81
1 137:1 263:1 321:1 345:1 421:1 469:1 481:1 482:1 512:1 559:1 639:1 1144:1 1167:1 1218:1 1226:1 1228:1 1233:1 1242:1 1243:1 1245:1 1249:1 1261:1 1267:1 1271:1 1276:1 1283:1 1284:2
1 133:1 482:1 1144:1 1234:1 1245:1 1276:1 1284:2 1286:16
1 137:1 263:1 321:1 469:1 859:1 1144:1 1218:1 1228:1 1233:1 1242:1 1275:1 1276:1 1284:6 1286:81
1 469:1 482:1 1144:1 1228:1 1245:1 1276:1 1284:3 1286:32
1 1284:2 1286:3
1 1144:1 1276:1 1284:3 1286:584
1 263:1 409:1 482:1 1233:1 1245:1 1247:1 1284:3 1286:33
1 268:1 1144:1 1246:1 1276:1 1284:7 1286:87
1 137:1 263:1 321:1 469:1 481:1 482:1 859:1 1144:1 1218:1 1228:1 1233:1 1242:1 1243:1 1245:1 1275:1 1276:1 1284:4 1286:52
1 133:1 482:1 1086:1 1234:1 1245:1 1281:1 1284:2 1286:14
1 137:1 263:1 321:1 421:1 469:1 482:1 512:1 513:1 1144:1 1214:1 1218:1 1228:1 1233:1 1242:1 1245:1 1261:1 1276:1 1283:1 1284:1
1 1284:2 1286:17
1 1144:1 1276:1 1284:2 1286:1
1 482:1 904:1 1086:1 1245:1 1254:1 1281:1 1284:2 1286:31
1 137:1 263:1 421:1 469:1 481:1 482:1 512:1 1144:1 1228:1 1233:1 1242:1 1243:1 1245:1 1261:1 1276:1 1283:1 1284:2
1 263:1 409:1 1144:1 1233:1 1247:1 1276:1 1284:2 1286:1
1 1284:2 1286:7
1 1144:1 1276:1 1284:3 1286:584
1 746:1 1086:1 1225:1 1281:1 1284:2 1286:20
1 137:1 263:1 394:1 481:1 1144:1 1222:1 1233:1 1242:1 1243:1 1276:1 1284:2
1 137:1 263:1 321:1 345:1 421:1 469:1 481:1 482:1 512:1 559:1 639:1 1144:1 1167:1 1218:1 1226:1 1228:1 1233:1 1242:1 1243:1 1245:1 1249:1 1261:1 1267:1 1271:1 1276:1 1283:1 1284:2
1 254:1 263:1 469:1 746:1 1223:1 1225:1 1228:1 1233:1 1284:2 1286:6
1 1144:1 1276:1 1284:3 1286:584
1 263:1 409:1 1144:1 1233:1 1247:1 1276:1 1284:2 1286:1
1 1144:1 1276:1 1284:3 1286:2
1 469:1 482:1 746:1 1086:1 1225:1 1228:1 1245:1 1281:1 1284:2 1286:25
1 1284:2 1286:24
1 263:1 469:1 481:1 482:1 1144:1 1228:1 1233:1 1243:1 1245:1 1276:1 1284:4 1286:22
1 133:1 482:1 1144:1 1234:1 1245:1 1276:1 1284:2 1286:12
1 263:1 1144:1 1233:1 1276:1 1284:2
1 133:1 482:1 1234:1 1245:1 1284:2 1286:8
1 1284:2 1286:15
1 137:1 481:1 859:1 1144:1 1242:1 1243:1 1275:1 1276:1 1284:2
1 263:1 409:1 482:1 1144:1 1233:1 1245:1 1247:1 1276:1 1284:3 1286:4
1 137:1 263:1 321:1 345:1 421:1 469:1 481:1 482:1 512:1 559:1 639:1 1144:1 1167:1 1218:1 1226:1 1228:1 1233:1 1242:1 1243:1 1245:1 1249:1 1261:1 1267:1 1271:1 1276:1 1283:1 1284:2
1 137:1 263:1 321:1 409:1 421:1 469:1 481:1 482:1 1144:1 1218:1 1228:1 1233:1 1242:1 1243:1 1245:1 1247:1 1261:1 1276:1 1284:2
1 409:1 469:1 1144:1 1228:1 1247:1 1276:1 1284:3 1286:39
1 1284:2 1286:1
1 1144:1 1276:1 1284:3 1286:584
1 137:1 263:1 321:1 345:1 421:1 469:1 481:1 482:1 512:1 559:1 639:1 1144:1 1167:1 1218:1 1226:1 1228:1 1233:1 1242:1 1243:1 1245:1 1249:1 1261:1 1267:1 1271:1 1276:1 1283:1 1284:2
1 1144:1 1276:1 1284:3 1286:712
1 133:1 482:1 1234:1 1245:1 1284:2 1286:8
1 137:1 263:1 321:1 469:1 1144:1 1218:1 1228:1 1233:1 1242:1 1276:1 1284:3 1286:2
1 263:1 409:1 1144:1 1233:1 1247:1 1276:1 1284:2 1286:1
1 1144:1 1276:1 1284:2
1 469:1 746:1 1086:1 1225:1 1228:1 1281:1 1284:2 1286:33
1 1284:2 1286:15
1 1284:2 1286:17
1 1284:2 1286:7
1 469:1 482:1 904:1 1228:1 1245:1 1254:1 1284:2 1286:1
1 137:1 189:1 260:1 263:1 421:1 469:1 482:1 512:1 513:1 896:1 1086:1 1144:1 1214:1 1228:1 1229:1 1232:1 1233:1 1242:1 1244:1 1245:1 1261:1 1276:1 1281:1 1283:1 1284:1
1 263:1 482:1 746:1 1225:1 1233:1 1245:1 1284:3 1286:33
1 137:1 263:1 321:1 469:1 482:1 1144:1 1218:1 1228:1 1233:1 1242:1 1245:1 1276:1 1284:4 1286:69
1 1144:1 1276:1 1284:2 1286:3
1 137:1 263:1 321:1 345:1 421:1 469:1 481:1 482:1 512:1 559:1 639:1 1144:1 1167:1 1218:1 1226:1 1228:1 1233:1 1242:1 1243:1 1245:1 1249:1 1261:1 1267:1 1271:1 1276:1 1283:1 1284:2
1 469:1 482:1 904:1 1228:1 1245:1 1254:1 1284:2 1286:1
1 151:1 263:1 469:1 481:1 482:1 512:1 548:1 1053:1 1144:1 1228:1 1233:1 1243:1 1245:1 1250:1 1256:1 1265:1 1276:1 1283:1 1284:4
1 263:1 409:1 1144:1 1233:1 1247:1 1276:1 1284:2 1286:1
1 137:1 263:1 321:1 345:1 421:1 469:1 481:1 482:1 512:1 559:1 639:1 1144:1 1167:1 1218:1 1226:1 1228:1 1233:1 1242:1 1243:1 1245:1 1249:1 1261:1 1267:1 1271:1 1276:1 1283:1 1284:2
1 263:1 268:1 1144:1 1233:1 1246:1 1276:1 1284:7 1286:6731
1 137:1 263:1 321:1 469:1 481:1 482:1 1144:1 1218:1 1228:1 1233:1 1242:1 1243:1 1245:1 1276:1 1284:5 1286:38
1 1144:1 1276:1 1284:3 1286:1
1 746:1 1086:1 1144:1 1225:1 1276:1 1281:1 1284:2 1286:11
1 1144:1 1276:1 1284:2 1286:2
1 1144:1 1276:1 1284:2 1286:24
1 1284:2 1286:16
1 137:1 263:1 321:1 469:1 482:1 1144:1 1218:1 1228:1 1233:1 1242:1 1245:1 1276:1 1284:3 1286:76
1 167:1 200:1 542:1 611:1 638:1 722:1 913:1 1144:1 1239:1 1240:1 1252:1 1253:1 1260:1 1269:1 1276:1 1277:1 1282:1 1284:2 1286:4
1 263:1 409:1 1144:1 1233:1 1247:1 1276:1 1284:2 1286:4
1 1284:2 1286:10
1 1144:1 1276:1 1284:3 1286:584
1 1144:1 1276:1 1284:1
1 137:1 263:1 321:1 345:1 421:1 469:1 481:1 482:1 512:1 559:1 639:1 1144:1 1167:1 1218:1 1226:1 1228:1 1233:1 1242:1 1243:1 1245:1 1249:1 1261:1 1267:1 1271:1 1276:1 1283:1 1284:2
1 137:1 263:1 321:1 469:1 481:1 482:1 859:1 896:1 1144:1 1218:1 1228:1 1233:1 1242:1 1243:1 1244:1 1245:1 1275:1 1276:1 1284:1 1286:91
1 1284:2 1286:20
1 1284:2 1286:9
1 1284:2 1286:12
1 263:1 1144:1 1233:1 1276:1 1284:2
1 1284:2 1286:7
1 1144:1 1276:1 1284:2 1286:32
1 137:1 260:1 263:1 321:1 482:1 1144:1 1218:1 1229:1 1233:1 1242:1 1245:1 1276:1 1284:1
1 1284:1 1286:21
1 1284:2 1286:29
1 263:1 409:1 1144:1 1233:1 1247:1 1276:1 1284:2 1286:1
1 1284:2 1286:13
1 137:1 263:1 421:1 469:1 481:1 482:1 1144:1 1228:1 1233:1 1242:1 1243:1 1245:1 1261:1 1276:1 1284:3
1 137:1 263:1 268:1 394:1 481:1 1144:1 1222:1 1233:1 1242:1 1243:1 1246:1 1276:1 1284:4 1286:1
1 1284:2 1286:13
1 263:1 409:1 1144:1 1233:1 1247:1 1276:1 1284:2 1286:1
1 263:1 409:1 1144:1 1233:1 1247:1 1276:1 1284:2 1286:1
1 263:1 1233:1 1284:2 1286:1
1 263:1 469:1 513:1 585:1 1086:1 1144:1 1214:1 1216:1 1228:1 1233:1 1268:1 1276:1 1281:1 1284:1
1 469:1 1144:1 1228:1 1276:1 1284:2
1 1144:1 1276:1 1284:2 1286:3
1 469:1 1144:1 1228:1 1276:1 1284:2 1286:1
1 1284:2 1286:15
1 1144:1 1276:1 1284:3 1286:584
1 263:1 409:1 1144:1 1233:1 1247:1 1276:1 1284:2 1286:1
1 469:1 1144:1 1228:1 1276:1 1284:2
1 1144:1 1276:1 1284:3 1286:584
1 1144:1 1276:1 1284:3 1286:7
1 1144:1 1276:1 1284:1 1286:4
1 409:1 1247:1 1284:2 1286:1
1 263:1 409:1 1144:1 1233:1 1247:1 1276:1 1284:2 1286:1
1 1284:2 1286:24
1 167:1 200:1 542:1 611:1 638:1 722:1 913:1 1144:1 1239:1 1240:1 1252:1 1253:1 1260:1 1269:1 1276:1 1277:1 1282:1 1284:2 1286:4
1 263:1 409:1 1144:1 1233:1 1247:1 1276:1 1284:2 1286:15
1 1144:1 1276:1 1284:3 1286:584
1 268:1 1144:1 1246:1 1276:1 1284:6
1 1144:1 1276:1 1284:2 1286:24
1 263:1 1086:1 1233:1 1281:1 1284:2 1286:16
1 1284:2 1286:16
1 1284:2 1286:24
1 1284:2 1286:13
1 1144:1 1276:1 1284:3 1286:584
1 254:1 409:1 482:1 746:1 1223:1 1225:1 1245:1 1247:1 1284:2 1286:16
1 263:1 409:1 1144:1 1233:1 1247:1 1276:1 1284:2 1286:1
1 1144:1 1276:1 1284:1 1286:68
1 482:1 1144:1 1245:1 1276:1 1284:2 1286:15
1 263:1 469:1 481:1 482:1 1144:1 1228:1 1233:1 1243:1 1245:1 1276:1 1284:3
1 263:1 409:1 1144:1 1233:1 1247:1 1276:1 1284:2 1286:1
1 263:1 864:1 1144:1 1233:1 1276:1 1278:1 1284:2 1286:70
1 1284:2 1286:17
1 137:1 263:1 421:1 469:1 481:1 482:1 512:1 1144:1 1228:1 1233:1 1242:1 1243:1 1245:1 1261:1 1276:1 1283:1 1284:2
1 1144:1 1276:1 1284:3 1286:584
1 1086:1 1144:1 1276:1 1281:1 1284:2 1286:14
1 263:1 409:1 1144:1 1233:1 1247:1 1276:1 1284:2 1286:1
1 263:1 409:1 1144:1 1233:1 1247:1 1276:1 1284:2 1286:1
1 409:1 1247:1 1284:2 1286:1
1 1144:1 1276:1 1284:5 1286:24
1 1144:1 1276:1 1284:2
1 746:1 904:1 1225:1 1254:1 1284:2 1286:3
1 258:1 260:1 263:1 904:1 1046:1 1144:1 1227:1 1229:1 1231:1 1233:1 1254:1 1276:1 1284:2
1 1144:1 1276:1 1284:2 1286:5
1 409:1 1086:1 1247:1 1281:1 1284:2 1286:1
1 263:1 482:1 512:1 859:1 1144:1 1233:1 1245:1 1275:1 1276:1 1283:1 1284:5 1286:31
1 1144:1 1276:1 1284:4
1 1144:1 1276:1 1284:2 1286:2
1 263:1 409:1 1144:1 1233:1 1247:1 1276:1 1284:2 1286:1
1 1144:1 1276:1 1284:2 1286:2
1 746:1 904:1 1225:1 1254:1 1284:2 1286:3
1 268:1 1144:1 1246:1 1276:1 1284:6 1286:42
1 1284:2 1286:15
1 263:1 409:1 1144:1 1233:1 1247:1 1276:1 1284:2 1286:1
1 1144:1 1276:1 1284:3 1286:2
1 263:1 1233:1 1284:2 1286:9
1 263:1 1086:1 1144:1 1233:1 1276:1 1281:1 1284:2 1286:16
1 263:1 482:1 512:1 859:1 1144:1 1233:1 1245:1 1275:1 1276:1 1283:1 1284:5 1286:33
1 1144:1 1276:1 1284:2 1286:2
1 1144:1 1276:1 1284:2 1286:1636
1 1144:1 1276:1 1284:2 1286:1
1 1284:2 1286:15
1 409:1 746:1 1144:1 1225:1 1247:1 1276:1 1284:2 1286:13
1 1144:1 1276:1 1284:3 1286:7
1 1284:2 1286:10
1 1144:1 1276:1 1284:3 1286:2
1 746:1 1144:1 1225:1 1276:1 1284:2 1286:12
1 1144:1 1276:1 1284:3 1286:584
1 263:1 481:1 482:1 1144:1 1233:1 1243:1 1245:1 1276:1 1284:5 1286:31
1 167:1 200:1 542:1 611:1 638:1 722:1 913:1 1144:1 1239:1 1240:1 1252:1 1253:1 1260:1 1269:1 1276:1 1277:1 1282:1 1284:2 1286:4
1 137:1 263:1 268:1 469:1 932:1 937:1 1144:1 1215:1 1228:1 1233:1 1242:1 1246:1 1276:1 1279:1 1284:1 1286:12
1 263:1 409:1 1144:1 1233:1 1247:1 1276:1 1284:2 1286:2
1 137:1 263:1 321:1 345:1 421:1 469:1 481:1 482:1 512:1 559:1 639:1 1144:1 1167:1 1218:1 1226:1 1228:1 1233:1 1242:1 1243:1 1245:1 1249:1 1261:1 1267:1 1271:1 1276:1 1283:1 1284:2
1 133:1 1086:1 1144:1 1234:1 1276:1 1281:1 1284:2 1286:14
1 137:1 263:1 421:1 481:1 482:1 512:1 1144:1 1233:1 1242:1 1243:1 1245:1 1261:1 1276:1 1283:1 1284:2
1 137:1 263:1 321:1 409:1 421:1 469:1 481:1 482:1 1144:1 1218:1 1228:1 1233:1 1242:1 1243:1 1245:1 1247:1 1261:1 1276:1 1284:2
1 1284:2 1286:15
1 137:1 263:1 585:1 1144:1 1216:1 1233:1 1242:1 1276:1 1284:2
1 263:1 268:1 321:1 469:1 1144:1 1218:1 1228:1 1233:1 1246:1 1276:1 1284:7 1286:4
1 1144:1 1276:1 1284:3 1286:584
1 1284:2 1286:20
1 137:1 263:1 394:1 481:1 1144:2 1165:1 1222:1 1224:1 1233:1 1242:1 1243:1 1276:2 1284:9
1 254:1 263:1 409:1 482:1 746:1 1223:1 1225:1 1233:1 1245:1 1247:1 1284:2 1286:1
1 469:1 1144:1 1228:1 1276:1 1284:2
1 1144:1 1276:1 1284:2 1286:24
1 263:1 409:1 1144:1 1233:1 1247:1 1276:1 1284:2 1286:1
1 1144:1 1276:1 1284:2 1286:3
1 137:1 263:1 421:1 469:1 481:1 482:1 512:1 1144:1 1228:1 1233:1 1242:1 1243:1 1245:1 1261:1 1276:1 1283:1 1284:2
1 263:1 409:1 469:1 482:1 1144:1 1228:1 1233:1 1245:1 1247:1 1276:1 1284:3 1286:5
1 1284:2 1286:24
1 1284:2 1286:3
1 263:1 409:1 1144:1 1233:1 1247:1 1276:1 1284:2 1286:1
1 137:1 263:1 421:1 469:1 481:1 482:1 512:1 1144:1 1228:1 1233:1 1242:1 1243:1 1245:1 1261:1 1276:1 1283:1 1284:2
1 1144:1 1276:1 1284:2 1286:3
1 263:1 421:1 482:1 1144:1 1233:1 1245:1 1261:1 1276:1 1284:3
1 263:1 482:1 512:1 859:1 1144:1 1233:1 1245:1 1275:1 1276:1 1283:1 1284:5 1286:36
1 482:1 746:1 1144:1 1225:1 1245:1 1276:1 1284:2 1286:1
1 1284:5
1 263:1 409:1 1144:1 1233:1 1247:1 1276:1 1284:2 1286:2
1 746:1 904:1 1225:1 1254:1 1284:2 1286:3
1 137:1 263:1 421:1 469:1 481:1 482:1 512:1 1144:1 1228:1 1233:1 1242:1 1243:1 1245:1 1261:1 1276:1 1283:1 1284:2
1 1284:2 1286:10
1 137:1 263:1 268:1 394:1 481:1 1144:1 1222:1 1233:1 1242:1 1243:1 1246:1 1276:1 1284:3
1 1284:2 1286:15
1 1144:1 1276:1 1284:3 1286:584
1 268:1 1144:1 1246:1 1276:1 1284:6 1286:42
1 263:1 409:1 1144:1 1233:1 1247:1 1276:1 1284:2 1286:1
1 137:1 263:1 268:1 394:1 481:1 1144:1 1222:1 1233:1 1242:1 1243:1 1246:1 1276:1 1284:4 1286:3
1 263:1 482:1 512:1 859:1 1144:1 1233:1 1245:1 1275:1 1276:1 1283:1 1284:5 1286:24
1 263:1 409:1 1144:1 1233:1 1247:1 1276:1 1284:2 1286:1
1 409:1 482:1 1144:1 1245:1 1247:1 1276:1 1284:3 1286:32
1 1284:2 1286:7
1 137:1 263:1 394:1 481:1 1144:1 1222:1 1233:1 1242:1 1243:1 1276:1 1284:3
1 137:1 263:1 321:1 409:1 421:1 469:1 481:1 482:1 1144:1 1218:1 1228:1 1233:1 1242:1 1243:1 1245:1 1247:1 1261:1 1276:1 1284:2
1 137:1 263:1 321:1 482:1 761:1 1144:1 1218:1 1233:1 1236:1 1242:1 1245:1 1276:1 1284:2
1 1144:1 1276:1 1284:4
1 263:1 904:1 1233:1 1254:1 1284:3 1286:7
1 1284:3 1286:7
1 1284:2 1286:10
1 1284:2 1286:10
1 263:1 409:1 482:1 1144:1 1233:1 1245:1 1247:1 1276:1 1284:3 1286:4
1 137:1 263:1 406:1 548:1 971:1 1144:1 1233:1 1242:1 1248:1 1256:1 1258:1 1276:1 1284:3
1 137:1 263:1 421:1 469:1 481:1 482:1 761:1 1144:1 1228:1 1233:1 1236:1 1242:1 1243:1 1245:1 1261:1 1276:1 1284:3
1 137:1 263:1 321:1 345:1 421:1 469:1 481:1 482:1 512:1 559:1 639:1 1144:1 1167:1 1218:1 1226:1 1228:1 1233:1 1242:1 1243:1 1245:1 1249:1 1261:1 1267:1 1271:1 1276:1 1283:1 1284:2
1 1284:3 1286:5
1 1144:1 1276:1 1284:2 1286:3
1 1144:1 1276:1 1284:2
1 137:1 263:1 321:1 345:1 421:1 469:1 481:1 482:1 512:1 559:1 639:1 1144:1 1167:1 1218:1 1226:1 1228:1 1233:1 1242:1 1243:1 1245:1 1249:1 1261:1 1267:1 1271:1 1276:1 1283:1 1284:2
1 268:1 469:1 1144:1 1228:1 1246:1 1276:1 1284:6
1 137:1 254:1 263:1 321:1 409:1 469:1 481:1 482:1 585:1 761:1 1053:1 1086:1 1144:1 1216:1 1218:1 1223:1 1228:1 1233:1 1236:1 1242:1 1243:1 1245:1 1247:1 1250:1 1276:1 1281:1 1284:2
1 263:1 482:1 746:1 1225:1 1233:1 1245:1 1284:3 1286:33
1 137:1 263:1 321:1 345:1 421:1 469:1 481:1 482:1 512:1 559:1 639:1 1144:1 1167:1 1218:1 1226:1 1228:1 1233:1 1242:1 1243:1 1245:1 1249:1 1261:1 1267:1 1271:1 1276:1 1283:1 1284:2
1 482:1 1086:1 1245:1 1281:1 1284:2 1286:3
1 137:1 263:1 321:1 345:1 421:1 469:1 482:1 512:1 1144:1 1167:1 1218:1 1226:1 1228:1 1233:1 1242:1 1245:1 1249:1 1261:1 1276:1 1283:1 1284:2
1 263:1 409:1 1144:1 1233:1 1247:1 1276:1 1284:2 1286:2
1 263:1 1144:1 1233:1 1276:1 1284:2 1286:2
1 263:1 409:1 1144:1 1233:1 1247:1 1276:1 1284:2 1286:1
1 263:1 904:1 1144:1 1233:1 1254:1 1276:1 1284:2 1286:16
1 263:1 482:1 512:1 859:1 1144:1 1233:1 1245:1 1275:1 1276:1 1283:1 1284:5 1286:34
1 133:1 263:1 1144:1 1233:1 1234:1 1276:1 1284:2 1286:16
1 137:1 263:1 482:1 1144:1 1233:1 1242:1 1245:1 1276:1 1284:2
1 263:1 1144:1 1233:1 1276:1 1284:2 1286:4
1 1284:2 1286:25
1 263:1 409:1 482:1 1144:1 1233:1 1245:1 1247:1 1276:1 1284:3 1286:4
1 263:1 268:1 409:1 1144:1 1233:1 1246:1 1247:1 1276:1 1284:3
1 1144:1 1276:1 1284:4 1286:59
1 133:1 482:1 1234:1 1245:1 1284:2 1286:8
1 137:1 263:1 321:1 469:1 481:1 482:1 1144:1 1218:1 1228:1 1233:1 1242:1 1243:1 1245:1 1276:1 1284:5 1286:38
1 1284:2 1286:3
1 263:1 409:1 1144:1 1233:1 1247:1 1276:1 1284:2 1286:1
1 137:1 263:1 321:1 345:1 421:1 469:1 482:1 512:1 1144:1 1167:1 1218:1 1226:1 1228:1 1233:1 1242:1 1245:1 1249:1 1261:1 1276:1 1283:1 1284:2
1 1284:2 1286:20
1 1144:1 1276:1 1284:2 1286:24
1 268:1 1144:1 1246:1 1276:1 1284:6 1286:423
1 1284:2 1286:18
1 268:1 1144:1 1246:1 1276:1 1284:6
1 137:1 263:1 321:1 345:1 409:1 469:1 482:1 512:1 1144:1 1218:1 1228:1 1233:1 1242:1 1245:1 1247:1 1249:1 1276:1 1283:1 1284:2
1 137:1 263:1 321:1 409:1 421:1 469:1 481:1 482:1 1144:1 1218:1 1228:1 1233:1 1242:1 1243:1 1245:1 1247:1 1261:1 1276:1 1284:2
1 1144:1 1276:1 1284:2 1286:1
1 1144:1 1276:1 1284:2 1286:24
1 1284:2 1286:15
1 409:1 1247:1 1284:2 1286:1
1 137:1 263:1 321:1 345:1 421:1 449:1 469:1 481:1 482:1 512:1 968:1 1144:1 1167:1 1218:1 1226:1 1228:1 1233:1 1241:1 1242:1 1243:1 1245:1 1249:1 1261:1 1276:1 1280:1 1283:1 1284:2
1 904:1 1086:1 1144:1 1254:1 1276:1 1281:1 1284:2 1286:16
1 1284:2 1286:16
1 1284:2 1286:1
1 1144:1 1276:1 1284:5 1286:97
1 134:1 137:1 263:1 268:1 481:1 482:1 693:1 1144:1 1233:1 1238:1 1242:1 1243:1 1245:1 1246:1 1251:1 1276:1 1284:3
1 263:1 1144:1 1233:1 1276:1 1284:2 1286:96
1 263:1 409:1 1144:1 1233:1 1247:1 1276:1 1284:2 1286:1
1 263:1 409:1 1144:1 1233:1 1247:1 1276:1 1284:2 1286:1
1 263:1 409:1 1144:1 1233:1 1247:1 1276:1 1284:2 1286:4
1 1144:1 1276:1 1284:5 1286:24
1 1284:4 1286:7
1 137:1 263:1 268:1 394:1 481:1 1144:1 1222:1 1233:1 1242:1 1243:1 1246:1 1276:1 1284:3 1286:2
1 409:1 746:1 1144:1 1225:1 1247:1 1276:1 1284:2 1286:13
1 1144:1 1276:1 1284:2 1286:3
1 1144:1 1276:1 1284:2 1286:2
1 137:1 263:1 321:1 469:1 481:1 482:1 1144:1 1218:1 1228:1 1233:1 1242:1 1243:1 1245:1 1276:1 1284:5 1286:52
1 409:1 904:1 1144:1 1247:1 1254:1 1276:1 1284:2 1286:11
1 191:1 1237:1 1284:2
1 1144:1 1276:1 1284:4
1 137:1 263:1 321:1 409:1 421:1 469:1 481:1 482:1 1144:1 1218:1 1228:1 1233:1 1242:1 1243:1 1245:1 1247:1 1261:1 1276:1 1284:2
1 263:1 421:1 482:1 1144:1 1233:1 1245:1 1261:1 1276:1 1284:3
1 746:1 904:1 1144:1 1225:1 1254:1 1276:1 1284:2 1286:16
1 263:1 409:1 1144:1 1233:1 1247:1 1276:1 1284:2 1286:1
1 263:1 1144:1 1233:1 1276:1 1284:2 1286:2
1 409:1 469:1 1086:1 1144:1 1228:1 1247:1 1276:1 1281:1 1284:2 1286:13
1 1284:2 1286:24
1 1284:2 1286:1
1 1144:1 1276:1 1284:2 1286:624
1 1144:1 1276:1 1284:3 1286:584
1 1284:2 1286:10
1 133:1 482:1 1234:1 1245:1 1284:2 1286:8
1 263:1 482:1 512:1 859:1 1144:1 1233:1 1245:1 1275:1 1276:1 1283:1 1284:5 1286:24
1 1144:1 1276:1 1284:3 1286:584
1 1144:1 1276:1 1284:4
1 1144:1 1276:1 1284:2 1286:24
1 263:1 998:1 1144:1 1233:1 1273:1 1276:1 1284:1
1 482:1 1144:1 1245:1 1276:1 1284:2 1286:18
1 1144:1 1276:1 1284:3 1286:584
1 137:1 254:1 263:1 321:1 409:1 469:1 481:1 482:1 585:1 761:1 1053:1 1086:1 1144:1 1216:1 1218:1 1223:1 1228:1 1233:1 1236:1 1242:1 1243:1 1245:1 1247:1 1250:1 1276:1 1281:1 1284:2
1 137:1 263:1 421:1 469:1 481:1 482:1 512:1 1144:1 1228:1 1233:1 1242:1 1243:1 1245:1 1261:1 1276:1 1283:1 1284:2
1 137:1 263:1 321:1 345:1 421:1 469:1 481:1 482:1 512:1 559:1 639:1 1144:1 1167:1 1218:1 1226:1 1228:1 1233:1 1242:1 1243:1 1245:1 1249:1 1261:1 1267:1 1271:1 1276:1 1283:1 1284:2
1 409:1 1144:1 1247:1 1276:1 1284:2 1286:4
1 1144:1 1276:1 1284:2 1286:3
1 137:1 189:1 263:1 268:1 321:1 394:1 409:1 425:1 469:1 481:1 482:1 937:1 968:1 971:1 998:1 1053:1 1144:1 1165:1 1215:1 1218:1 1222:1 1224:1 1228:1 1232:1 1233:1 1241:1 1242:1 1243:1 1245:1 1246:1 1247:1 1248:1 1250:1 1266:1 1273:1 1276:1 1284:3 1286:4
1 482:1 1086:1 1245:1 1281:1 1284:2 1286:3
1 137:1 263:1 321:1 409:1 421:1 469:1 481:1 482:1 1144:1 1218:1 1228:1 1233:1 1242:1 1243:1 1245:1 1247:1 1261:1 1276:1 1284:2
1 263:1 864:1 1144:1 1233:1 1276:1 1278:1 1284:2 1286:70
1 1284:2 1286:29
1 137:1 263:1 268:1 394:1 409:1 1144:1 1222:1 1233:1 1242:1 1246:1 1247:1 1276:1 1284:3
1 482:1 1086:1 1245:1 1281:1 1284:2 1286:34
1 263:1 482:1 512:1 859:1 1144:1 1233:1 1245:1 1275:1 1276:1 1283:1 1284:5 1286:10
1 1144:1 1276:1 1284:2 1286:24
1 137:1 254:1 263:1 321:1 409:1 469:1 481:1 482:1 585:1 761:1 1053:1 1086:1 1144:1 1216:1 1218:1 1223:1 1228:1 1233:1 1236:1 1242:1 1243:1 1245:1 1247:1 1250:1 1276:1 1281:1 1284:2
1 1144:1 1276:1 1284:4 1286:29
1 133:1 469:1 746:1 1144:1 1225:1 1228:1 1234:1 1276:1 1284:2 1286:12
1 1144:1 1276:1 1284:2 1286:24
1 1284:2 1286:16
1 1144:1 1276:1 1284:2 1286:3
1 1284:2 1286:1
1 1144:1 1276:1 1284:3 1286:584
1 1144:1 1276:1 1284:3 1286:584
1 1284:2 1286:20
1 1144:1 1276:1 1284:3 1286:62
1 1284:2 1286:1
1 133:1 482:1 1234:1 1245:1 1284:2 1286:8
1 1144:1 1276:1 1284:3 1286:584
1 268:1 1144:1 1246:1 1276:1 1284:6 1286:42
1 133:1 746:1 1144:1 1225:1 1234:1 1276:1 1284:2 1286:15
1 1144:1 1276:1 1284:2
1 263:1 409:1 1144:1 1233:1 1247:1 1276:1 1284:2 1286:1
1 137:1 263:1 268:1 394:1 481:1 1144:1 1222:1 1233:1 1242:1 1243:1 1246:1 1276:1 1284:5 1286:1
1 1144:1 1276:1 1284:3 1286:431
1 904:1 1086:1 1144:1 1254:1 1276:1 1281:1 1284:2 1286:16
1 409:1 746:1 1225:1 1247:1 1284:2 1286:16
1 1144:1 1276:1 1284:2 1286:1
1 263:1 409:1 482:1 1144:1 1233:1 1245:1 1247:1 1276:1 1284:3 1286:4
1 263:1 482:1 512:1 859:1 1144:1 1233:1 1245:1 1275:1 1276:1 1283:1 1284:5 1286:27
1 1144:1 1276:1 1284:3 1286:584
1 137:1 263:1 321:1 469:1 482:1 1144:1 1218:1 1228:1 1233:1 1242:1 1245:1 1276:1 1284:5 1286:54
1 137:1 263:1 321:1 345:1 421:1 469:1 481:1 482:1 512:1 559:1 639:1 1144:1 1167:1 1218:1 1226:1 1228:1 1233:1 1242:1 1243:1 1245:1 1249:1 1261:1 1267:1 1271:1 1276:1 1283:1 1284:2
1 1144:1 1276:1 1284:3 1286:584
1 263:1 268:2 469:1 1144:1 1165:1 1224:1 1228:1 1233:1 1246:2 1276:1 1284:5
1 1144:1 1276:1 1284:3 1286:2
1 133:1 469:1 1144:1 1228:1 1234:1 1276:1 1284:3 1286:39
1 1284:2 1286:10
1 137:1 263:1 421:1 469:1 481:1 482:1 512:1 1144:1 1228:1 1233:1 1242:1 1243:1 1245:1 1261:1 1276:1 1283:1 1284:2
1 137:1 263:1 469:1 481:1 482:1 761:1 1144:1 1228:1 1233:1 1236:1 1242:1 1243:1 1245:1 1276:1 1284:2 1286:13
1 1284:2 1286:1
1 137:1 263:1 321:1 345:1 409:1 469:1 482:1 512:1 1144:1 1218:1 1228:1 1233:1 1242:1 1245:1 1247:1 1249:1 1276:1 1283:1 1284:2
1 137:1 263:1 321:1 409:1 421:1 469:1 481:1 482:1 1144:1 1218:1 1228:1 1233:1 1242:1 1243:1 1245:1 1247:1 1261:1 1276:1 1284:2
1 1144:1 1276:1 1284:3 1286:584
1 1144:1 1276:1 1284:2 1286:1
1 1144:1 1276:1 1284:2 1286:24
1 137:1 263:1 321:1 421:1 469:1 482:1 512:1 1086:1 1144:1 1218:1 1228:1 1233:1 1242:1 1245:1 1261:1 1276:1 1281:1 1283:1 1284:2
1 158:1 1270:1 1284:3
1 263:1 409:1 469:1 482:1 1144:1 1228:1 1233:1 1245:1 1247:1 1276:1 1284:3 1286:2
1 133:1 482:1 1234:1 1245:1 1284:2 1286:8
1 469:1 904:1 1144:1 1228:1 1254:1 1276:1 1284:2 1286:11
1 263:1 409:1 1144:1 1233:1 1247:1 1276:1 1284:2 1286:2
1 263:1 1144:1 1233:1 1276:1 1284:2 1286:20
1 263:1 409:1 1144:1 1233:1 1247:1 1276:1 1284:2 1286:1
1 1144:1 1276:1 1284:2 1286:24
1 1284:3 1286:5
1 482:1 1086:1 1144:1 1245:1 1276:1 1281:1 1284:2 1286:15
1 133:1 482:1 1234:1 1245:1 1284:2 1286:8
1 1144:1 1276:1 1284:1
1 263:1 409:1 1144:1 1233:1 1247:1 1276:1 1284:2 1286:4
1 1284:2 1286:2
1 263:1 1144:1 1233:1 1276:1 1284:2 1286:2
1 137:1 263:1 321:1 469:1 548:1 1144:1 1218:1 1228:1 1233:1 1242:1 1256:1 1276:1 1284:3
1 133:1 482:1 746:1 1086:1 1225:1 1234:1 1245:1 1281:1 1284:2 1286:34
1 1144:1 1276:1 1284:3
1 1144:1 1276:1 1284:3 1286:20
1 1144:1 1276:1 1284:3 1286:2
1 263:1 482:1 512:1 859:1 1144:1 1233:1 1245:1 1275:1 1276:1 1283:1 1284:5 1286:9
1 1284:2 1286:1
1 263:1 482:1 1144:1 1233:1 1245:1 1276:1 1284:3 1286:456
1 469:1 746:1 1225:1 1228:1 1284:2 1286:14
1 137:1 263:1 321:1 345:1 421:1 469:1 481:1 482:1 512:1 559:1 639:1 1144:1 1167:1 1218:1 1226:1 1228:1 1233:1 1242:1 1243:1 1245:1 1249:1 1261:1 1267:1 1271:1 1276:1 1283:1 1284:2
1 469:1 1144:1 1228:1 1276:1 1284:2
1 263:1 409:1 1144:1 1233:1 1247:1 1276:1 1284:2 1286:15
1 167:1 200:1 542:1 611:1 638:1 722:1 913:1 1144:1 1239:1 1240:1 1252:1 1253:1 1260:1 1269:1 1276:1 1277:1 1282:1 1284:2 1286:4
1 1144:1 1276:1 1284:3 1286:7
1 137:1 263:1 421:1 469:1 481:1 482:1 512:1 1144:1 1228:1 1233:1 1242:1 1243:1 1245:1 1261:1 1276:1 1283:1 1284:2
1 137:1 263:1 321:1 345:1 421:1 469:1 481:1 482:1 512:1 559:1 639:1 1144:1 1167:1 1218:1 1226:1 1228:1 1233:1 1242:1 1243:1 1245:1 1249:1 1261:1 1267:1 1271:1 1276:1 1283:1 1284:2
1 1284:2 1286:17
1 409:1 469:1 1086:1 1144:1 1228:1 1247:1 1276:1 1281:1 1284:5 1286:32
1 1284:2 1286:1
1 133:1 482:1 1144:1 1234:1 1245:1 1276:1 1284:2 1286:12
1 263:1 409:1 1144:1 1233:1 1247:1 1276:1 1284:2 1286:2
1 409:1 1144:1 1247:1 1276:1 1284:2 1286:4
1 1144:1 1276:1 1284:3 1286:584
1 263:1 482:1 512:1 859:1 1144:1 1233:1 1245:1 1275:1 1276:1 1283:1 1284:5 1286:26
1 268:1 1144:1 1246:1 1276:1 1284:6 1286:42
1 1284:2 1286:15
1 263:1 1086:1 1233:1 1281:1 1284:3 1286:11
1 1144:1 1276:1 1284:3 1286:5
1 263:1 409:1 1144:1 1233:1 1247:1 1276:1 1284:2 1286:4
1 263:1 409:1 1144:1 1233:1 1247:1 1276:1 1284:2 1286:2
1 1284:2 1286:9
1 1144:1 1276:1 1284:3 1286:5
1 137:1 263:1 421:1 469:1 481:1 482:1 512:1 1144:1 1228:1 1233:1 1242:1 1243:1 1245:1 1261:1 1276:1 1283:1 1284:2
1 263:1 1144:1 1233:1 1276:1 1284:2
1 1284:2 1286:10
1 137:3 263:2 321:1 421:1 1144:4 1218:1 1233:2 1242:3 1261:1 1276:4 1284:5
1 1144:1 1276:1 1284:3 1286:584
1 1144:1 1276:1 1284:3 1286:584
1 263:1 746:1 1144:1 1225:1 1233:1 1276:1 1284:2 1286:16
1 1284:2 1286:3
1 1144:1 1276:1 1284:5 1286:24
1 137:1 263:1 321:1 469:1 481:1 482:1 1144:1 1218:1 1228:1 1233:1 1242:1 1243:1 1245:1 1276:1 1284:5 1286:77
1 137:1 263:1 321:1 469:1 859:1 1144:1 1218:1 1228:1 1233:1 1242:1 1275:1 1276:1 1284:6 1286:81
1 1284:2 1286:7
1 137:1 254:1 263:1 321:1 409:1 469:1 481:1 482:1 585:1 761:1 1053:1 1086:1 1144:1 1216:1 1218:1 1223:1 1228:1 1233:1 1236:1 1242:1 1243:1 1245:1 1247:1 1250:1 1276:1 1281:1 1284:2
1 1144:1 1276:1 1284:2 1286:2
1 137:1 263:1 321:1 345:1 421:1 469:1 481:1 482:1 512:1 559:1 639:1 1144:1 1167:1 1218:1 1226:1 1228:1 1233:1 1242:1 1243:1 1245:1 1249:1 1261:1 1267:1 1271:1 1276:1 1283:1 1284:2
1 1144:1 1276:1 1284:3 1286:584
1 263:1 1144:1 1233:1 1276:1 1284:3 1286:7
1 263:1 268:1 482:1 559:1 1144:1 1233:1 1245:1 1246:1 1267:1 1276:1 1284:7
1 1144:1 1276:1 1284:4
1 263:1 409:1 1144:1 1233:1 1247:1 1276:1 1284:2 1286:4
1 137:1 254:1 260:1 263:1 321:1 409:1 421:1 469:1 481:1 482:1 513:1 564:1 585:1 896:1 1053:1 1086:1 1144:1 1214:1 1216:1 1218:1 1223:1 1228:1 1229:1 1233:1 1242:1 1243:1 1244:1 1245:1 1247:1 1250:1 1261:1 1274:1 1276:1 1281:1 1284:3
1 469:1 1144:1 1228:1 1276:1 1284:2
1 263:1 409:1 1144:1 1233:1 1247:1 1276:1 1284:2 1286:2
1 1284:2 1286:1
1 137:1 263:1 321:1 345:1 421:1 469:1 481:1 482:1 512:1 559:1 639:1 1144:1 1167:1 1218:1 1226:1 1228:1 1233:1 1242:1 1243:1 1245:1 1249:1 1261:1 1267:1 1271:1 1276:1 1283:1 1284:2
1 137:1 254:1 263:1 321:1 409:1 469:1 481:1 482:1 585:1 761:1 1053:1 1086:1 1144:1 1216:1 1218:1 1223:1 1228:1 1233:1 1236:1 1242:1 1243:1 1245:1 1247:1 1250:1 1276:1 1281:1 1284:2
1 1284:2 1286:12
1 137:1 263:1 321:1 345:1 421:1 469:1 481:1 482:1 512:1 559:1 639:1 1144:1 1167:1 1218:1 1226:1 1228:1 1233:1 1242:1 1243:1 1245:1 1249:1 1261:1 1267:1 1271:1 1276:1 1283:1 1284:2
1 263:1 409:1 1144:1 1233:1 1247:1 1276:1 1284:2 1286:1
1 1284:2 1286:10
1 189:1 263:1 1144:1 1232:1 1233:1 1276:1 1284:1
1 137:1 263:1 321:1 409:1 421:1 469:1 481:1 482:1 513:1 1144:1 1214:1 1218:1 1228:1 1233:1 1242:1 1243:1 1245:1 1247:1 1261:1 1276:1 1284:2
1 1284:2 1286:20
1 137:1 263:1 482:1 585:1 1144:1 1216:1 1233:1 1242:1 1245:1 1276:1 1284:2
1 263:1 409:1 1144:1 1233:1 1247:1 1276:1 1284:2 1286:2
1 1144:1 1276:1 1284:3 1286:584
1 254:1 482:1 1223:1 1245:1 1284:2 1286:15
1 1144:1 1276:1 1284:2
1 268:1 1144:1 1246:1 1276:1 1284:6 1286:423
1 263:1 469:1 482:1 1144:1 1228:1 1233:1 1245:1 1276:1 1284:3 1286:36
1 263:1 409:1 1144:1 1233:1 1247:1 1276:1 1284:2 1286:4
1 263:1 409:1 1144:1 1233:1 1247:1 1276:1 1284:2 1286:1
1 1284:2 1286:9
1 1144:1 1276:1 1284:3 1286:584
1 263:1 1144:1 1233:1 1276:1 1284:3 1286:7
1 1144:1 1276:1 1284:3 1286:584
1 263:1 409:1 1144:1 1233:1 1247:1 1276:1 1284:2 1286:1
1 1284:1 1286:12
1 1144:1 1276:1 1284:3 1286:4
1 263:1 469:1 1144:1 1228:1 1233:1 1276:1 1284:2 1286:19
1 268:1 469:1 1144:1 1228:1 1246:1 1276:1 1284:6
1 137:1 263:1 482:1 512:1 761:1 1144:1 1233:1 1236:1 1242:1 1245:1 1276:1 1283:1 1284:6
1 263:1 1086:1 1144:1 1233:1 1276:1 1281:1 1284:2 1286:13
1 137:1 263:1 321:1 409:1 421:1 469:1 481:1 482:1 1144:1 1218:1 1228:1 1233:1 1242:1 1243:1 1245:1 1247:1 1261:1 1276:1 1284:2
1 1144:1 1276:1 1284:5 1286:24
1 1284:3 1286:7
1 1284:2 1286:24
1 1284:2 1286:24
1 746:1 1086:1 1144:1 1225:1 1276:1 1281:1 1284:2 1286:16
1 1144:1 1276:1 1284:2 1286:3
1 263:1 585:1 1144:1 1216:1 1233:1 1276:1 1284:2
1 1144:1 1276:1 1284:2 1286:24
1 1284:3 1286:3
1 137:1 263:1 321:1 409:1 421:1 469:1 481:1 482:1 1144:1 1218:1 1228:1 1233:1 1242:1 1243:1 1245:1 1247:1 1261:1 1276:1 1284:2
1 137:1 263:1 321:1 345:1 421:1 469:1 481:1 482:1 512:1 559:1 639:1 1144:1 1167:1 1218:1 1226:1 1228:1 1233:1 1242:1 1243:1 1245:1 1249:1 1261:1 1267:1 1271:1 1276:1 1283:1 1284:2
1 263:1 1144:1 1233:1 1276:1 1284:2
1 268:2 1144:1 1246:2 1276:1 1284:5 1286:217
1 1144:1 1276:1 1284:3 1286:584
1 137:1 254:1 263:1 321:1 409:1 469:1 481:1 482:1 585:1 761:1 1053:1 1086:1 1144:1 1216:1 1218:1 1223:1 1228:1 1233:1 1236:1 1242:1 1243:1 1245:1 1247:1 1250:1 1276:1 1281:1 1284:2
1 1144:1 1276:1 1284:2 1286:24
1 1144:1 1276:1 1284:2
1 137:1 263:1 321:1 345:1 421:1 469:1 481:1 482:1 512:1 559:1 639:1 1144:1 1167:1 1218:1 1226:1 1228:1 1233:1 1242:1 1243:1 1245:1 1249:1 1261:1 1267:1 1271:1 1276:1 1283:1 1284:2
1 263:1 482:1 512:1 859:1 1144:1 1233:1 1245:1 1275:1 1276:1 1283:1 1284:5 1286:8
1 1144:1 1276:1 1284:3 1286:584
1 263:1 321:1 482:1 513:1 761:1 1144:1 1214:1 1218:1 1233:1 1236:1 1245:1 1276:1 1284:1
1 1284:2 1286:20
1 137:1 263:1 321:1 409:1 421:1 469:1 481:1 482:1 1144:1 1218:1 1228:1 1233:1 1242:1 1243:1 1245:1 1247:1 1261:1 1276:1 1284:2
1 1144:1 1276:1 1284:3 1286:3
1 1144:1 1276:1 1284:2 1286:24
1 1144:1 1276:1 1284:4
1 1284:2 1286:10
1 137:1 263:1 321:1 345:1 421:1 469:1 481:1 482:1 512:1 559:1 639:1 1144:1 1167:1 1218:1 1226:1 1228:1 1233:1 1242:1 1243:1 1245:1 1249:1 1261:1 1267:1 1271:1 1276:1 1283:1 1284:2
1 1284:2 1286:10
1 1284:2 1286:14
1 134:1 263:1 268:1 693:1 1144:1 1233:1 1238:1 1246:1 1251:1 1276:1 1284:2
1 1144:1 1276:1 1284:2 1286:24
1 263:1 409:1 1144:1 1233:1 1247:1 1276:1 1284:2 1286:12
1 1284:2 1286:1
1 137:1 263:1 321:1 409:1 421:1 469:1 481:1 482:1 1144:1 1218:1 1228:1 1233:1 1242:1 1243:1 1245:1 1247:1 1261:1 1276:1 1284:2
1 1284:2 1286:24
1 137:1 263:1 321:1 345:1 421:1 469:1 481:1 482:1 512:1 559:1 639:1 1144:1 1167:1 1218:1 1226:1 1228:1 1233:1 1242:1 1243:1 1245:1 1249:1 1261:1 1267:1 1271:1 1276:1 1283:1 1284:2
1 263:1 1144:1 1233:1 1276:1 1284:2
1 133:1 904:1 1144:1 1234:1 1254:1 1276:1 1284:2 1286:15
1 137:1 263:1 321:1 409:1 421:1 469:1 481:1 482:1 1144:1 1218:1 1228:1 1233:1 1242:1 1243:1 1245:1 1247:1 1261:1 1276:1 1284:2
1 1284:2 1286:1
1 1144:1 1276:1 1284:2 1286:5
1 137:1 263:1 321:1 409:1 421:1 469:1 481:1 482:1 1144:1 1218:1 1228:1 1233:1 1242:1 1243:1 1245:1 1247:1 1261:1 1276:1 1284:2
1 263:1 409:1 469:1 482:1 1144:1 1228:1 1233:1 1245:1 1247:1 1276:1 1284:4 1286:5
1 904:1 1144:1 1254:1 1276:1 1284:2 1286:13
1 469:1 1144:1 1228:1 1276:1 1284:1
1 263:1 482:1 746:1 1144:1 1225:1 1233:1 1245:1 1276:1 1284:3 1286:36
1 1284:2 1286:20
1 1144:1 1276:1 1284:5 1286:97
1 133:1 482:1 746:1 1225:1 1234:1 1245:1 1284:1 1286:18
1 1144:1 1276:1 1284:2 1286:3
1 1284:2 1286:29
1 263:1 482:1 512:1 859:1 1144:1 1233:1 1245:1 1275:1 1276:1 1283:1 1284:5 1286:10
1 137:1 263:1 321:1 469:1 481:1 482:1 859:1 896:1 1144:1 1218:1 1228:1 1233:1 1242:1 1243:1 1244:1 1245:1 1275:1 1276:1 1284:1 1286:91
1 137:1 263:1 268:1 394:1 481:1 1144:1 1222:1 1233:1 1242:1 1243:1 1246:1 1276:1 1284:6 1286:1
1 1284:2 1286:12
1 263:1 409:1 1144:1 1233:1 1247:1 1276:1 1284:2 1286:1
1 263:1 409:1 1144:1 1233:1 1247:1 1276:1 1284:3 1286:4
1 133:1 482:1 746:1 1086:1 1225:1 1234:1 1245:1 1281:1 1284:2 1286:34
1 263:1 409:1 746:1 1086:1 1144:1 1225:1 1233:1 1247:1 1276:1 1281:1 1284:2 1286:12
1 469:1 1144:1 1228:1 1276:1 1284:2
1 409:1 469:1 904:1 1228:1 1247:1 1254:1 1284:2 1286:17
1 904:1 1144:1 1254:1 1276:1 1284:2 1286:15
1 263:1 482:1 1233:1 1245:1 1284:3 1286:9
1 1144:1 1276:1 1284:2 1286:2
1 1144:1 1276:1 1284:5 1286:24
1 137:1 263:1 321:1 469:1 482:1 859:1 1144:1 1218:1 1228:1 1233:1 1242:1 1245:1 1275:1 1276:1 1284:4 1286:11
1 482:1 1086:1 1245:1 1281:1 1284:2 1286:7
1 1284:2 1286:25
1 1144:1 1276:1 1284:2 1286:3
1 137:1 263:1 321:1 409:1 421:1 469:1 481:1 482:1 1144:1 1218:1 1228:1 1233:1 1242:1 1243:1 1245:1 1247:1 1261:1 1276:1 1284:2
1 1144:1 1276:1 1284:2 1286:1
1 268:1 1144:1 1246:1 1276:1 1284:6 1286:42
1 1284:2 1286:19
1 1144:1 1276:1 1284:2 1286:2
1 137:1 263:1 321:1 469:1 859:1 1144:1 1218:1 1228:1 1233:1 1242:1 1275:1 1276:1 1284:6 1286:81
1 1284:2 1286:7
1 904:1 1254:1 1284:2 1286:19
1 1144:1 1276:1 1284:3 1286:2
1 137:1 263:1 421:1 469:1 481:1 482:1 512:1 1144:1 1228:1 1233:1 1242:1 1243:1 1245:1 1261:1 1276:1 1283:1 1284:2
1 1144:1 1276:1 1284:3 1286:584
1 1144:1 1276:1 1284:2 1286:2
1 263:1 409:1 1144:1 1233:1 1247:1 1276:1 1284:2 1286:4
1 137:1 263:1 321:1 345:1 421:1 469:1 481:1 482:1 512:1 559:1 639:1 1144:1 1167:1 1218:1 1226:1 1228:1 1233:1 1242:1 1243:1 1245:1 1249:1 1261:1 1267:1 1271:1 1276:1 1283:1 1284:2
1 263:1 409:1 1144:1 1233:1 1247:1 1276:1 1284:2 1286:1
1 137:1 263:1 421:1 481:1 482:1 512:1 1144:1 1233:1 1242:1 1243:1 1245:1 1261:1 1276:1 1283:1 1284:1
1 263:1 469:1 481:1 482:1 1144:1 1228:1 1233:1 1243:1 1245:1 1276:1 1284:3
1 1284:2 1286:1
1 263:1 409:1 482:1 1144:1 1233:1 1245:1 1247:1 1276:1 1284:3 1286:4
1 263:1 1144:1 1233:1 1276:1 1284:2 1286:65
1 1284:2 1286:1
1 137:1 263:1 321:1 469:1 859:1 1144:1 1218:1 1228:1 1233:1 1242:1 1275:1 1276:1 1284:6 1286:81
1 1144:1 1276:1 1284:3 1286:584
1 409:1 1086:1 1247:1 1281:1 1284:2 1286:13
1 263:1 409:1 1144:1 1233:1 1247:1 1276:1 1284:2 1286:1
1 1284:2 1286:25
1 1284:2 1286:1
1 1284:2 1286:1
1 1284:2 1286:20
1 137:1 263:1 421:1 469:1 481:1 482:1 512:1 1144:1 1228:1 1233:1 1242:1 1243:1 1245:1 1261:1 1276:1 1283:1 1284:2
1 1284:1 1286:8
1 137:1 263:1 321:1 345:1 421:1 469:1 481:1 482:1 512:1 559:1 639:1 1144:1 1167:1 1218:1 1226:1 1228:1 1233:1 1242:1 1243:1 1245:1 1249:1 1261:1 1267:1 1271:1 1276:1 1283:1 1284:2
1 409:1 469:1 746:1 1144:1 1225:1 1228:1 1247:1 1276:1 1284:2 1286:1
1 137:1 263:1 321:1 469:1 481:1 859:1 1144:1 1218:1 1228:1 1233:1 1242:1 1243:1 1275:1 1276:1 1284:6 1286:52
1 1284:2 1286:24
1 1144:1 1276:1 1284:2 1286:2
1 134:1 263:1 268:1 482:1 693:1 1144:1 1233:1 1238:1 1245:1 1246:1 1251:1 1276:1 1284:3
1 263:1 409:1 1144:1 1233:1 1247:1 1276:1 1284:2 1286:1
1 1144:1 1276:1 1284:3 1286:584
1 263:1 409:1 469:1 482:1 1144:1 1228:1 1233:1 1245:1 1247:1 1276:1 1284:3 1286:2
1 1284:2 1286:15
1 137:1 263:1 321:1 345:1 421:1 469:1 481:1 482:1 512:1 559:1 639:1 1144:1 1167:1 1218:1 1226:1 1228:1 1233:1 1242:1 1243:1 1245:1 1249:1 1261:1 1267:1 1271:1 1276:1 1283:1 1284:2
1 409:1 1144:1 1247:1 1276:1 1284:2 1286:4
1 133:1 482:1 1144:1 1234:1 1245:1 1276:1 1284:2 1286:16
1 137:1 263:1 321:1 345:1 421:1 469:1 481:1 482:1 512:1 559:1 639:1 1144:1 1167:1 1218:1 1226:1 1228:1 1233:1 1242:1 1243:1 1245:1 1249:1 1261:1 1267:1 1271:1 1276:1 1283:1 1284:2
1 263:1 409:1 1144:1 1233:1 1247:1 1276:1 1284:2 1286:1
1 1284:2 1286:13
1 1284:2 1286:10
1 137:1 263:1 421:1 469:1 481:1 482:1 512:1 513:1 896:1 1144:1 1214:1 1228:1 1233:1 1242:1 1243:1 1244:1 1245:1 1261:1 1276:1 1283:1 1284:1
1 137:1 263:1 321:1 409:1 421:1 469:1 481:1 482:1 1144:1 1218:1 1228:1 1233:1 1242:1 1243:1 1245:1 1247:1 1261:1 1276:1 1284:2
1 1144:1 1276:1 1284:4 1286:73
1 137:1 263:1 321:1 345:1 421:1 469:1 481:1 482:1 512:1 559:1 639:1 1144:1 1167:1 1218:1 1226:1 1228:1 1233:1 1242:1 1243:1 1245:1 1249:1 1261:1 1267:1 1271:1 1276:1 1283:1 1284:2
1 409:1 746:1 1225:1 1247:1 1284:2 1286:16
1 137:1 263:1 321:1 409:1 421:1 469:1 481:1 482:1 1144:1 1218:1 1228:1 1233:1 1242:1 1243:1 1245:1 1247:1 1261:1 1276:1 1284:2
1 263:1 1086:1 1233:1 1281:1 1284:3 1286:11
1 263:1 409:1 1144:1 1233:1 1247:1 1276:1 1284:2 1286:1
1 258:1 409:1 421:1 469:1 1144:1 1227:1 1228:1 1247:1 1261:1 1276:1 1284:3
1 1144:1 1276:1 1284:3 1286:7
1 482:1 904:1 1144:1 1245:1 1254:1 1276:1 1284:2 1286:12
1 1284:2 1286:10
1 1144:1 1276:1 1284:2 1286:5
1 1284:2 1286:12
1 1144:1 1276:1 1284:1 1286:1636
1 133:1 137:1 263:1 321:1 345:1 421:1 469:1 481:1 482:1 512:1 1144:1 1167:1 1218:1 1226:1 1228:1 1233:1 1234:1 1242:1 1243:1 1245:1 1249:1 1261:1 1276:1 1283:1 1284:2
1 1144:1 1276:1 1284:2 1286:1
1 1144:1 1276:1 1284:2 1286:2
1 1284:2 1286:1
1 263:1 409:1 1144:1 1233:1 1247:1 1276:1 1284:2 1286:1
1 409:1 1247:1 1284:2 1286:1
1 263:1 409:1 1144:1 1233:1 1247:1 1276:1 1284:2 1286:1
1 137:1 263:1 321:1 345:1 421:1 469:1 481:1 482:1 512:1 559:1 639:1 1144:1 1167:1 1218:1 1226:1 1228:1 1233:1 1242:1 1243:1 1245:1 1249:1 1261:1 1267:1 1271:1 1276:1 1283:1 1284:2
1 469:1 482:1 904:1 1228:1 1245:1 1254:1 1284:2 1286:1
1 1144:1 1276:1 1284:3 1286:584
1 263:1 1144:1 1233:1 1276:1 1284:2
1 409:1 1247:1 1284:2 1286:1
1 137:1 263:1 321:1 469:1 859:1 1144:1 1218:1 1228:1 1233:1 1242:1 1275:1 1276:1 1284:6 1286:81
1 1284:2 1286:2
1 137:1 263:1 394:1 481:1 1144:2 1165:1 1222:1 1224:1 1233:1 1242:1 1243:1 1276:2 1284:9
1 137:1 268:1 394:1 409:1 458:1 550:1 971:1 1144:1 1221:1 1222:1 1242:1 1246:1 1247:1 1248:1 1259:1 1276:1 1284:3 1286:77
1 1284:2 1286:1
1 1284:2 1286:20
1 1144:1 1276:1 1284:2 1286:24
1 137:1 263:1 321:1 345:1 421:1 469:1 481:1 482:1 512:1 559:1 639:1 1144:1 1167:1 1218:1 1226:1 1228:1 1233:1 1242:1 1243:1 1245:1 1249:1 1261:1 1267:1 1271:1 1276:1 1283:1 1284:2
1 263:1 469:1 481:1 482:1 1144:1 1228:1 1233:1 1243:1 1245:1 1276:1 1284:2 1286:1
1 263:1 409:1 1233:1 1247:1 1284:2 1286:3
1 133:1 254:1 409:1 746:1 1223:1 1225:1 1234:1 1247:1 1284:2 1286:21
1 1284:2 1286:11
1 904:1 1144:1 1254:1 1276:1 1284:2 1286:15
1 409:1 1144:1 1247:1 1276:1 1284:1 1286:4
1 263:1 482:1 1086:1 1144:1 1233:1 1245:1 1276:1 1281:1 1284:4 1286:1653
1 263:1 409:1 1144:1 1233:1 1247:1 1276:1 1284:2 1286:1
1 137:1 263:1 321:1 469:1 859:1 1144:1 1218:1 1228:1 1233:1 1242:1 1275:1 1276:1 1284:6 1286:81
1 263:1 321:1 482:1 513:1 761:1 1144:1 1214:1 1218:1 1233:1 1236:1 1245:1 1276:1 1284:1
1 263:1 409:1 469:1 482:1 1144:1 1228:1 1233:1 1245:1 1247:1 1276:1 1284:3 1286:2
1 263:1 268:1 409:1 1144:1 1233:1 1246:1 1247:1 1276:1 1284:3
1 137:1 263:1 482:1 1144:1 1233:1 1242:1 1245:1 1276:1 1284:2
1 263:1 482:1 1144:1 1233:1 1245:1 1276:1 1284:1
1 1144:1 1276:1 1284:3 1286:584
1 263:1 482:1 1233:1 1245:1 1284:3 1286:38
1 1284:2 1286:9
1 137:1 263:1 585:1 1144:1 1216:1 1233:1 1242:1 1276:1 1284:2
1 137:1 263:1 321:1 469:1 482:1 1144:1 1218:1 1228:1 1233:1 1242:1 1245:1 1276:1 1284:3 1286:76
1 1284:2 1286:24
1 263:1 1144:1 1233:1 1276:1 1284:2
1 1284:2 1286:3
1 1144:1 1276:1 1284:2 1286:24
1 409:1 746:1 1225:1 1247:1 1284:2 1286:16
1 1284:2 1286:24
1 263:1 409:1 1144:1 1233:1 1247:1 1276:1 1284:2 1286:2
1 261:1 263:1 585:1 998:1 1144:1 1216:1 1230:1 1233:1 1273:1 1276:1 1284:1
1 263:1 409:1 1144:1 1233:1 1247:1 1276:1 1284:2 1286:1
1 263:1 1144:1 1233:1 1276:1 1284:2
1 263:1 409:1 469:1 482:1 1144:1 1228:1 1233:1 1245:1 1247:1 1276:1 1284:3 1286:2
1 137:1 263:1 321:1 409:1 421:1 469:1 481:1 482:1 1144:1 1218:1 1228:1 1233:1 1242:1 1243:1 1245:1 1247:1 1261:1 1276:1 1284:2
1 263:1 268:1 321:1 469:1 482:1 1144:1 1218:1 1228:1 1233:1 1245:1 1246:1 1276:1 1284:7
1 133:1 482:1 1144:1 1234:1 1245:1 1276:1 1284:2 1286:12
1 263:1 1144:1 1233:1 1276:1 1284:2
1 1144:1 1276:1 1284:2 1286:3
1 469:1 1144:1 1228:1 1276:1 1284:2
1 1144:1 1276:1 1284:3 1286:584
1 1144:1 1276:1 1284:3 1286:584
1 263:1 409:1 1144:1 1233:1 1247:1 1276:1 1284:2 1286:1
1 1284:2 1286:7
1 263:1 409:1 1144:1 1233:1 1247:1 1276:1 1284:2 1286:1
1 1284:2 1286:29
1 1284:2 1286:8
1 137:1 263:1 321:1 409:1 421:1 469:1 481:1 482:1 1144:1 1218:1 1228:1 1233:1 1242:1 1243:1 1245:1 1247:1 1261:1 1276:1 1284:2
1 263:1 409:1 1144:1 1233:1 1247:1 1276:1 1284:2 1286:2
1 469:1 1144:1 1228:1 1276:1 1284:2
1 1144:1 1276:1 1284:2 1286:50
1 137:1 263:1 321:1 345:1 409:1 469:1 482:1 512:1 1144:1 1218:1 1228:1 1233:1 1242:1 1245:1 1247:1 1249:1 1276:1 1283:1 1284:2
1 137:1 263:1 321:1 469:1 481:1 1144:1 1218:1 1228:1 1233:1 1242:1 1243:1 1276:1 1284:2 1286:102
1 133:1 469:1 482:1 904:1 1144:1 1228:1 1234:1 1245:1 1254:1 1276:1 1284:2 1286:14
1 1284:2 1286:3
1 263:1 1144:1 1233:1 1276:1 1284:3 1286:7
1 1144:1 1276:1 1284:3 1286:584
1 1144:1 1276:1 1284:2 1286:3
1 1144:1 1276:1 1284:2 1286:3
1 263:1 421:1 482:1 1144:1 1233:1 1245:1 1261:1 1276:1 1284:1
1 137:1 263:1 1144:1 1233:1 1242:1 1276:1 1284:1 1286:1
1 1144:1 1276:1 1284:2 1286:2
1 409:1 746:1 1144:1 1225:1 1247:1 1276:1 1284:2 1286:13
1 263:1 1144:1 1233:1 1276:1 1284:2
1 137:1 263:1 321:1 469:1 859:1 1144:1 1218:1 1228:1 1233:1 1242:1 1275:1 1276:1 1284:6 1286:81
1 263:1 409:1 1144:1 1233:1 1247:1 1276:1 1284:2 1286:1
1 263:1 409:1 1144:1 1233:1 1247:1 1276:1 1284:2 1286:1
1 1284:2 1286:1
1 137:1 263:1 321:1 345:1 421:1 469:1 481:1 482:1 512:1 559:1 639:1 1144:1 1167:1 1218:1 1226:1 1228:1 1233:1 1242:1 1243:1 1245:1 1249:1 1261:1 1267:1 1271:1 1276:1 1283:1 1284:2
1 1284:2 1286:1
1 137:1 263:1 321:1 469:1 481:1 482:1 859:1 1144:1 1218:1 1228:1 1233:1 1242:1 1243:1 1245:1 1275:1 1276:1 1284:4 1286:30
1 469:1 482:1 1086:1 1228:1 1245:1 1281:1 1284:1 1286:14
1 1144:1 1276:1 1284:3 1286:584
1 263:1 268:1 1144:1 1233:1 1246:1 1276:1 1284:7 1286:6731
1 268:1 469:1 1144:1 1228:1 1246:1 1276:1 1284:6
1 263:1 409:1 1233:1 1247:1 1284:1 1286:14
1 1144:1 1276:1 1284:3 1286:584
1 263:1 409:1 1144:1 1233:1 1247:1 1276:1 1284:2 1286:1
1 1144:1 1276:1 1284:3 1286:5
1 263:1 409:1 1144:1 1233:1 1247:1 1276:1 1284:2 1286:12
1 263:1 409:1 1144:1 1233:1 1247:1 1276:1 1284:2 1286:2
1 1284:2 1286:27
1 1144:1 1276:1 1284:3 1286:584
1 1144:1 1276:1 1284:3 1286:584
1 260:1 469:1 1144:1 1228:1 1229:1 1264:1 1276:1 1284:2
1 133:1 1144:1 1234:1 1276:1 1284:2 1286:16
1 263:1 409:1 1144:1 1233:1 1247:1 1276:1 1284:2 1286:2
1 409:1 1144:1 1247:1 1276:1 1284:2 1286:1
1 263:1 268:2 469:1 1144:1 1165:1 1224:1 1228:1 1233:1 1246:2 1276:1 1284:4
1 263:1 409:1 1144:1 1233:1 1247:1 1276:1 1284:2 1286:4
1 263:1 409:1 1144:1 1233:1 1247:1 1276:1 1284:2 1286:1
1 137:1 263:1 321:1 469:1 859:1 1144:1 1218:1 1228:1 1233:1 1242:1 1275:1 1276:1 1284:6 1286:81
1 263:1 409:1 1144:1 1233:1 1247:1 1276:1 1284:2 1286:1
1 1144:1 1276:1 1284:2 1286:1
1 1284:2 1286:2
1 263:1 409:1 482:1 1144:1 1233:1 1245:1 1247:1 1276:1 1284:3 1286:6
1 1284:2 1286:13
1 263:1 482:1 512:1 859:1 1144:1 1233:1 1245:1 1275:1 1276:1 1283:1 1284:5 1286:18
1 137:1 263:1 321:1 469:1 482:1 1144:1 1218:1 1228:1 1233:1 1242:1 1245:1 1276:1 1284:3 1286:76
1 263:1 268:1 421:1 449:1 481:1 693:1 1144:1 1233:1 1243:1 1246:1 1251:1 1261:1 1276:1 1280:1 1284:1
1 1284:2 1286:6
1 263:1 409:1 1144:1 1233:1 1247:1 1276:1 1284:2 1286:1
1 263:1 1144:1 1233:1 1276:1 1284:2
1 268:1 469:1 1144:1 1228:1 1246:1 1276:1 1284:7
1 1284:2 1286:12
1 137:1 263:1 268:1 394:1 409:1 1144:1 1222:1 1233:1 1242:1 1246:1 1247:1 1276:1 1284:3
1 1144:1 1276:1 1284:3 1286:584
1 134:1 263:1 268:1 482:1 693:1 1144:1 1233:1 1238:1 1245:1 1246:1 1251:1 1276:1 1284:3
1 137:1 263:1 321:1 469:1 481:1 482:1 1144:1 1218:1 1228:1 1233:1 1242:1 1243:1 1245:1 1276:1 1284:5 1286:38
1 263:1 409:1 1144:1 1233:1 1247:1 1276:1 1284:2 1286:1
1 137:1 263:1 321:1 345:1 421:1 469:1 481:1 482:1 512:1 559:1 639:1 1144:1 1167:1 1218:1 1226:1 1228:1 1233:1 1242:1 1243:1 1245:1 1249:1 1261:1 1267:1 1271:1 1276:1 1283:1 1284:2
1 1144:1 1276:1 1284:2 1286:3
1 133:1 482:1 1144:1 1234:1 1245:1 1276:1 1284:2 1286:12
1 1144:1 1276:1 1284:2 1286:3
1 263:1 409:1 1144:1 1233:1 1247:1 1276:1 1284:2 1286:1
1 137:1 263:1 421:1 469:1 481:1 482:1 1144:1 1228:1 1233:1 1242:1 1243:1 1245:1 1261:1 1276:1 1284:3
1 268:2 1144:1 1246:2 1276:1 1284:5 1286:217
1 263:1 469:1 481:1 482:1 1144:1 1228:1 1233:1 1243:1 1245:1 1276:1 1284:2 1286:33
1 1144:1 1276:1 1284:3 1286:7
1 1284:2 1286:15
1 263:1 1233:1 1284:2 1286:1
1 137:1 263:1 321:1 469:1 481:1 859:1 1144:1 1218:1 1228:1 1233:1 1242:1 1243:1 1275:1 1276:1 1284:4 1286:94
1 263:1 409:1 1144:1 1233:1 1247:1 1276:1 1284:2 1286:1
1 263:1 409:1 1144:1 1233:1 1247:1 1276:1 1284:2 1286:1
1 263:1 409:1 1144:1 1233:1 1247:1 1276:1 1284:2 1286:1
1 409:1 1144:1 1247:1 1276:1 1284:2 1286:4
1 263:1 409:1 482:1 1144:1 1233:1 1245:1 1247:1 1276:1 1284:2 1286:3
1 409:1 1247:1 1284:2 1286:1
1 137:1 263:1 321:1 409:1 421:1 469:1 481:1 482:1 1144:1 1218:1 1228:1 1233:1 1242:1 1243:1 1245:1 1247:1 1261:1 1276:1 1284:2
1 137:1 263:1 321:1 469:1 481:1 1144:1 1218:1 1228:1 1233:1 1242:1 1243:1 1276:1 1284:3 1286:15
1 263:1 1144:1 1233:1 1276:1 1284:2 1286:2
1 1284:2 1286:15
1 263:1 409:1 1144:1 1233:1 1247:1 1276:1 1284:2 1286:1
1 137:1 189:1 263:1 268:1 321:1 394:1 409:1 425:1 469:1 481:1 482:1 699:1 937:1 971:1 998:1 1053:1 1144:1 1165:1 1215:1 1218:1 1222:1 1224:1 1228:1 1232:1 1233:1 1242:1 1243:1 1245:1 1246:1 1247:1 1248:1 1250:1 1262:1 1266:1 1273:1 1276:1 1284:2 1286:4
1 263:1 746:1 1144:1 1225:1 1233:1 1276:1 1284:2 1286:16
1 137:1 263:1 321:1 409:1 421:1 469:1 481:1 482:1 1144:1 1218:1 1228:1 1233:1 1242:1 1243:1 1245:1 1247:1 1261:1 1276:1 1284:2
1 263:1 409:1 469:1 482:1 1144:1 1228:1 1233:1 1245:1 1247:1 1276:1 1284:3 1286:5
1 1284:2 1286:10
1 263:1 1144:1 1233:1 1276:1 1284:2 1286:32
1 137:1 263:1 268:1 394:1 481:1 1144:1 1222:1 1233:1 1242:1 1243:1 1246:1 1276:1 1284:5 1286:1
1 409:1 746:1 1225:1 1247:1 1284:2 1286:16
1 263:1 409:1 1144:1 1233:1 1247:1 1276:1 1284:2 1286:1
1 1144:1 1276:1 1284:3 1286:584
1 1144:1 1276:1 1284:3 1286:584
1 263:1 421:1 1144:1 1233:1 1261:1 1276:1 1284:1
1 482:1 1144:1 1245:1 1276:1 1284:2 1286:18
1 1144:1 1276:1 1284:2 1286:2
1 1284:2 1286:3
1 1144:1 1276:1 1284:2 1286:2
1 1144:1 1276:1 1284:3 1286:584
1 585:1 1144:1 1216:1 1276:1 1284:4
1 1144:1 1276:1 1284:3 1286:6
1 133:1 254:1 409:1 746:1 1223:1 1225:1 1234:1 1247:1 1284:2 1286:21
1 263:1 482:1 1233:1 1245:1 1284:3 1286:38
1 263:1 409:1 1144:1 1233:1 1247:1 1276:1 1284:2 1286:1
1 1144:1 1276:1 1284:2
1 268:1 469:1 1144:1 1228:1 1246:1 1276:1 1284:6
1 137:1 263:1 321:1 345:1 421:1 469:1 481:1 482:1 512:1 559:1 639:1 1144:1 1167:1 1218:1 1226:1 1228:1 1233:1 1242:1 1243:1 1245:1 1249:1 1261:1 1267:1 1271:1 1276:1 1283:1 1284:2
1 137:1 263:1 321:1 469:1 482:1 1144:1 1218:1 1228:1 1233:1 1242:1 1245:1 1276:1 1284:3 1286:83
1 137:1 263:1 321:1 345:1 421:1 469:1 481:1 482:1 512:1 559:1 639:1 1144:1 1167:1 1218:1 1226:1 1228:1 1233:1 1242:1 1243:1 1245:1 1249:1 1261:1 1267:1 1271:1 1276:1 1283:1 1284:2
1 263:1 482:1 1086:1 1144:1 1233:1 1245:1 1276:1 1281:1 1284:3 1286:37
1 1144:1 1276:1 1284:2
1 1144:1 1276:1 1284:5 1286:105
1 1144:1 1276:1 1284:4 1286:67
1 1144:1 1276:1 1284:4
1 137:1 263:1 421:1 481:1 482:1 896:1 1144:1 1233:1 1242:1 1243:1 1244:1 1245:1 1261:1 1276:1 1284:2
1 137:1 263:1 321:1 345:1 421:1 469:1 481:1 482:1 512:1 559:1 639:1 1144:1 1167:1 1218:1 1226:1 1228:1 1233:1 1242:1 1243:1 1245:1 1249:1 1261:1 1267:1 1271:1 1276:1 1283:1 1284:2
1 263:1 482:1 746:1 1225:1 1233:1 1245:1 1284:3 1286:33
1 1284:2 1286:1
1 1284:2 1286:13
1 1284:2 1286:16
1 263:1 409:1 904:1 1233:1 1247:1 1254:1 1284:3 1286:39
1 482:1 1086:1 1245:1 1281:1 1284:2 1286:7
1 263:1 421:1 1144:1 1233:1 1261:1 1276:1 1284:1
1 137:1 263:1 321:1 469:1 482:1 1144:1 1218:1 1228:1 1233:1 1242:1 1245:1 1276:1 1284:5 1286:59
1 409:1 469:1 1228:1 1247:1 1284:1 1286:32
1 1144:1 1276:1 1284:4 1286:150
1 1284:2 1286:27
1 1144:1 1276:1 1284:2 1286:24
1 263:1 1233:1 1284:2 1286:1
1 1144:1 1276:1 1284:3 1286:584
1 137:1 263:1 321:1 345:1 421:1 469:1 481:1 482:1 512:1 559:1 639:1 1144:1 1167:1 1218:1 1226:1 1228:1 1233:1 1242:1 1243:1 1245:1 1249:1 1261:1 1267:1 1271:1 1276:1 1283:1 1284:2
1 1144:1 1276:1 1284:2
1 133:1 1086:1 1144:1 1234:1 1276:1 1281:1 1284:2 1286:14
1 482:1 1086:1 1245:1 1281:1 1284:2 1286:7
1 1144:1 1276:1 1284:3 1286:2
1 1144:1 1276:1 1284:2 1286:32
1 137:1 263:1 321:1 345:1 409:1 469:1 482:1 512:1 1144:1 1218:1 1228:1 1233:1 1242:1 1245:1 1247:1 1249:1 1276:1 1283:1 1284:2
1 133:1 482:1 1144:1 1234:1 1245:1 1276:1 1284:2 1286:12
1 137:1 263:1 421:1 469:1 481:1 482:1 512:1 1144:1 1228:1 1233:1 1242:1 1243:1 1245:1 1261:1 1276:1 1283:1 1284:2
-1 451:1 1144:1 1276:1 1284:1
-1 451:1 1144:1 1276:1 1284:1
-1 451:1 1144:1 1276:1 1284:1
-1 451:1 1144:1 1276:1 1284:1
-1 451:1 1144:1 1276:1 1284:1
-1 451:1 1144:1 1276:1 1284:1
-1 451:1 1144:1 1276:1 1284:1
-1 451:1 1144:1 1276:1 1284:1
-1 451:1 1144:1 1276:1 1284:1
-1 134:1 137:1 263:1 268:1 481:1 482:1 968:1 971:1 1144:1 1233:1 1238:1 1241:1 1242:1 1243:1 1245:1 1246:1 1248:1 1276:1 1284:2
-1 451:1 1144:1 1276:1 1284:1
-1 451:1 1144:1 1276:1 1284:1
-1 451:1 1144:1 1276:1 1284:1
-1 263:1 451:1 482:1 559:1 1144:1 1233:1 1245:1 1267:1 1276:1 1284:1
-1 451:1 1144:1 1276:1 1284:1
-1 451:1 1144:1 1276:1 1284:1
-1 451:1 605:1 1144:1 1276:1 1284:1
-1 451:1 1144:1 1276:1 1284:1
-1 451:1 1144:1 1276:1 1284:1
-1 451:1 1144:1 1276:1 1284:1
-1 451:1 1144:1 1276:1 1284:1
-1 451:1 1144:1 1276:1 1284:1
-1 451:1 605:1 1135:1 1144:1 1276:1 1284:1
-1 451:1 605:1 1135:1 1144:1 1276:1 1284:1
-1 451:1 605:1 1144:1 1276:1 1284:1
-1 451:1 1144:1 1276:1 1284:1
-1 137:1 263:1 409:1 421:1 481:1 482:1 559:1 626:1 639:1 1144:1 1233:1 1242:1 1243:1 1245:1 1247:1 1261:1 1267:1 1271:1 1276:1 1284:2
-1 342:1 451:1 1144:1 1276:1 1284:2
-1 406:1 412:1 519:1 548:1 559:1 639:1 896:1 900:1 1144:1 1244:1 1256:1 1258:1 1267:1 1271:1 1276:1 1284:1 1286:1
-1 137:1 263:1 268:1 469:1 481:1 1144:1 1228:1 1233:1 1242:1 1243:1 1246:1 1276:1 1284:3
-1 263:1 321:1 1144:1 1218:1 1233:1 1276:1 1284:4
-1 137:1 263:1 268:1 321:1 1144:1 1218:1 1233:1 1242:1 1246:1 1276:1 1284:2
-1 137:1 263:1 268:1 321:1 421:1 422:1 469:1 481:1 482:1 512:1 1144:1 1218:1 1228:1 1233:1 1242:1 1243:1 1245:1 1246:1 1261:1 1276:1 1283:1 1284:3
-1 137:1 263:1 268:1 321:1 421:1 469:1 481:1 512:1 1144:1 1218:1 1228:1 1233:1 1242:1 1243:1 1246:1 1261:1 1276:1 1283:1 1284:4
-1 158:1 1270:1 1284:3
-1 158:1 1270:1 1284:3
-1 137:1 180:1 263:1 321:1 469:1 481:1 482:1 547:1 616:1 660:1 766:1 823:1 939:1 1144:1 1218:1 1228:1 1233:1 1242:1 1243:1 1245:1 1276:1 1284:1
-1 158:1 1270:1 1284:3
-1 137:1 263:1 425:1 482:1 512:1 761:1 1144:1 1158:1 1233:1 1236:1 1242:1 1245:1 1266:1 1276:1 1283:1 1284:2
-1 137:1 263:1 268:1 321:1 421:1 422:1 425:1 469:1 481:1 482:1 512:1 1144:1 1218:1 1228:1 1233:1 1242:1 1243:1 1245:1 1246:1 1261:1 1266:1 1276:1 1283:1 1284:1
-1 263:1 421:1 469:1 482:1 512:1 761:1 770:1 1144:1 1228:1 1233:1 1236:1 1245:1 1261:1 1276:1 1283:1 1284:2
-1 137:1 263:1 321:1 345:1 421:1 469:1 481:1 482:1 512:1 513:1 1144:1 1167:1 1214:1 1218:1 1226:1 1228:1 1233:1 1242:1 1243:1 1245:1 1249:1 1261:1 1276:1 1283:1 1284:2
-1 1284:1
-1 168:1 175:1 212:1 236:1 268:1 308:1 323:1 382:1 556:1 691:1 713:1 833:1 834:1 854:1 888:1 976:1 1019:1 1121:1 1164:1 1246:1 1284:1 1286:3
-1 1144:1 1276:1 1284:3
-1 137:2 263:2 321:2 421:1 482:1 512:1 896:1 1144:4 1218:2 1233:2 1242:2 1244:1 1245:1 1261:1 1276:4 1283:1 1284:6
-1 137:2 263:2 321:2 421:1 481:2 482:1 761:1 1144:4 1218:2 1233:2 1236:1 1242:2 1243:2 1245:1 1261:1 1276:4 1284:6
-1 268:2 896:1 1144:1 1244:1 1246:2 1276:1 1284:2
-1 137:1 180:1 263:1 481:1 939:1 1144:1 1233:1 1242:1 1243:1 1276:1 1284:1
-1 168:1 175:1 212:1 236:1 268:1 301:1 308:1 323:1 382:1 556:1 679:1 691:1 831:1 833:1 834:1 838:1 854:1 888:1 976:1 1052:1 1121:1 1164:1 1178:1 1246:1 1284:2
-1 180:1 520:1 1144:1 1276:1 1284:1
-1 158:1 1270:1 1284:2
-1 263:1 268:1 1079:1 1144:1 1233:1 1246:1 1276:1 1284:2
-1 137:1 263:1 268:2 481:1 482:1 971:1 1144:1 1189:1 1233:1 1242:1 1243:1 1245:1 1246:2 1248:1 1276:1 1284:2
-1 158:1 1270:1 1284:2
-1 158:1 1270:1 1284:2
-1 158:1 1270:1 1284:2
-1 263:1 268:1 482:1 512:1 686:1 1144:1 1233:1 1245:1 1246:1 1276:1 1283:1 1284:2
-1 263:1 268:1 1144:1 1233:1 1246:1 1276:1 1284:5
-1 137:1 263:1 272:1 321:1 421:1 425:1 458:1 469:1 481:1 482:1 512:1 761:1 1089:1 1144:1 1218:1 1221:1 1228:1 1233:1 1236:1 1242:1 1243:1 1245:1 1261:1 1266:1 1276:1 1283:1 1284:1
-1 268:1 1144:1 1246:1 1276:1 1284:2
-1 137:1 263:1 321:1 409:1 421:1 458:1 481:1 482:1 512:1 547:1 761:1 971:1 1144:1 1218:1 1221:1 1233:1 1236:1 1242:1 1243:1 1245:1 1247:1 1248:1 1261:1 1276:1 1283:1 1284:1
-1 191:1 1237:1 1284:1
-1 268:1 1144:1 1246:1 1276:1 1284:4
-1 263:1 268:1 1144:1 1233:1 1246:1 1276:1 1284:4
-1 137:1 180:1 263:1 321:1 409:1 422:1 469:1 481:1 540:1 616:1 669:1 832:1 859:1 939:1 971:1 1144:1 1165:1 1218:1 1224:1 1228:1 1233:1 1242:1 1243:1 1247:1 1248:1 1255:1 1275:1 1276:1 1284:1
-1 134:1 263:1 268:1 321:1 469:1 481:1 482:1 1144:1 1218:1 1228:1 1233:1 1238:1 1243:1 1245:1 1246:1 1276:1 1284:2
-1 158:1 1270:1 1284:3
-1 137:1 263:1 272:1 321:1 469:1 482:1 512:1 1089:1 1144:1 1218:1 1228:1 1233:1 1242:1 1245:1 1276:1 1283:1 1284:1
-1 137:2 263:2 321:1 421:1 1144:2 1218:1 1233:2 1242:2 1261:1 1276:2 1284:7
-1 137:1 263:1 268:2 421:1 481:1 482:1 512:1 971:1 1144:1 1233:1 1242:1 1243:1 1245:1 1246:2 1248:1 1261:1 1276:1 1283:1 1284:5
-1 158:1 1270:1 1284:3
-1 158:1 1270:1 1284:2
-1 137:1 263:1 321:1 469:1 481:1 482:1 761:1 1144:1 1165:1 1218:1 1224:1 1228:1 1233:1 1236:1 1242:1 1243:1 1245:1 1276:1 1284:2
-1 137:1 268:1 272:1 321:1 469:1 481:1 761:1 790:1 1144:1 1181:1 1218:1 1228:1 1236:1 1242:1 1243:1 1246:1 1276:1 1284:1
-1 137:1 263:1 469:1 481:1 605:1 1135:1 1144:1 1165:1 1224:1 1228:1 1233:1 1242:1 1243:1 1276:1 1284:1
-1 158:1 1270:1 1284:4
-1 158:1 1270:1 1284:3
-1 137:1 263:1 321:1 421:1 469:1 481:1 482:1 512:1 1144:1 1218:1 1228:1 1233:1 1242:1 1243:1 1245:1 1261:1 1276:1 1283:1 1284:1 1286:1
-1 263:1 409:1 1144:1 1233:1 1247:1 1276:1 1284:1
-1 191:1 1237:1 1284:1
-1 137:1 158:1 268:1 321:1 409:1 469:1 937:1 1144:1 1215:1 1218:1 1228:1 1242:1 1246:1 1247:1 1270:1 1276:1 1284:3 1286:4
-1 137:1 263:1 321:1 421:1 481:1 482:1 512:1 839:1 1144:1 1218:1 1233:1 1242:1 1243:1 1245:1 1261:1 1276:1 1283:1 1284:11
-1 158:1 1270:1 1284:3
-1 158:1 1270:1 1284:2
-1 137:1 254:1 263:1 321:1 469:1 481:1 482:1 896:1 971:1 1144:1 1218:1 1223:1 1228:1 1233:1 1242:1 1243:1 1244:1 1245:1 1248:1 1276:1 1284:2
-1 137:1 263:1 469:1 481:1 482:1 1144:1 1228:1 1233:1 1242:1 1243:1 1245:1 1276:1 1284:2
-1 137:2 263:3 268:1 321:3 421:1 449:1 469:1 481:1 482:1 585:1 761:1 896:1 1144:4 1216:1 1218:3 1228:1 1233:3 1236:1 1242:2 1243:1 1244:1 1245:1 1246:1 1261:1 1276:4 1280:1 1284:5
-1 137:2 263:3 268:1 321:3 421:1 449:1 469:1 481:1 482:1 585:1 761:1 1144:4 1216:1 1218:3 1228:1 1233:3 1236:1 1242:2 1243:1 1245:1 1246:1 1261:1 1276:4 1280:1 1284:5
-1 158:1 1270:1 1284:3
-1 158:1 1270:1 1284:3
-1 168:1 175:1 196:1 268:1 301:1 311:1 426:1 479:1 556:1 618:1 691:1 831:1 834:1 854:1 976:1 1019:1 1025:1 1047:1 1121:1 1164:1 1188:1 1246:1 1284:1
-1 137:1 263:1 321:1 345:1 409:1 421:1 469:1 481:1 482:1 512:1 859:1 1144:1 1218:1 1228:1 1233:1 1242:1 1243:1 1245:1 1247:1 1249:1 1261:1 1275:1 1276:1 1283:1 1284:2
-1 137:1 263:1 421:1 449:1 469:1 481:1 482:1 512:1 992:1 1144:1 1228:1 1233:1 1242:1 1243:1 1245:1 1261:1 1276:1 1280:1 1283:1 1284:2
-1 158:1 1270:1 1284:3
-1 268:1 449:1 1144:1 1246:1 1276:1 1280:1 1284:6
-1 896:1 1144:1 1244:1 1276:1 1284:2
-1 134:1 263:1 268:1 693:1 1144:1 1233:1 1238:1 1246:1 1251:1 1276:1 1284:2
-1 294:1 443:1 896:1 1144:1 1244:1 1276:1 1284:3
-1 137:1 263:1 321:1 409:1 469:1 481:1 482:1 512:1 896:1 1053:1 1144:1 1218:1 1228:1 1233:1 1242:1 1243:1 1244:1 1245:1 1247:1 1250:1 1276:1 1283:1 1284:1
-1 224:1 267:1 342:1 452:1 464:1 467:1 520:1 536:1 559:1 639:1 878:1 984:1 1144:1 1267:1 1271:1 1276:1 1284:2
-1 137:1 263:1 321:1 345:1 409:1 421:1 469:1 481:1 482:1 512:1 761:1 859:1 896:1 1144:1 1218:1 1228:1 1233:1 1236:1 1242:1 1243:1 1244:1 1245:1 1247:1 1249:1 1261:1 1275:1 1276:1 1283:1 1284:1
-1 1144:1 1276:1 1284:2
-1 1284:4
-1 137:1 1144:1 1242:1 1276:1 1284:3
-1 263:1 321:1 469:1 1144:1 1218:1 1228:1 1233:1 1276:1 1284:3
-1 137:1 263:1 421:1 440:1 469:1 481:1 482:1 699:1 1144:1 1228:1 1233:1 1242:1 1243:1 1245:1 1261:1 1262:1 1276:1 1284:3
-1 168:1 175:1 212:1 236:1 240:1 268:1 308:1 323:1 382:1 439:1 466:1 556:1 618:1 679:1 691:1 834:1 854:1 888:1 976:1 1121:1 1164:1 1246:1 1284:1
-1 168:1 175:1 264:1 268:1 301:1 426:1 556:1 618:1 718:1 834:1 854:1 937:1 976:1 1014:1 1121:1 1164:1 1208:1 1215:1 1246:1 1284:3
-1 168:1 175:1 205:1 264:1 268:1 301:1 323:1 426:1 458:1 524:1 556:1 607:1 618:1 718:1 794:1 834:1 838:1 854:1 887:1 888:1 937:1 976:1 998:1 1121:1 1164:1 1208:1 1209:1 1215:1 1221:1 1246:1 1273:1 1284:2
-1 137:1 268:1 937:1 1144:1 1215:1 1242:1 1246:1 1276:1 1284:1
-1 137:1 263:1 321:1 345:1 409:1 421:1 469:1 482:1 512:1 1144:1 1218:1 1228:1 1233:1 1242:1 1245:1 1247:1 1249:1 1261:1 1276:1 1283:1 1284:1
-1 137:1 158:1 263:1 321:1 327:1 1144:1 1218:1 1233:1 1242:1 1270:1 1276:1 1284:1
-1 168:1 175:1 212:1 249:1 268:1 323:1 382:1 556:1 833:1 834:1 854:1 976:1 1121:1 1164:1 1246:1 1284:2
-1 133:1 137:1 225:1 263:1 321:1 409:1 469:1 481:1 482:1 548:1 585:1 761:1 859:1 883:1 896:1 932:1 968:1 1126:1 1144:1 1216:1 1218:1 1228:1 1233:1 1234:1 1236:1 1241:1 1242:1 1243:1 1244:1 1245:1 1247:1 1256:1 1275:1 1276:1 1279:1 1284:2 1286:919
-1 137:1 268:1 272:1 321:1 469:1 481:1 1144:1 1218:1 1228:1 1242:1 1243:1 1246:1 1276:1 1284:1
-1 125:1 137:1 168:1 175:1 212:1 263:1 321:1 323:1 469:1 491:1 556:1 679:1 834:1 854:1 888:1 913:1 937:1 940:1 1085:1 1121:1 1144:1 1215:1 1218:1 1228:1 1233:1 1242:1 1260:1 1276:1 1284:2
-1 125:1 131:1 137:1 189:1 263:1 321:1 425:1 469:1 491:1 511:1 699:1 859:1 913:1 998:1 1144:1 1218:1 1228:1 1232:1 1233:1 1242:1 1260:1 1262:1 1266:1 1273:1 1275:1 1276:1 1284:1
-1 137:1 469:1 1144:1 1228:1 1242:1 1276:1 1284:1
-1 125:1 137:1 469:1 491:1 913:1 1144:1 1228:1 1242:1 1260:1 1276:1 1284:1
-1 137:1 173:1 458:1 469:1 998:1 1144:1 1221:1 1228:1 1242:1 1273:1 1276:1 1284:1
-1 125:1 137:1 263:1 491:1 547:1 913:1 1144:1 1233:1 1242:1 1260:1 1276:1 1284:1
-1 125:1 137:1 263:1 458:1 469:1 481:1 491:1 913:1 998:1 1144:1 1221:1 1228:1 1233:1 1242:1 1243:1 1260:1 1273:1 1276:1 1284:1
-1 158:1 1270:1 1284:3
-1 137:1 263:1 321:1 409:1 421:1 458:1 481:1 710:1 761:1 1144:1 1218:1 1221:1 1233:1 1236:1 1242:1 1243:1 1247:1 1261:1 1272:1 1276:1 1284:1 1286:3
-1 1144:1 1276:1 1284:3
-1 137:2 263:2 321:1 421:1 1144:2 1218:1 1233:2 1242:2 1261:1 1276:2 1284:7
-1 137:1 896:1 937:1 971:1 1144:1 1215:1 1242:1 1244:1 1248:1 1276:1 1284:4
-1 137:1 263:1 268:1 481:1 1144:1 1233:1 1242:1 1243:1 1246:1 1276:1 1284:3
-1 137:1 263:1 268:1 481:1 1144:1 1233:1 1242:1 1243:1 1246:1 1276:1 1284:3
-1 137:2 263:2 321:3 349:1 421:1 449:1 469:2 481:2 482:1 512:1 761:1 808:1 896:1 1144:5 1218:3 1228:2 1233:2 1236:1 1242:2 1243:2 1244:1 1245:1 1261:1 1276:5 1280:1 1283:1 1284:6
-1 268:2 412:1 465:1 519:1 872:1 1144:1 1155:1 1197:1 1246:2 1276:1 1284:3
-1 168:1 175:1 259:1 264:1 268:1 298:1 382:1 556:1 691:1 834:1 838:1 854:1 937:1 968:1 971:1 976:1 1121:1 1215:1 1241:1 1246:1 1248:1 1284:2
-1 1144:1 1276:1 1284:2
-1 137:2 263:2 321:1 421:1 469:1 482:1 1144:3 1218:1 1228:1 1233:2 1242:2 1245:1 1261:1 1276:3 1284:6
-1 158:1 1270:1 1284:3
-1 158:1 1270:1 1284:3
-1 559:1 639:1 1056:1 1144:1 1267:1 1271:1 1276:1 1284:2
-1 263:1 268:1 1144:1 1233:1 1246:1 1276:1 1284:5
-1 133:1 137:1 263:1 469:1 761:1 795:1 1100:1 1144:1 1228:1 1233:1 1234:1 1236:1 1242:1 1276:1 1284:3
-1 167:1 200:1 250:1 263:1 416:1 474:1 603:1 636:1 638:1 776:1 913:1 928:1 951:1 1123:1 1144:1 1219:1 1233:1 1235:1 1252:1 1260:1 1269:1 1276:1 1277:1 1284:3
-1 137:1 268:2 1144:1 1242:1 1246:2 1276:1 1284:3
-1 135:1 263:1 268:1 512:1 700:1 1144:1 1233:1 1246:1 1276:1 1283:1 1284:2
-1 268:1 820:1 1144:1 1246:1 1276:1 1284:2
-1 158:1 1270:1 1284:2
-1 158:1 1270:1 1284:2
-1 137:1 169:1 327:1 469:1 1144:1 1228:1 1242:1 1276:1 1284:1
-1 158:1 1270:1 1284:2
-1 137:1 158:1 169:1 327:1 469:1 971:1 1144:1 1188:1 1228:1 1242:1 1248:1 1270:1 1276:1 1284:1 1286:9
-1 137:1 169:1 327:1 1144:1 1242:1 1276:1 1284:3 1286:26
-1 191:1 1237:1 1284:1
-1 168:1 175:1 236:1 268:1 308:1 323:1 556:1 713:1 781:1 833:1 834:1 854:1 1019:1 1121:1 1164:1 1246:1 1284:1
-1 158:1 1270:1 1284:4
-1 1144:1 1276:1 1284:1
-1 137:1 263:1 268:1 409:1 481:1 937:1 1086:1 1144:1 1215:1 1233:1 1242:1 1243:1 1246:1 1247:1 1276:1 1281:1 1284:1
-1 137:1 168:1 175:1 192:1 207:1 268:1 556:1 834:1 854:1 937:1 940:1 1121:1 1144:1 1215:1 1242:1 1246:1 1276:1 1284:1
-1 263:1 482:1 715:1 896:1 1144:1 1233:1 1244:1 1245:1 1276:1 1284:2
-1 191:1 1237:1 1284:1
-1 137:1 263:1 321:1 345:1 421:1 469:1 481:1 482:1 512:1 1144:1 1182:1 1218:1 1228:1 1233:1 1242:1 1243:1 1245:1 1249:1 1261:1 1276:1 1283:1 1284:2
-1 137:1 268:1 1144:1 1242:1 1246:1 1276:1 1284:2
-1 168:1 175:1 268:1 556:1 834:1 854:1 937:1 976:1 1105:1 1121:1 1215:1 1246:1 1284:2
-1 263:1 287:1 482:1 1144:1 1233:1 1245:1 1276:1 1284:3
-1 155:1 263:1 409:1 469:1 481:1 512:1 537:1 608:1 622:1 625:1 896:1 1006:1 1144:1 1200:1 1228:1 1233:1 1243:1 1244:1 1247:1 1276:1 1283:1 1284:2 1286:3660
-1 137:3 263:2 321:1 421:1 1144:4 1218:1 1233:2 1242:3 1261:1 1276:4 1284:5
-1 137:3 263:2 321:1 421:1 1144:4 1218:1 1233:2 1242:3 1261:1 1276:4 1284:4
-1 224:1 342:1 452:1 464:1 520:1 536:1 559:1 605:1 639:1 878:1 1135:1 1144:1 1267:1 1271:1 1276:1 1284:1
-1 137:1 226:1 263:1 373:1 397:1 469:1 896:1 1144:1 1228:1 1233:1 1242:1 1244:1 1276:1 1284:2
-1 134:1 137:1 263:1 268:1 397:1 469:1 482:1 896:1 1144:1 1228:1 1233:1 1238:1 1242:1 1244:1 1245:1 1246:1 1276:1 1284:2
-1 137:2 263:2 321:1 421:1 1144:2 1218:1 1233:2 1242:2 1261:1 1276:2 1284:7
-1 168:1 175:1 186:1 196:1 212:1 264:1 268:1 301:1 311:1 556:1 618:1 691:1 755:1 771:1 834:1 854:1 888:1 937:1 976:1 1025:1 1047:1 1077:1 1121:1 1164:1 1207:1 1215:1 1246:1 1284:2
-1 158:1 1270:1 1284:4
-1 137:1 263:1 421:1 469:1 481:1 482:1 761:1 1144:1 1228:1 1233:1 1236:1 1242:1 1243:1 1245:1 1261:1 1276:1 1284:3
-1 137:1 263:1 421:1 469:1 481:1 482:1 761:1 1144:1 1228:1 1233:1 1236:1 1242:1 1243:1 1245:1 1261:1 1276:1 1284:3
-1 168:1 175:1 186:1 207:1 264:1 268:1 301:1 321:1 323:1 426:1 524:1 556:1 558:1 580:1 618:1 642:1 691:1 698:1 755:1 757:1 834:1 838:1 854:1 912:1 936:1 937:1 976:1 1000:1 1119:1 1121:1 1164:1 1215:1 1218:1 1246:1 1284:3
-1 168:1 175:1 259:1 264:1 268:1 338:1 382:1 427:1 556:1 580:1 691:1 797:1 834:1 838:1 854:1 884:1 936:1 937:1 976:1 1121:1 1215:1 1246:1 1284:1
-1 137:1 263:1 268:1 469:1 937:1 1144:1 1215:1 1228:1 1233:1 1242:1 1246:1 1276:1 1284:2
-1 263:1 268:2 409:1 481:1 482:1 547:1 1144:1 1233:1 1243:1 1245:1 1246:2 1247:1 1276:1 1284:5
-1 168:1 175:1 186:1 212:1 236:1 264:1 268:1 290:1 301:1 323:1 556:1 618:1 642:1 691:1 731:1 755:1 831:1 833:1 834:1 838:1 854:1 857:1 888:1 937:1 1121:1 1164:1 1215:1 1246:1 1284:2
-1 937:1 1215:1 1284:1
-1 137:1 263:1 268:1 971:1 1144:1 1233:1 1242:1 1246:1 1248:1 1276:1 1284:4
-1 937:1 1215:1 1284:1
-1 1144:1 1276:1 1284:2
-1 937:1 1215:1 1284:1
-1 137:1 263:1 321:1 421:1 449:1 469:1 481:1 482:1 512:1 761:1 896:1 1144:1 1218:1 1228:1 1233:1 1236:1 1242:1 1243:1 1244:1 1245:1 1261:1 1276:1 1280:1 1283:1 1284:4
-1 189:1 263:1 469:1 481:1 482:1 859:1 1126:1 1144:1 1165:1 1224:1 1228:1 1232:1 1233:1 1243:1 1245:1 1275:1 1276:1 1284:2 1286:2
-1 137:1 263:1 481:1 482:1 512:1 1144:1 1233:1 1242:1 1243:1 1245:1 1276:1 1283:1 1284:1
-1 134:1 263:1 268:1 321:1 469:1 1144:1 1218:1 1228:1 1233:1 1238:1 1246:1 1276:1 1284:3
-1 158:1 1270:1 1284:2
-1 137:1 263:1 481:1 482:1 896:1 1144:1 1233:1 1242:1 1243:1 1244:1 1245:1 1276:1 1284:1
-1 137:1 263:1 321:1 394:1 409:1 421:1 469:1 481:1 482:1 512:1 761:1 1144:1 1165:1 1218:1 1222:1 1224:1 1228:1 1233:1 1236:1 1242:1 1243:1 1245:1 1247:1 1261:1 1276:1 1283:1 1284:1
-1 158:1 1270:1 1284:3
-1 158:1 1270:1 1284:2
-1 263:1 287:1 421:1 482:1 512:1 1144:1 1233:1 1245:1 1261:1 1276:1 1283:1 1284:3
-1 565:1 671:1 1027:1 1069:1 1144:1 1276:1 1284:4
-1 158:1 1270:1 1284:3
-1 158:1 1270:1 1284:2
-1 180:1 412:1 519:1 1144:1 1276:1 1284:1
-1 137:2 263:2 321:2 421:1 481:1 482:1 1144:4 1218:2 1233:2 1242:2 1243:1 1245:1 1261:1 1276:4 1284:6
-1 137:2 213:1 263:2 321:3 421:1 469:1 481:1 482:1 761:1 859:1 896:1 1144:4 1218:3 1228:1 1233:2 1236:1 1242:2 1243:1 1244:1 1245:1 1261:1 1263:1 1275:1 1276:4 1284:6
-1 158:1 1270:1 1284:3
-1 992:1 1144:1 1276:1 1284:2
-1 263:1 354:1 422:1 481:2 482:1 1144:2 1150:1 1233:1 1243:2 1245:1 1276:2 1284:4
-1 137:1 263:1 481:1 761:1 896:1 1144:1 1233:1 1236:1 1242:1 1243:1 1244:1 1276:1 1284:2
-1 137:1 263:1 481:1 761:1 896:1 1144:1 1233:1 1236:1 1242:1 1243:1 1244:1 1276:1 1284:2
-1 158:1 1270:1 1284:3
-1 268:1 412:1 465:1 519:1 872:1 1144:1 1246:1 1276:1 1284:2
-1 263:1 321:1 481:1 1144:1 1218:1 1233:1 1243:1 1276:1 1284:3
-1 1144:1 1276:1 1284:2
-1 137:1 167:1 200:1 241:1 250:1 263:1 321:1 409:1 421:1 456:1 469:1 474:1 481:1 482:1 513:1 542:1 547:1 585:1 603:1 638:1 722:1 761:1 762:1 776:1 896:1 913:1 928:1 951:1 1015:1 1123:1 1144:1 1214:1 1216:1 1218:1 1219:1 1228:1 1233:1 1235:1 1236:1 1242:1 1243:1 1244:1 1245:1 1247:1 1252:1 1253:1 1260:1 1261:1 1269:1 1276:1 1277:1 1282:1 1284:2 1286:124
-1 137:1 167:1 200:1 202:1 218:1 241:1 250:1 263:1 321:1 394:1 409:1 416:1 421:1 456:1 458:1 469:1 474:1 481:1 482:1 513:1 521:1 542:1 547:1 554:1 585:1 603:1 611:1 636:1 638:1 680:1 699:1 722:1 761:1 776:1 859:1 882:1 885:1 896:1 913:1 932:1 937:1 945:1 951:1 971:1 1036:1 1110:1 1120:1 1123:1 1133:1 1144:1 1165:1 1213:1 1214:1 1215:1 1216:1 1218:1 1219:1 1221:1 1222:1 1224:1 1228:1 1233:1 1235:1 1236:1 1239:1 1242:1 1243:1 1244:1 1245:1 1247:1 1248:1 1252:1 1253:1 1257:1 1260:1 1261:1 1262:1 1269:1 1275:1 1276:1 1277:1 1279:1 1282:1 1284:4 1286:190
-1 167:1 200:1 638:1 913:1 937:1 951:1 1123:1 1144:1 1215:1 1252:1 1260:1 1269:1 1276:1 1277:1 1284:1
-1 137:1 263:1 321:1 409:1 421:1 469:1 481:1 482:1 937:1 971:1 1053:1 1144:1 1165:1 1215:1 1218:1 1224:1 1228:1 1233:1 1242:1 1243:1 1245:1 1247:1 1248:1 1250:1 1261:1 1276:1 1284:1
-1 137:1 263:1 321:1 345:1 409:1 421:1 469:1 481:1 482:1 512:1 1144:1 1218:1 1228:1 1233:1 1242:1 1243:1 1245:1 1247:1 1249:1 1261:1 1276:1 1283:1 1284:3
-1 133:1 342:1 559:1 639:1 795:1 1056:1 1144:1 1234:1 1267:1 1271:1 1276:1 1284:2
-1 137:1 263:1 421:1 469:1 481:1 482:1 761:1 1144:1 1228:1 1233:1 1236:1 1242:1 1243:1 1245:1 1261:1 1276:1 1284:4
-1 137:1 263:1 421:1 469:1 481:1 482:1 761:1 1144:1 1228:1 1233:1 1236:1 1242:1 1243:1 1245:1 1261:1 1276:1 1284:4
-1 134:1 268:1 1136:1 1144:1 1238:1 1246:1 1276:1 1284:2
-1 137:2 263:2 321:1 421:1 1144:2 1218:1 1233:2 1242:2 1261:1 1276:2 1284:7
-1 268:2 1144:1 1246:2 1276:1 1284:2
-1 294:1 495:1 1144:1 1276:1 1284:2
-1 137:1 263:1 421:1 469:1 481:1 482:1 761:1 1144:1 1228:1 1233:1 1236:1 1242:1 1243:1 1245:1 1261:1 1276:1 1284:3
-1 1284:3
-1 1144:1 1276:1 1284:2
-1 168:1 175:1 263:1 268:1 323:1 481:1 556:1 790:1 834:1 854:1 1121:1 1144:1 1165:1 1224:1 1233:1 1243:1 1246:1 1276:1 1284:2
-1 137:2 263:2 321:1 421:1 1144:2 1218:1 1233:2 1242:2 1261:1 1276:2 1284:7
-1 896:1 1144:1 1244:1 1276:1 1284:2
-1 119:1 263:1 268:1 481:1 482:1 509:1 559:1 639:1 1029:1 1144:1 1233:1 1243:1 1245:1 1246:1 1267:1 1271:1 1276:1 1284:2
-1 268:2 1144:1 1246:2 1276:1 1284:2
-1 137:1 263:1 268:1 309:1 323:1 421:1 481:1 1144:1 1233:1 1242:1 1243:1 1246:1 1261:1 1276:1 1284:3 1286:39
-1 137:1 254:1 263:1 268:1 421:1 481:1 482:1 512:1 1144:1 1223:1 1233:1 1242:1 1243:1 1245:1 1246:1 1261:1 1276:1 1283:1 1284:4
-1 263:1 321:1 469:1 513:1 1038:1 1144:1 1214:1 1218:1 1228:1 1233:1 1276:1 1284:2
-1 191:1 1237:1 1284:2
-1 168:1 175:1 236:1 268:1 556:1 679:1 834:1 854:1 1121:1 1246:1 1284:2
-1 168:1 175:1 236:1 268:1 323:1 556:1 679:1 833:1 834:1 854:1 888:1 1121:1 1246:1 1284:2
-1 158:1 1270:1 1284:4
-1 263:1 268:1 421:1 1144:1 1233:1 1246:1 1261:1 1276:1 1284:2
-1 137:1 263:1 321:1 421:1 469:1 481:1 482:1 512:1 513:1 585:1 761:1 896:1 1144:1 1214:1 1216:1 1218:1 1228:1 1233:1 1236:1 1242:1 1243:1 1244:1 1245:1 1261:1 1276:1 1283:1 1284:5
-1 137:2 263:2 321:1 421:1 1144:2 1218:1 1233:2 1242:2 1261:1 1276:2 1284:7
-1 137:2 263:2 321:1 421:1 1144:2 1218:1 1233:2 1242:2 1261:1 1276:2 1284:7
-1 158:1 1270:1 1284:3
-1 263:1 362:1 389:1 477:1 482:1 798:1 992:1 1053:1 1144:1 1233:1 1245:1 1250:1 1276:1 1284:1
-1 180:1 263:1 296:1 421:1 482:1 688:1 796:1 939:1 1097:1 1144:1 1233:1 1245:1 1261:1 1276:1 1284:1
-1 137:2 263:2 321:1 421:1 469:1 482:1 896:1 1144:3 1218:1 1228:1 1233:2 1242:2 1244:1 1245:1 1261:1 1276:3 1284:6
-1 158:1 1270:1 1284:4
-1 137:2 263:2 321:1 421:1 1144:2 1218:1 1233:2 1242:2 1261:1 1276:2 1284:7
-1 137:1 263:1 384:1 421:1 449:1 469:1 482:1 518:1 761:1 1102:1 1117:1 1144:1 1228:1 1233:1 1236:1 1242:1 1245:1 1261:1 1276:1 1280:1 1284:2
-1 137:1 263:1 321:1 345:1 394:1 409:1 421:1 458:1 469:1 481:1 482:1 512:1 547:1 699:1 761:1 790:1 859:1 968:1 971:1 998:1 1089:1 1144:1 1165:1 1218:1 1221:1 1222:1 1224:1 1228:1 1233:1 1236:1 1241:1 1242:1 1243:1 1245:1 1247:1 1248:1 1249:1 1261:1 1262:1 1273:1 1275:1 1276:1 1283:1 1284:1
-1 137:1 254:1 263:1 321:1 409:1 469:1 481:1 482:1 521:1 547:1 586:1 699:1 723:1 761:1 932:1 971:1 998:1 1126:1 1144:1 1165:1 1218:1 1220:1 1223:1 1224:1 1228:1 1233:1 1236:1 1242:1 1243:1 1245:1 1247:1 1248:1 1262:1 1273:1 1276:1 1279:1 1284:1
-1 137:2 263:2 321:1 421:1 1144:2 1218:1 1233:2 1242:2 1261:1 1276:2 1284:7
-1 268:1 1246:1 1284:3
-1 137:1 263:1 268:1 344:1 421:1 449:1 469:1 481:1 482:1 512:1 896:1 1144:1 1228:1 1233:1 1242:1 1243:1 1244:1 1245:1 1246:1 1261:1 1276:1 1280:1 1283:1 1284:4
-1 168:1 170:1 175:1 212:1 236:1 240:1 263:1 264:1 268:1 283:1 308:1 311:1 323:1 361:1 368:1 382:1 418:1 426:1 481:1 482:1 553:1 556:1 618:1 679:1 741:1 831:1 833:1 834:1 838:1 854:1 860:1 864:1 884:1 888:1 894:1 932:1 937:1 946:1 965:1 966:1 976:1 999:1 1025:1 1030:1 1052:1 1121:1 1164:1 1165:1 1185:1 1193:1 1209:1 1211:1 1215:1 1224:1 1233:1 1243:1 1245:1 1246:1 1278:1 1279:1 1284:2
-1 137:1 268:1 409:1 458:1 700:1 937:1 1144:1 1215:1 1221:1 1242:1 1246:1 1247:1 1276:1 1284:2
-1 186:1 227:1 243:1 259:1 268:1 293:1 556:1 618:1 634:1 691:1 804:1 834:1 838:1 905:1 929:1 937:1 943:1 974:1 1121:1 1164:1 1208:1 1215:1 1246:1 1284:2 1286:23
-1 137:1 263:1 268:1 321:1 421:1 469:1 482:1 1013:1 1144:1 1218:1 1228:1 1233:1 1242:1 1245:1 1246:1 1261:1 1276:1 1284:2
-1 137:1 263:1 268:1 309:1 421:1 458:1 469:1 481:1 523:1 937:1 1144:1 1215:1 1221:1 1228:1 1233:1 1242:1 1243:1 1246:1 1261:1 1276:1 1284:1 1286:39
-1 168:1 175:1 268:1 323:1 481:1 556:1 834:1 854:1 871:1 893:1 1091:1 1121:1 1144:1 1243:1 1246:1 1276:1 1284:3
-1 137:1 263:1 268:1 321:1 323:1 458:1 481:1 699:1 998:1 1144:1 1218:1 1221:1 1233:1 1242:1 1243:1 1246:1 1262:1 1273:1 1276:1 1284:1
-1 137:1 236:1 263:1 268:1 309:1 409:1 469:1 481:1 523:1 679:1 950:1 1035:1 1144:1 1228:1 1233:1 1242:1 1243:1 1246:1 1247:1 1276:1 1284:3 1286:39
-1 268:1 481:1 1057:1 1144:1 1243:1 1246:1 1276:1 1284:3
-1 137:1 263:1 394:1 409:1 449:1 469:1 481:1 482:1 547:1 859:1 968:1 971:1 1053:1 1089:1 1144:1 1222:1 1228:1 1233:1 1241:1 1242:1 1243:1 1245:1 1247:1 1248:1 1250:1 1275:1 1276:1 1280:1 1284:2
-1 137:2 263:2 321:1 421:1 1144:2 1218:1 1233:2 1242:2 1261:1 1276:2 1284:7
-1 191:1 1237:1 1284:1
-1 137:1 263:2 268:1 321:2 1144:4 1218:2 1233:2 1242:1 1246:1 1276:4 1284:5
-1 1144:1 1276:1 1284:2
-1 1144:1 1276:1 1284:2
-1 137:1 263:1 321:1 421:1 458:1 469:1 481:1 482:1 761:1 1053:1 1144:1 1165:1 1218:1 1221:1 1224:1 1228:1 1233:1 1236:1 1242:1 1243:1 1245:1 1250:1 1261:1 1276:1 1284:2
-1 268:1 1246:1 1284:3
-1 137:1 263:1 321:1 345:1 421:1 469:1 481:1 482:1 512:1 559:1 639:1 1144:1 1167:1 1218:1 1226:1 1228:1 1233:1 1242:1 1243:1 1245:1 1249:1 1261:1 1267:1 1271:1 1276:1 1283:1 1284:2
-1 137:1 268:1 409:1 458:1 481:1 700:1 937:1 1144:1 1215:1 1221:1 1242:1 1243:1 1246:1 1247:1 1276:1 1284:2
-1 158:1 1270:1 1284:3
-1 137:1 254:1 263:1 298:1 321:1 409:1 421:1 449:1 469:1 481:1 482:1 512:1 513:1 585:1 761:1 896:1 1053:1 1086:1 1144:1 1214:1 1216:1 1218:1 1223:1 1228:1 1233:1 1236:1 1242:1 1243:1 1244:1 1245:1 1247:1 1250:1 1261:1 1276:1 1280:1 1281:1 1283:1 1284:1
-1 137:2 263:2 321:3 421:1 469:1 481:2 482:1 512:1 761:1 1144:4 1218:3 1228:1 1233:2 1236:1 1242:2 1243:2 1245:1 1261:1 1276:4 1283:1 1284:6
-1 268:2 449:1 1144:1 1246:2 1276:1 1280:1 1284:3
-1 1144:1 1276:1 1284:2
-1 1144:1 1276:1 1284:2
-1 1144:1 1276:1 1284:3
-1 158:1 1270:1 1284:3
-1 1144:1 1276:1 1284:3
-1 268:1 1144:1 1246:1 1276:1 1284:3
-1 263:1 268:2 449:1 469:1 481:1 482:1 1144:1 1228:1 1233:1 1243:1 1245:1 1246:2 1276:1 1280:1 1284:2
-1 168:1 175:1 212:1 236:1 268:1 308:1 323:1 382:1 556:1 691:1 713:1 781:1 833:1 834:1 854:1 976:1 1019:1 1121:1 1164:1 1246:1 1284:1 1286:3
-1 1144:1 1276:1 1284:3
-1 137:1 168:1 175:1 236:1 268:1 282:1 323:1 395:1 556:1 679:1 834:1 854:1 937:1 1035:1 1037:1 1121:1 1144:1 1215:1 1242:1 1246:1 1276:1 1284:1
-1 263:1 268:1 409:1 421:1 469:1 481:1 482:1 864:1 937:1 1053:1 1086:1 1144:1 1215:1 1228:1 1233:1 1243:1 1245:1 1246:1 1247:1 1250:1 1261:1 1276:1 1278:1 1281:1 1284:2
-1 268:1 469:1 481:1 1118:1 1144:1 1228:1 1243:1 1246:1 1276:1 1284:3
-1 268:1 469:1 481:1 1118:1 1144:1 1228:1 1243:1 1246:1 1276:1 1284:3
-1 120:1 175:1 264:1 268:1 301:1 352:1 618:1 794:1 838:1 884:1 887:1 893:1 920:1 1075:1 1143:1 1246:1 1284:2
-1 137:1 263:1 409:1 421:1 469:1 481:1 482:1 512:1 574:1 761:1 896:1 1144:1 1228:1 1233:1 1236:1 1242:1 1243:1 1244:1 1245:1 1247:1 1261:1 1276:1 1283:1 1284:2 1286:69
-1 224:1 268:2 520:1 559:1 639:1 1144:1 1246:2 1267:1 1271:1 1276:1 1284:3
-1 137:1 263:1 321:1 421:1 458:1 469:1 481:1 482:1 761:1 1144:1 1218:1 1221:1 1228:1 1233:1 1236:1 1242:1 1243:1 1245:1 1261:1 1276:1 1284:3
-1 263:1 268:2 512:1 1144:1 1233:1 1246:2 1276:1 1283:1 1284:2
-1 158:1 1270:1 1284:3
-1 137:1 645:1 800:1 971:1 1144:1 1212:1 1242:1 1248:1 1276:1 1284:1
-1 137:1 645:1 800:1 971:1 1144:1 1212:1 1242:1 1248:1 1276:1 1284:1
-1 191:1 1237:1 1284:1
-1 137:1 254:1 263:1 268:2 321:1 469:1 481:1 482:1 512:1 896:1 971:1 1144:1 1218:1 1223:1 1228:1 1233:1 1242:1 1243:1 1244:1 1245:1 1246:2 1248:1 1276:1 1283:1 1284:2
-1 224:1 263:1 268:2 355:1 520:1 559:1 639:1 971:1 1144:1 1233:1 1246:2 1248:1 1267:1 1271:1 1276:1 1284:2
-1 263:1 358:1 441:1 482:1 992:1 1144:1 1233:1 1245:1 1276:1 1284:1 1286:5
-1 137:1 168:1 175:1 263:1 268:1 422:1 425:1 556:1 834:1 854:1 857:1 893:1 937:1 971:1 1047:1 1075:1 1121:1 1144:1 1215:1 1233:1 1242:1 1246:1 1248:1 1266:1 1276:1 1284:2
-1 149:1 168:1 175:1 186:1 212:1 263:1 264:1 268:1 382:1 556:1 618:1 834:1 854:1 857:1 937:1 940:1 976:1 1043:1 1121:1 1164:1 1215:1 1233:1 1246:1 1284:2
-1 137:1 268:1 937:1 1144:1 1215:1 1242:1 1246:1 1276:1 1284:1
-1 158:1 1270:1 1284:3
-1 263:1 481:1 971:1 1144:1 1233:1 1243:1 1248:1 1276:1 1284:2
-1 137:2 263:2 321:1 421:1 1144:2 1218:1 1233:2 1242:2 1261:1 1276:2 1284:7
-1 158:1 1270:1 1284:2
-1 137:1 263:1 421:1 469:1 481:1 482:1 761:1 1144:1 1228:1 1233:1 1236:1 1242:1 1243:1 1245:1 1261:1 1276:1 1284:2
-1 137:2 263:2 321:2 421:1 482:1 761:1 1144:5 1218:2 1233:2 1236:1 1242:2 1245:1 1261:1 1276:5 1284:6
-1 137:1 268:1 469:1 1144:1 1228:1 1242:1 1246:1 1276:1 1284:1
-1 137:1 254:1 263:1 321:1 394:1 409:1 469:1 481:1 482:1 559:1 756:1 761:1 795:1 885:1 896:1 968:1 971:1 1144:1 1218:1 1222:1 1223:1 1228:1 1233:1 1236:1 1241:1 1242:1 1243:1 1244:1 1245:1 1247:1 1248:1 1267:1 1276:1 1284:2 1286:59
-1 137:1 263:1 268:1 463:1 482:1 932:1 1144:1 1233:1 1242:1 1245:1 1246:1 1276:1 1279:1 1284:1
-1 137:1 263:1 321:1 421:1 469:1 481:1 482:1 512:1 513:1 585:1 761:1 896:1 1144:1 1214:1 1216:1 1218:1 1228:1 1233:1 1236:1 1242:1 1243:1 1244:1 1245:1 1261:1 1276:1 1283:1 1284:5
-1 137:1 263:1 321:1 421:1 481:1 482:1 512:1 761:1 1144:1 1218:1 1233:1 1236:1 1242:1 1243:1 1245:1 1261:1 1276:1 1283:1 1284:5
-1 168:1 175:1 264:1 268:1 323:1 347:1 556:1 767:1 834:1 838:1 854:1 884:1 888:1 976:1 1042:1 1121:1 1164:1 1246:1 1284:3
-1 158:1 1270:1 1284:4
-1 158:1 1270:1 1284:4
-1 1144:1 1276:1 1284:2
-1 137:1 268:1 982:1 1144:1 1242:1 1246:1 1276:1 1284:3
-1 158:1 1270:1 1284:3
-1 158:1 1270:1 1284:3
-1 137:1 263:1 321:1 421:1 469:1 482:1 859:1 1144:1 1218:1 1228:1 1233:1 1242:1 1245:1 1261:1 1275:1 1276:1 1284:1
-1 137:2 263:2 321:2 421:1 482:1 512:1 761:1 1144:5 1218:2 1233:2 1236:1 1242:2 1245:1 1261:1 1276:5 1283:1 1284:7
-1 137:1 263:2 321:2 421:1 469:1 482:1 512:1 896:2 1144:3 1218:2 1228:1 1233:2 1242:1 1244:2 1245:1 1261:1 1276:3 1283:1 1284:6
-1 1144:1 1276:1 1284:2
-1 137:2 263:2 321:3 421:1 469:1 482:1 761:1 896:1 1144:4 1218:3 1228:1 1233:2 1236:1 1242:2 1244:1 1245:1 1261:1 1276:4 1284:6
-1 137:2 263:2 321:3 421:1 469:1 482:1 512:1 761:1 896:1 1144:4 1218:3 1228:1 1233:2 1236:1 1242:2 1244:1 1245:1 1261:1 1276:4 1283:1 1284:6
-1 168:1 175:1 212:1 213:1 264:1 268:1 321:1 323:1 382:1 426:1 458:1 556:1 618:1 691:1 755:1 834:1 838:1 854:1 884:1 888:1 937:1 976:1 1025:1 1121:1 1164:1 1208:1 1215:1 1218:1 1221:1 1246:1 1263:1 1284:2
-1 268:1 906:1 1144:1 1246:1 1276:1 1284:8
-1 268:1 487:1 591:1 648:1 1144:1 1246:1 1276:1 1284:6
-1 263:1 268:2 482:1 559:1 1144:1 1233:1 1245:1 1246:2 1267:1 1276:1 1284:2
-1 137:2 263:2 321:2 421:1 469:1 481:2 482:1 512:1 1144:3 1218:2 1228:1 1233:2 1242:2 1243:2 1245:1 1261:1 1276:3 1283:1 1284:6
-1 137:2 263:2 321:2 421:1 469:1 481:1 482:1 512:1 1144:4 1218:2 1228:1 1233:2 1242:2 1243:1 1245:1 1261:1 1276:4 1283:1 1284:6
-1 268:1 487:1 591:1 648:1 1144:1 1246:1 1276:1 1284:6
-1 137:1 263:1 421:1 482:1 512:1 1144:1 1233:1 1242:1 1245:1 1261:1 1276:1 1283:1 1284:1
-1 168:1 175:1 186:1 196:1 259:1 264:1 268:1 382:1 426:1 556:1 691:1 782:1 834:1 838:1 854:1 884:1 936:1 937:1 976:1 1024:1 1121:1 1164:1 1215:1 1246:1 1284:2
-1 137:2 263:2 321:3 421:1 469:1 481:3 482:1 512:1 585:1 761:1 1144:4 1216:1 1218:3 1228:1 1233:2 1236:1 1242:2 1243:3 1245:1 1261:1 1276:4 1283:1 1284:6
-1 137:1 168:1 175:1 236:1 268:1 481:1 679:1 833:1 834:1 1144:1 1242:1 1243:1 1246:1 1276:1 1284:2
-1 158:1 1270:1 1284:3
-1 158:1 1270:1 1284:4
-1 158:1 1270:1 1284:3
-1 158:1 1270:1 1284:3
-1 158:1 1270:1 1284:3
-1 158:1 1270:1 1284:3
-1 158:1 1270:1 1284:3
-1 137:1 236:1 254:1 263:1 268:1 323:1 523:1 679:1 833:1 1144:1 1223:1 1233:1 1242:1 1246:1 1276:1 1284:3
-1 263:1 469:1 481:1 482:1 1144:1 1228:1 1233:1 1243:1 1245:1 1276:1 1284:1
-1 189:1 263:1 469:1 481:1 482:1 859:1 1126:1 1144:1 1165:1 1224:1 1228:1 1232:1 1233:1 1243:1 1245:1 1275:1 1276:1 1284:2 1286:2
-1 191:1 1237:1 1284:1
-1 137:1 263:1 421:1 469:1 481:1 482:1 761:1 1144:1 1228:1 1233:1 1236:1 1242:1 1243:1 1245:1 1261:1 1276:1 1284:3
-1 263:1 268:1 482:1 896:1 1144:1 1233:1 1244:1 1245:1 1246:1 1276:1 1284:2
-1 268:1 1144:1 1246:1 1276:1 1284:2
-1 137:1 263:1 268:1 421:1 449:1 469:1 481:1 482:1 512:1 1144:1 1228:1 1233:1 1242:1 1243:1 1245:1 1246:1 1261:1 1276:1 1280:1 1283:1 1284:2
-1 263:1 268:1 482:1 1144:1 1233:1 1245:1 1246:1 1276:1 1284:2
-1 158:1 1270:1 1284:2
-1 168:1 175:1 186:1 268:1 301:1 308:1 311:1 426:1 556:1 618:1 642:1 755:1 831:1 834:1 838:1 854:1 888:1 940:1 1052:1 1121:1 1164:1 1178:1 1246:1 1284:3
-1 134:1 197:1 263:1 268:1 321:1 481:1 693:1 876:1 1144:1 1218:1 1233:1 1238:1 1243:1 1246:1 1251:1 1276:1 1284:2
-1 134:1 263:1 268:1 421:1 469:1 482:1 1144:1 1167:1 1226:1 1228:1 1233:1 1238:1 1245:1 1246:1 1261:1 1276:1 1284:3
-1 158:1 1270:1 1284:3
-1 137:1 263:1 268:1 481:1 1144:1 1233:1 1242:1 1243:1 1246:1 1276:1 1284:3
-1 1144:1 1276:1 1284:1
-1 263:1 421:1 481:1 482:1 971:1 1144:1 1233:1 1243:1 1245:1 1248:1 1261:1 1276:1 1284:2
-1 174:1 268:2 648:1 1144:1 1246:2 1276:1 1284:5
-1 449:1 1144:1 1276:1 1280:1 1284:2
-1 121:1 174:1 268:2 481:1 648:1 1144:1 1243:1 1246:2 1276:1 1284:5
-1 137:1 263:1 421:1 481:1 482:1 896:1 1144:1 1233:1 1242:1 1243:1 1244:1 1245:1 1261:1 1276:1 1284:2
-1 268:2 1144:1 1246:2 1276:1 1284:2
-1 137:1 151:1 263:1 321:1 409:1 421:1 425:1 458:1 469:1 482:1 699:1 790:1 1053:1 1144:1 1165:1 1218:1 1221:1 1224:1 1228:1 1233:1 1242:1 1245:1 1247:1 1250:1 1261:1 1262:1 1265:1 1266:1 1276:1 1284:1
-1 813:1 1284:3
-1 121:1 174:1 268:2 648:1 1087:1 1144:1 1246:2 1276:1 1284:6
-1 180:1 1144:1 1276:1 1284:2
-1 158:1 1270:1 1284:4
-1 294:1 896:1 1144:1 1244:1 1276:1 1284:2
-1 137:2 263:2 321:1 421:1 1144:2 1218:1 1233:2 1242:2 1261:1 1276:2 1284:7
-1 263:1 274:1 314:1 362:1 389:1 469:1 477:1 482:1 567:1 798:1 805:1 879:1 969:1 972:1 979:1 981:1 992:1 1040:1 1045:1 1053:1 1080:1 1081:1 1093:1 1144:1 1228:1 1233:1 1245:1 1250:1 1276:1 1284:1
-1 294:1 1144:1 1276:1 1284:2
-1 268:2 877:1 1144:1 1246:2 1276:1 1284:2
-1 137:2 263:2 321:1 421:1 1144:2 1218:1 1233:2 1242:2 1261:1 1276:2 1284:6
-1 137:2 263:2 321:3 421:1 469:1 481:3 482:1 512:1 585:1 761:1 896:1 1144:7 1216:1 1218:3 1228:1 1233:2 1236:1 1242:2 1243:3 1244:1 1245:1 1261:1 1276:7 1283:1 1284:6
-1 158:1 1270:1 1284:4
-1 137:1 263:1 896:1 1144:1 1233:1 1242:1 1244:1 1276:1 1284:3
-1 137:1 263:1 896:1 1144:1 1233:1 1242:1 1244:1 1276:1 1284:3
-1 137:1 263:1 321:1 345:1 409:1 421:1 469:1 481:1 482:1 512:1 513:1 761:1 1144:1 1214:1 1218:1 1228:1 1233:1 1236:1 1242:1 1243:1 1245:1 1247:1 1249:1 1261:1 1276:1 1283:1 1284:1
-1 191:1 1237:1 1284:1
-1 168:1 175:1 186:1 212:1 240:1 264:1 268:1 382:1 426:1 453:1 556:1 558:1 617:1 618:1 691:1 834:1 854:1 860:1 976:1 1025:1 1121:1 1164:1 1190:1 1246:1 1284:2
-1 137:1 189:1 248:1 263:1 268:1 321:1 457:1 458:1 469:1 482:1 511:1 859:1 932:1 937:1 1050:1 1089:1 1144:1 1165:1 1215:1 1218:1 1221:1 1224:1 1228:1 1232:1 1233:1 1242:1 1245:1 1246:1 1275:1 1276:1 1279:1 1284:2
-1 137:1 189:1 248:1 263:1 268:1 321:1 421:1 425:1 457:1 458:1 469:1 481:1 482:1 511:1 555:1 710:1 761:1 932:1 937:1 1089:1 1120:1 1144:1 1165:1 1215:1 1218:1 1221:1 1224:1 1228:1 1232:1 1233:1 1236:1 1242:1 1243:1 1245:1 1246:1 1257:1 1261:1 1266:1 1272:1 1276:1 1279:1 1284:1
-1 137:1 263:1 421:1 481:1 482:1 1144:1 1233:1 1242:1 1243:1 1245:1 1261:1 1276:1 1284:3
-1 268:2 1144:1 1246:2 1276:1 1284:2
-1 158:1 1270:1 1284:3
-1 158:1 1270:1 1284:2
-1 1144:1 1276:1 1284:1
-1 263:1 268:1 1092:1 1144:1 1233:1 1246:1 1276:1 1284:2
-1 137:1 168:1 175:1 268:1 323:1 556:1 679:1 834:1 854:1 940:1 1121:1 1144:1 1242:1 1246:1 1276:1 1284:3
-1 158:1 1270:1 1284:3
-1 137:1 168:1 175:1 263:1 268:1 323:1 421:1 469:1 482:1 556:1 583:1 834:1 854:1 1121:1 1144:1 1228:1 1233:1 1242:1 1245:1 1246:1 1261:1 1276:1 1284:1
-1 191:1 1237:1 1284:1
-1 158:1 1270:1 1284:3
-1 158:1 1270:1 1284:3
-1 168:1 175:1 196:1 259:1 264:1 268:1 301:1 319:1 556:1 834:1 854:1 884:1 937:1 971:1 1121:1 1159:1 1164:1 1215:1 1246:1 1248:1 1284:2
-1 137:1 189:1 263:1 268:1 321:1 397:1 409:1 421:1 469:1 481:1 482:1 507:1 513:1 619:1 746:1 896:1 937:1 1053:1 1131:1 1144:1 1214:1 1215:1 1218:1 1225:1 1228:1 1232:1 1233:1 1242:1 1243:1 1244:1 1245:1 1246:1 1247:1 1250:1 1261:1 1276:1 1284:1
-1 263:1 268:1 937:1 1092:1 1144:1 1215:1 1233:1 1246:1 1276:1 1284:1
-1 263:1 268:1 618:1 937:1 1144:1 1215:1 1233:1 1246:1 1276:1 1284:2
-1 158:1 1270:1 1284:3
-1 137:1 263:1 268:1 937:1 1144:1 1215:1 1233:1 1242:1 1246:1 1276:1 1284:1
-1 168:1 268:1 556:1 753:1 834:1 937:1 976:1 1095:1 1105:1 1215:1 1246:1 1284:2
-1 137:1 263:1 268:1 753:1 937:1 1105:1 1144:1 1215:1 1233:1 1242:1 1246:1 1276:1 1284:2
-1 137:1 263:1 268:1 321:1 421:1 469:1 482:1 1013:1 1144:1 1218:1 1228:1 1233:1 1242:1 1245:1 1246:1 1261:1 1276:1 1284:2
-1 1144:1 1276:1 1284:1
-1 263:1 268:1 409:1 761:1 937:1 971:1 1144:1 1215:1 1233:1 1236:1 1246:1 1247:1 1248:1 1276:1 1284:2
-1 137:1 263:1 394:1 481:1 547:1 582:1 761:1 896:1 998:1 1144:1 1222:1 1233:1 1236:1 1242:1 1243:1 1244:1 1273:1 1276:1 1284:3 1286:2
-1 137:1 263:1 321:1 417:1 421:1 469:1 481:1 482:1 512:1 761:1 896:1 1144:1 1218:1 1228:1 1233:1 1236:1 1242:1 1243:1 1244:1 1245:1 1261:1 1276:1 1283:1 1284:5
-1 158:1 1270:1 1284:3
-1 137:1 236:1 263:1 268:1 321:1 469:1 481:1 679:1 743:1 781:1 833:1 937:1 1144:1 1215:1 1218:1 1228:1 1233:1 1242:1 1243:1 1246:1 1276:1 1284:1
-1 137:1 236:1 263:1 268:1 321:1 469:1 481:1 679:1 743:1 781:1 833:1 937:1 1144:1 1215:1 1218:1 1228:1 1233:1 1242:1 1243:1 1246:1 1276:1 1284:1
-1 168:1 175:1 236:1 268:1 308:1 323:1 469:1 556:1 691:1 713:1 781:1 833:1 834:1 854:1 888:1 1121:1 1144:1 1164:1 1228:1 1246:1 1276:1 1284:1 1286:3
-1 137:1 263:1 268:1 458:1 525:1 555:1 631:1 788:1 864:1 937:1 1144:1 1165:1 1215:1 1221:1 1224:1 1233:1 1242:1 1246:1 1276:1 1278:1 1284:3
-1 137:1 268:1 751:1 971:1 1144:1 1242:1 1246:1 1248:1 1276:1 1284:1
-1 268:1 487:1 591:1 648:1 1144:1 1246:1 1276:1 1284:6
-1 268:1 686:1 925:1 1144:1 1246:1 1276:1 1284:3
-1 127:1 263:1 421:1 482:1 512:1 761:1 791:1 983:1 1144:1 1233:1 1236:1 1245:1 1261:1 1276:1 1283:1 1284:2 1286:2
-1 263:1 268:1 758:1 1144:1 1233:1 1246:1 1276:1 1284:2
-1 158:1 1270:1 1284:4
-1 137:2 263:2 321:3 345:1 421:1 469:1 481:1 482:1 512:1 761:1 1144:5 1218:3 1228:1 1233:2 1236:1 1242:2 1243:1 1245:1 1249:1 1261:1 1276:5 1283:1 1284:6
-1 137:2 263:2 321:3 421:1 469:1 481:2 482:1 761:1 1144:5 1218:3 1228:1 1233:2 1236:1 1242:2 1243:2 1245:1 1261:1 1276:5 1284:6
-1 168:1 175:1 186:1 212:1 240:1 263:1 264:1 268:1 321:1 323:1 382:1 409:1 421:1 426:1 469:1 481:1 482:1 556:1 562:1 618:1 691:1 834:1 854:1 888:1 937:1 976:1 1121:1 1144:1 1164:1 1215:1 1218:1 1228:1 1233:1 1243:1 1245:1 1246:1 1247:1 1261:1 1276:1 1284:2
-1 134:1 263:1 268:1 481:1 1144:1 1233:1 1238:1 1243:1 1246:1 1276:1 1284:3
-1 137:2 263:2 321:2 421:1 469:1 481:2 482:1 761:1 1144:4 1218:2 1228:1 1233:2 1236:1 1242:2 1243:2 1245:1 1261:1 1276:4 1284:6
-1 158:1 1270:1 1284:3
-1 263:1 268:1 1144:1 1233:1 1246:1 1276:1 1284:2
-1 342:1 452:1 464:1 520:1 559:1 605:1 639:1 878:1 1135:1 1144:1 1267:1 1271:1 1276:1 1284:1
-1 137:1 263:1 268:1 409:1 761:1 937:1 971:1 1144:1 1215:1 1233:1 1236:1 1242:1 1246:1 1247:1 1248:1 1276:1 1284:2
-1 137:1 263:1 321:1 421:1 1144:1 1218:1 1233:1 1242:1 1261:1 1276:1 1284:5
-1 168:1 175:1 186:1 212:1 220:1 230:1 236:1 240:1 248:1 264:1 268:1 308:1 321:1 323:1 382:1 387:1 426:1 458:1 466:1 556:1 618:1 642:1 679:1 691:1 826:1 831:1 834:1 838:1 854:1 864:1 880:1 884:1 888:1 937:1 946:1 974:1 976:1 1025:1 1121:1 1164:1 1165:1 1208:1 1209:1 1215:1 1218:1 1221:1 1224:1 1246:1 1278:1 1284:3
-1 137:1 263:1 421:1 469:1 481:1 482:1 512:1 896:1 1144:1 1228:1 1233:1 1242:1 1243:1 1244:1 1245:1 1261:1 1276:1 1283:1 1284:4
-1 137:1 263:1 421:1 469:1 481:1 482:1 761:1 1144:1 1228:1 1233:1 1236:1 1242:1 1243:1 1245:1 1261:1 1276:1 1284:2
-1 137:1 263:1 268:1 481:1 1144:1 1233:1 1242:1 1243:1 1246:1 1276:1 1284:3
-1 168:1 175:1 212:1 236:1 249:1 268:1 301:1 308:1 323:1 382:1 556:1 618:1 679:1 831:1 833:1 834:1 854:1 888:1 976:1 1052:1 1121:1 1164:1 1246:1 1284:2
-1 137:1 168:1 175:1 186:1 236:1 263:1 264:1 268:1 323:1 409:1 556:1 834:1 854:1 937:1 1086:1 1121:1 1144:1 1215:1 1233:1 1242:1 1246:1 1247:1 1276:1 1281:1 1284:2
-1 168:1 175:1 186:1 212:1 236:1 263:1 264:1 268:1 301:1 308:1 321:1 323:1 382:1 409:1 469:1 523:1 556:1 618:1 642:1 679:1 691:1 752:1 831:1 833:1 834:1 854:1 888:1 937:1 976:1 1052:1 1121:1 1164:1 1215:1 1218:1 1228:1 1233:1 1246:1 1247:1 1284:3
-1 268:1 1144:1 1246:1 1276:1 1284:2
-1 268:2 1144:1 1246:2 1276:1 1284:2
-1 137:1 144:1 263:1 268:1 421:1 469:1 481:1 482:1 512:1 761:1 907:1 1144:1 1228:1 1233:1 1236:1 1242:1 1243:1 1245:1 1246:1 1261:1 1276:1 1283:1 1284:1
-1 137:1 263:1 268:1 421:1 482:1 710:1 761:1 1144:1 1233:1 1236:1 1242:1 1245:1 1246:1 1261:1 1272:1 1276:1 1284:2
-1 168:1 175:1 186:1 196:1 240:1 259:1 264:1 268:1 301:1 382:1 426:1 461:1 462:1 466:1 484:1 524:1 556:1 618:1 642:1 691:1 834:1 838:1 854:1 860:1 937:1 976:1 1019:1 1025:1 1121:1 1164:1 1208:1 1215:1 1246:1 1284:2
-1 168:1 175:1 186:1 259:1 264:1 268:1 301:1 382:1 426:1 556:1 569:1 618:1 642:1 691:1 834:1 854:1 976:1 1121:1 1246:1 1284:3
-1 137:1 144:1 263:1 268:1 394:1 421:1 599:1 710:1 904:1 1144:1 1222:1 1233:1 1242:1 1246:1 1254:1 1261:1 1272:1 1276:1 1284:2
-1 137:1 268:2 1144:1 1242:1 1246:2 1276:1 1284:4
-1 263:1 471:1 601:1 791:1 1144:1 1233:1 1276:1 1284:3 1286:2
-1 137:1 263:1 321:1 345:1 409:1 469:1 481:1 482:1 512:1 547:1 657:1 932:1 1144:1 1218:1 1228:1 1233:1 1242:1 1243:1 1245:1 1247:1 1249:1 1276:1 1279:1 1283:1 1284:1
-1 263:1 421:1 481:1 1144:1 1154:1 1233:1 1243:1 1261:1 1276:1 1284:2
-1 137:1 263:1 321:1 345:1 421:1 469:1 482:1 512:1 932:1 1144:1 1167:1 1218:1 1226:1 1228:1 1233:1 1242:1 1245:1 1249:1 1261:1 1276:1 1279:1 1283:1 1284:2
-1 158:1 1270:1 1284:3
-1 144:1 263:1 268:1 482:1 1144:1 1233:1 1245:1 1246:1 1276:1 1284:2
-1 137:1 263:1 421:1 469:1 481:1 482:1 761:1 1144:1 1228:1 1233:1 1236:1 1242:1 1243:1 1245:1 1261:1 1276:1 1284:3
-1 137:1 144:1 263:1 268:1 469:1 481:1 761:1 1144:1 1228:1 1233:1 1236:1 1242:1 1243:1 1246:1 1276:1 1284:1
-1 191:1 1237:1 1284:1
-1 121:1 174:1 263:1 268:2 421:1 481:1 503:1 604:1 648:1 1087:1 1144:1 1175:1 1233:1 1243:1 1246:2 1261:1 1276:1 1284:5 1286:35
-1 137:1 263:1 321:1 404:1 421:1 422:1 469:1 481:1 482:1 512:1 761:1 896:1 1144:1 1218:1 1228:1 1233:1 1236:1 1242:1 1243:1 1244:1 1245:1 1261:1 1276:1 1283:1 1284:5
-1 137:1 263:1 268:1 421:1 761:1 937:1 1139:1 1144:1 1215:1 1233:1 1236:1 1242:1 1246:1 1261:1 1276:1 1284:2
-1 268:2 1144:1 1246:2 1276:1 1284:3
-1 268:2 1144:1 1246:2 1276:1 1284:2
-1 559:1 639:1 1056:1 1144:1 1267:1 1271:1 1276:1 1284:2
-1 263:1 268:2 371:1 482:1 559:1 639:1 1144:1 1233:1 1245:1 1246:2 1267:1 1271:1 1276:1 1284:2
-1 268:1 510:1 1144:1 1246:1 1276:1 1284:3
-1 191:1 1237:1 1284:1
-1 191:1 1237:1 1284:1
-1 158:1 1270:1 1284:3
-1 137:1 263:1 268:2 321:1 421:1 469:1 481:1 482:1 512:1 563:31 1144:1 1218:1 1228:1 1233:1 1242:1 1243:1 1245:1 1246:2 1261:1 1276:1 1283:1 1284:2
-1 168:1 175:1 186:1 259:1 264:1 268:1 382:1 426:1 556:1 558:1 618:1 691:1 834:1 838:1 854:1 936:1 937:1 966:1 976:1 1121:1 1164:1 1208:1 1215:1 1246:1 1284:1
-1 158:1 1270:1 1284:3
-1 137:1 268:1 321:1 409:1 469:1 937:1 1144:1 1215:1 1218:1 1228:1 1242:1 1246:1 1247:1 1276:1 1284:1
-1 268:1 937:1 1105:1 1144:1 1215:1 1246:1 1276:1 1284:2
-1 134:1 263:1 268:1 1144:1 1233:1 1238:1 1246:1 1276:1 1284:2
-1 323:1 481:1 937:1 1144:1 1215:1 1243:1 1276:1 1284:1
-1 263:1 512:1 1144:1 1233:1 1276:1 1283:1 1284:4
-1 137:1 213:1 263:1 268:1 321:1 409:1 421:1 469:1 481:1 482:1 512:1 693:1 761:1 1144:1 1218:1 1228:1 1233:1 1236:1 1242:1 1243:1 1245:1 1246:1 1247:1 1251:1 1261:1 1263:1 1276:1 1283:1 1284:2
-1 133:1 137:1 263:1 421:1 469:1 481:1 482:1 512:1 564:1 761:1 1144:1 1167:1 1226:1 1228:1 1233:1 1234:1 1236:1 1242:1 1243:1 1245:1 1261:1 1274:1 1276:1 1283:1 1284:2
-1 168:1 175:1 263:1 268:1 409:1 482:1 556:1 834:1 854:1 1121:1 1144:1 1233:1 1245:1 1246:1 1247:1 1276:1 1284:2
-1 168:1 175:1 268:1 321:1 323:1 556:1 834:1 854:1 1121:1 1144:1 1218:1 1246:1 1276:1 1284:2
-1 158:1 1270:1 1284:2
-1 268:2 1144:1 1246:2 1276:1 1284:2
-1 268:2 1144:1 1246:2 1276:1 1284:2
-1 137:3 263:2 321:1 421:1 1144:4 1218:1 1233:2 1242:3 1261:1 1276:4 1284:4
-1 1144:1 1276:1 1284:2
-1 158:1 1270:1 1284:3
-1 158:1 1270:1 1284:2
-1 137:1 168:1 175:1 212:1 263:1 268:1 321:1 409:1 469:1 481:1 556:1 561:1 699:1 790:1 834:1 854:1 893:1 937:1 976:1 998:1 1121:1 1144:1 1165:1 1215:1 1218:1 1224:1 1228:1 1233:1 1242:1 1243:1 1246:1 1247:1 1262:1 1273:1 1276:1 1284:1
-1 158:1 1270:1 1284:3
-1 1144:1 1276:1 1284:1
-1 168:1 175:1 186:1 268:1 556:1 834:1 854:1 888:1 937:1 976:1 1019:1 1121:1 1215:1 1246:1 1284:2
-1 137:1 263:1 421:1 469:1 481:1 482:1 1144:1 1228:1 1233:1 1242:1 1243:1 1245:1 1261:1 1276:1 1284:2
-1 158:1 1270:1 1284:3
-1 158:1 1270:1 1284:3
-1 168:1 175:1 186:1 212:1 231:1 236:1 263:1 264:1 268:1 301:1 311:1 323:1 382:1 421:1 426:1 482:1 556:1 558:1 585:1 618:1 679:1 699:1 822:1 831:1 834:1 838:1 854:1 884:1 888:1 901:1 937:1 973:1 976:1 998:1 1019:1 1025:1 1075:1 1121:1 1164:1 1165:1 1215:1 1216:1 1224:1 1233:1 1245:1 1246:1 1261:1 1262:1 1273:1 1284:3
-1 158:1 1270:1 1284:3
-1 268:1 1144:1 1246:1 1276:1 1284:5
-1 158:1 1270:1 1284:2
-1 137:1 168:1 175:1 263:1 268:1 323:1 409:1 481:1 556:1 834:1 854:1 1121:1 1144:1 1233:1 1242:1 1243:1 1246:1 1247:1 1276:1 1284:2
-1 158:1 1270:1 1284:4
-1 268:1 351:1 1246:1 1284:1
-1 263:1 268:1 512:1 1144:1 1233:1 1246:1 1276:1 1283:1 1284:2
-1 469:1 1144:1 1228:1 1276:1 1284:2
-1 137:1 263:1 321:1 449:1 482:1 1144:1 1218:1 1233:1 1242:1 1245:1 1276:1 1280:1 1284:2
-1 137:1 263:1 321:1 421:1 469:1 481:1 482:1 585:1 761:1 1144:1 1216:1 1218:1 1228:1 1233:1 1236:1 1242:1 1243:1 1245:1 1261:1 1276:1 1284:4
-1 137:1 263:1 268:1 397:1 421:1 469:1 481:1 482:1 512:1 859:1 896:1 1144:1 1228:1 1233:1 1242:1 1243:1 1244:1 1245:1 1246:1 1261:1 1275:1 1276:1 1283:1 1284:2
-1 137:3 263:2 321:3 421:1 469:1 481:2 482:1 512:1 761:1 1144:5 1218:3 1228:1 1233:2 1236:1 1242:3 1243:2 1245:1 1261:1 1276:5 1283:1 1284:6
-1 137:1 263:1 409:1 421:1 422:1 481:1 482:1 512:1 896:1 971:1 1144:1 1233:1 1242:1 1243:1 1244:1 1245:1 1247:1 1248:1 1261:1 1276:1 1283:1 1284:2
-1 137:1 263:1 409:1 421:1 422:1 425:1 481:1 482:1 512:1 896:1 971:1 1144:1 1233:1 1242:1 1243:1 1244:1 1245:1 1247:1 1248:1 1261:1 1266:1 1276:1 1283:1 1284:2
-1 137:1 263:1 268:1 1144:1 1233:1 1242:1 1246:1 1276:1 1284:2
-1 137:1 263:1 482:1 512:1 761:1 1144:1 1233:1 1236:1 1242:1 1245:1 1276:1 1283:1 1284:2
-1 263:1 362:1 482:1 992:1 1053:1 1144:1 1233:1 1245:1 1250:1 1276:1 1284:1
-1 191:1 1237:1 1284:1
-1 133:1 137:1 263:1 321:1 407:1 409:1 421:1 458:1 469:1 481:1 482:1 512:1 761:1 859:1 992:1 1053:1 1144:1 1179:1 1218:1 1221:1 1228:1 1233:1 1234:1 1236:1 1242:1 1243:1 1245:1 1247:1 1250:1 1261:1 1275:1 1276:1 1283:1 1284:1
-1 158:1 1270:1 1284:3
-1 137:1 263:1 481:1 482:1 1144:1 1233:1 1242:1 1243:1 1245:1 1276:1 1284:2
-1 1144:1 1276:1 1284:1
-1 137:2 263:2 321:2 421:1 482:1 512:1 896:1 1144:4 1218:2 1233:2 1242:2 1244:1 1245:1 1261:1 1276:4 1283:1 1284:6
-1 268:2 1144:1 1246:2 1276:1 1284:2
-1 137:1 263:1 268:1 397:1 449:1 469:1 482:1 693:1 876:1 896:1 1144:1 1228:1 1233:1 1242:1 1244:1 1245:1 1246:1 1251:1 1276:1 1280:1 1284:3 1286:9
-1 134:1 263:1 268:1 1144:1 1233:1 1238:1 1246:1 1276:1 1284:2
-1 137:2 263:2 321:1 421:1 1144:2 1218:1 1233:2 1242:2 1261:1 1276:2 1284:6
-1 137:1 263:1 321:1 409:1 469:1 481:1 482:1 761:1 896:1 1144:1 1218:1 1228:1 1233:1 1236:1 1242:1 1243:1 1244:1 1245:1 1247:1 1276:1 1284:2
-1 263:1 548:1 1144:1 1233:1 1256:1 1276:1 1284:2
-1 137:1 254:1 263:1 321:1 469:1 481:1 482:1 559:1 896:1 971:1 1144:1 1218:1 1223:1 1228:1 1233:1 1242:1 1243:1 1244:1 1245:1 1248:1 1267:1 1276:1 1284:2 1286:40
-1 137:1 167:1 200:1 250:1 263:1 409:1 421:1 456:1 474:1 481:1 482:1 542:1 611:1 638:1 722:1 859:1 882:1 913:1 951:1 1123:1 1144:1 1219:1 1233:1 1235:1 1239:1 1242:1 1243:1 1245:1 1247:1 1252:1 1253:1 1260:1 1261:1 1269:1 1275:1 1276:1 1277:1 1282:1 1284:2
-1 158:1 1270:1 1284:3
-1 263:1 268:1 349:1 482:1 512:1 686:1 1144:1 1233:1 1245:1 1246:1 1276:1 1283:1 1284:2
-1 263:1 268:1 482:1 512:1 686:1 1144:1 1233:1 1245:1 1246:1 1276:1 1283:1 1284:2
-1 263:1 268:1 482:1 512:1 686:1 1144:1 1233:1 1245:1 1246:1 1276:1 1283:1 1284:2
-1 1144:1 1276:1 1284:2
-1 137:1 263:1 421:1 469:1 481:1 482:1 761:1 1144:1 1228:1 1233:1 1236:1 1242:1 1243:1 1245:1 1261:1 1276:1 1284:2
-1 191:1 1237:1 1284:1
-1 137:2 263:2 321:1 421:1 422:1 469:1 481:1 482:1 512:1 761:1 1144:3 1218:1 1228:1 1233:2 1236:1 1242:2 1243:1 1245:1 1261:1 1276:3 1283:1 1284:6
-1 134:1 263:1 268:1 1144:1 1233:1 1238:1 1246:1 1276:1 1284:3
-1 137:1 168:1 175:1 236:1 263:1 264:1 268:1 321:1 323:1 409:1 556:1 679:1 691:1 833:1 834:1 838:1 854:1 937:1 1121:1 1144:1 1215:1 1218:1 1233:1 1242:1 1246:1 1247:1 1276:1 1284:3
-1 137:1 168:1 175:1 207:1 263:1 268:1 421:1 458:1 481:1 482:1 512:1 556:1 822:1 834:1 854:1 937:1 1119:1 1121:1 1144:1 1165:1 1215:1 1221:1 1224:1 1233:1 1242:1 1243:1 1245:1 1246:1 1261:1 1276:1 1283:1 1284:2
-1 137:1 263:1 340:1 362:1 389:1 421:1 477:1 481:1 482:1 512:1 992:1 1053:1 1144:1 1233:1 1242:1 1243:1 1245:1 1250:1 1261:1 1276:1 1283:1 1284:1
-1 137:1 263:1 321:1 327:1 409:1 469:1 547:1 1144:1 1218:1 1228:1 1233:1 1242:1 1247:1 1276:1 1284:2
-1 137:1 263:1 268:1 321:1 469:1 761:1 1144:1 1218:1 1228:1 1233:1 1236:1 1242:1 1246:1 1276:1 1284:1 1286:1
-1 268:1 487:1 591:1 648:1 1144:1 1246:1 1276:1 1284:6
-1 158:1 1270:1 1284:5
-1 137:1 263:1 268:1 397:1 421:1 449:1 469:1 481:1 482:1 512:1 559:1 564:1 639:1 693:1 896:1 996:1 1144:1 1228:1 1233:1 1242:1 1243:1 1244:1 1245:1 1246:1 1251:1 1261:1 1267:1 1271:1 1274:1 1276:1 1280:1 1283:1 1284:2 1286:61
-1 137:1 263:1 421:1 469:1 481:1 482:1 761:1 1144:1 1228:1 1233:1 1236:1 1242:1 1243:1 1245:1 1261:1 1276:1 1284:3
-1 937:1 1112:1 1215:1 1284:2
-1 937:1 1144:1 1215:1 1276:1 1284:1
-1 137:1 263:1 268:1 321:1 421:1 469:1 481:1 482:1 512:1 1144:1 1218:1 1228:1 1233:1 1242:1 1243:1 1245:1 1246:1 1261:1 1276:1 1283:1 1284:4
-1 268:1 822:1 1144:1 1246:1 1276:1 1284:2
-1 137:1 263:1 482:1 512:1 1144:1 1233:1 1242:1 1245:1 1276:1 1283:1 1284:1
-1 158:1 1270:1 1284:3
-1 137:1 168:1 175:1 263:1 268:1 321:1 323:1 421:1 469:1 472:1 482:1 513:1 556:1 834:1 854:1 932:1 937:1 1086:1 1121:1 1144:1 1214:1 1215:1 1218:1 1228:1 1233:1 1242:1 1245:1 1246:1 1261:1 1276:1 1279:1 1281:1 1284:1
-1 137:1 263:1 268:1 321:1 469:1 1144:1 1218:1 1228:1 1233:1 1242:1 1246:1 1276:1 1284:2
-1 615:1 1144:1 1276:1 1284:2
-1 263:1 268:1 1144:1 1233:1 1246:1 1276:1 1284:4
-1 268:2 449:1 971:1 1144:1 1246:2 1248:1 1276:1 1280:1 1284:3
-1 263:1 417:1 469:1 1144:1 1228:1 1233:1 1276:1 1284:2
-1 263:1 417:1 469:1 1144:1 1228:1 1233:1 1276:1 1284:2
-1 263:1 268:1 388:1 412:1 519:1 872:1 1144:1 1233:1 1246:1 1276:1 1284:3
-1 268:1 559:1 639:1 858:1 1144:1 1246:1 1267:1 1271:1 1276:1 1284:2
-1 137:1 449:1 1144:1 1242:1 1276:1 1280:1 1284:2
-1 137:1 327:1 1144:1 1242:1 1276:1 1284:1
-1 268:2 449:1 1144:1 1246:2 1276:1 1280:1 1284:3
-1 137:2 263:2 321:2 421:1 422:1 449:1 469:1 481:1 482:1 761:1 1144:4 1218:2 1228:1 1233:2 1236:1 1242:2 1243:1 1245:1 1261:1 1276:4 1280:1 1284:6
-1 137:2 263:2 321:2 421:1 449:1 482:1 512:1 761:1 1144:4 1218:2 1233:2 1236:1 1242:2 1245:1 1261:1 1276:4 1280:1 1283:1 1284:6
-1 137:1 189:1 213:1 263:1 321:1 409:1 421:1 458:1 469:1 481:1 482:1 547:1 585:1 761:1 790:1 859:1 885:1 896:1 968:1 971:1 1053:1 1144:1 1165:1 1216:1 1218:1 1221:1 1224:1 1228:1 1232:1 1233:1 1236:1 1241:1 1242:1 1243:1 1244:1 1245:1 1247:1 1248:1 1250:1 1261:1 1263:1 1275:1 1276:1 1284:2
-1 158:1 1270:1 1284:3
-1 158:1 1270:1 1284:2
-1 137:1 263:2 321:2 520:1 1079:1 1144:4 1218:2 1233:2 1242:1 1276:4 1284:5
-1 137:2 263:2 321:3 421:1 469:1 482:1 512:1 559:2 639:1 761:1 1144:4 1218:3 1228:1 1233:2 1236:1 1242:2 1245:1 1261:1 1267:2 1271:1 1276:4 1283:1 1284:6
-1 520:1 559:1 639:1 1020:1 1056:1 1144:1 1267:1 1271:1 1276:1 1284:4
-1 137:1 263:1 421:1 469:1 481:1 482:1 1144:1 1228:1 1233:1 1242:1 1243:1 1245:1 1261:1 1276:1 1284:2
-1 168:1 175:1 264:1 268:1 458:1 556:1 618:1 691:1 755:1 834:1 838:1 854:1 884:1 888:1 976:1 1044:1 1052:1 1121:1 1164:1 1221:1 1246:1 1284:2
-1 268:1 1144:1 1246:1 1276:1 1284:5
-1 268:2 1144:1 1246:2 1276:1 1284:3
-1 158:1 1270:1 1284:4
-1 191:1 1237:1 1284:1
-1 128:1 168:1 170:1 175:1 193:1 212:1 236:1 249:1 263:1 264:1 268:1 301:1 308:1 323:1 361:1 382:1 426:1 444:1 453:1 472:1 504:1 556:1 618:1 679:1 702:1 767:1 831:1 833:1 834:1 838:1 854:1 888:1 937:1 966:1 976:1 1014:1 1042:1 1052:1 1068:1 1121:1 1164:1 1171:1 1178:1 1193:1 1209:1 1215:1 1233:1 1246:1 1284:3
-1 168:1 175:1 212:1 268:1 301:1 382:1 556:1 618:1 834:1 854:1 976:1 1121:1 1164:1 1246:1 1284:2
-1 158:1 1270:1 1284:2
-1 137:1 263:1 421:1 422:1 481:1 482:1 512:1 971:1 1144:1 1233:1 1242:1 1243:1 1245:1 1248:1 1261:1 1276:1 1283:1 1284:1
-1 191:1 1237:1 1284:1
-1 137:2 263:2 321:1 421:1 1144:2 1218:1 1233:2 1242:2 1261:1 1276:2 1284:7
-1 130:1 137:1 263:1 268:1 321:1 323:1 421:1 481:1 482:1 937:1 1053:1 1144:1 1182:1 1215:1 1218:1 1233:1 1242:1 1243:1 1245:1 1246:1 1250:1 1261:1 1276:1 1284:2
-1 137:1 263:1 421:1 469:1 481:1 482:1 761:1 1144:1 1228:1 1233:1 1236:1 1242:1 1243:1 1245:1 1261:1 1276:1 1284:3
-1 191:1 1237:1 1284:1
-1 1284:3
-1 263:1 268:1 937:1 1144:1 1215:1 1233:1 1246:1 1276:1 1284:2
-1 137:1 263:1 268:1 409:1 421:1 469:1 481:1 482:1 512:1 699:1 700:1 896:1 968:1 971:1 1086:1 1144:1 1228:1 1233:1 1241:1 1242:1 1243:1 1244:1 1245:1 1246:1 1247:1 1248:1 1261:1 1262:1 1276:1 1281:1 1283:1 1284:4
-1 158:1 1270:1 1284:3
-1 137:2 263:2 321:2 421:1 481:1 482:1 761:1 1144:4 1218:2 1233:2 1236:1 1242:2 1243:1 1245:1 1261:1 1276:4 1284:6
-1 268:1 469:1 1127:1 1144:1 1228:1 1246:1 1276:1 1284:1
-1 321:1 328:1 469:1 568:1 1218:1 1228:1 1284:2
-1 268:2 1144:1 1246:2 1276:1 1284:5
-1 137:1 263:1 481:1 1144:1 1233:1 1242:1 1243:1 1276:1 1284:3
-1 158:1 1270:1 1284:2
-1 168:1 175:1 186:1 259:1 264:1 268:1 323:1 382:1 426:1 524:1 556:1 618:1 719:1 755:1 757:1 831:1 834:1 854:1 884:1 937:1 976:1 1085:1 1115:1 1121:1 1164:1 1208:1 1215:1 1246:1 1284:3
-1 137:1 263:1 421:1 469:1 481:1 482:1 761:1 1144:1 1228:1 1233:1 1236:1 1242:1 1243:1 1245:1 1261:1 1276:1 1284:3
-1 158:1 1270:1 1284:3
-1 137:2 254:1 263:2 321:3 421:1 422:1 469:2 481:1 482:1 512:1 559:3 585:1 761:1 1144:5 1216:1 1218:3 1223:1 1228:2 1233:2 1236:1 1242:2 1243:1 1245:1 1261:1 1267:3 1276:5 1283:1 1284:6
-1 158:1 1270:1 1284:3
-1 440:1 1144:1 1276:1 1284:3
-1 271:1 559:1 560:1 639:1 1056:1 1144:1 1267:1 1271:1 1276:1 1284:1
-1 271:1 559:1 639:1 1056:1 1144:1 1267:1 1271:1 1276:1 1284:1
-1 271:1 559:1 560:1 639:1 1056:1 1144:1 1267:1 1271:1 1276:1 1284:1
-1 142:1 180:1 263:1 343:1 824:1 939:1 1063:1 1144:1 1233:1 1276:1 1284:1
-1 191:1 1237:1 1284:1
-1 1144:1 1276:1 1284:2
-1 268:2 331:1 332:1 412:1 465:1 519:1 716:1 872:1 1144:1 1246:2 1276:1 1284:2
-1 137:1 263:1 481:1 482:1 512:1 1144:1 1233:1 1242:1 1243:1 1245:1 1276:1 1283:1 1284:1
-1 294:1 1144:1 1276:1 1284:3
-1 294:1 1144:1 1276:1 1284:3
-1 294:1 1144:1 1276:1 1284:3
-1 294:1 1144:1 1276:1 1284:3
-1 137:1 263:1 450:1 482:1 619:1 957:1 1144:1 1233:1 1242:1 1245:1 1276:1 1284:2
-1 137:2 254:1 263:3 321:2 421:1 449:1 469:1 481:2 482:1 503:1 512:1 761:1 1144:5 1218:2 1223:1 1228:1 1233:3 1236:1 1242:2 1243:2 1245:1 1261:1 1276:5 1280:1 1283:1 1284:6
-1 263:1 268:1 409:1 481:1 1144:1 1233:1 1243:1 1246:1 1247:1 1276:1 1284:6
-1 149:1 168:1 175:1 186:1 207:1 212:1 240:1 264:1 268:1 301:1 321:1 323:1 382:1 426:1 453:1 461:1 524:1 556:1 558:1 561:1 618:1 679:1 691:1 755:1 757:1 831:1 834:1 838:1 843:1 854:1 864:1 888:1 892:1 893:1 937:1 946:1 976:1 1019:1 1024:1 1025:1 1033:1 1115:1 1121:1 1140:1 1157:1 1164:1 1165:1 1193:1 1194:1 1208:1 1215:1 1218:1 1224:1 1246:1 1278:1 1284:2
-1 168:1 175:1 186:1 268:1 426:1 481:1 556:1 558:1 834:1 838:1 854:1 937:1 976:1 1121:1 1144:1 1164:1 1215:1 1243:1 1246:1 1276:1 1284:2
-1 123:1 168:1 175:1 186:1 196:1 205:1 212:1 236:1 240:1 264:1 268:1 301:1 321:1 323:1 382:1 426:1 434:1 556:1 618:1 642:1 679:1 691:1 775:1 789:1 833:1 834:1 838:1 854:1 888:1 936:1 937:1 976:1 1019:1 1052:1 1121:1 1164:1 1215:1 1218:1 1246:1 1284:2
-1 137:1 175:1 268:1 323:1 409:1 556:1 687:1 834:1 854:1 1121:1 1144:1 1242:1 1246:1 1247:1 1276:1 1284:1
-1 168:1 175:1 263:1 268:1 556:1 834:1 854:1 1121:1 1144:1 1233:1 1246:1 1276:1 1284:3
-1 191:1 1237:1 1284:1
-1 137:1 263:1 421:1 469:1 481:1 482:1 761:1 1144:1 1228:1 1233:1 1236:1 1242:1 1243:1 1245:1 1261:1 1276:1 1284:3
-1 158:1 1270:1 1284:3
-1 137:1 263:1 268:1 321:1 469:1 932:1 937:1 1144:1 1215:1 1218:1 1228:1 1233:1 1242:1 1246:1 1276:1 1279:1 1284:2
-1 1144:1 1276:1 1284:1
-1 137:1 263:1 268:1 321:1 323:1 421:1 481:1 482:1 719:1 937:1 1144:1 1215:1 1218:1 1233:1 1242:1 1243:1 1245:1 1246:1 1261:1 1276:1 1284:1
-1 158:1 1270:1 1284:2
-1 137:1 268:1 1144:1 1242:1 1246:1 1276:1 1284:3
-1 137:1 263:1 321:1 345:1 421:1 469:1 482:1 512:1 896:1 1117:1 1144:1 1167:1 1218:1 1226:1 1228:1 1233:1 1242:1 1244:1 1245:1 1249:1 1261:1 1276:1 1283:1 1284:2
-1 137:1 263:1 321:1 345:1 421:1 469:1 482:1 512:1 896:1 1117:1 1144:1 1167:1 1218:1 1226:1 1228:1 1233:1 1242:1 1244:1 1245:1 1249:1 1261:1 1276:1 1283:1 1284:2
-1 125:1 168:1 175:1 212:1 264:1 321:1 323:1 426:1 491:1 556:1 618:1 691:1 742:1 768:1 831:1 834:1 838:1 854:1 887:1 913:1 976:1 1052:1 1085:1 1103:1 1121:1 1164:1 1171:1 1208:1 1218:1 1260:1 1284:1
-1 137:1 261:1 263:1 268:1 481:1 482:1 1144:1 1230:1 1233:1 1242:1 1243:1 1245:1 1246:1 1276:1 1284:2
-1 137:2 261:1 263:2 321:2 421:1 482:1 761:1 896:1 1144:4 1218:2 1230:1 1233:2 1236:1 1242:2 1244:1 1245:1 1261:1 1276:4 1284:6
-1 134:1 137:1 263:1 268:1 421:1 481:1 482:1 693:1 1144:1 1233:1 1238:1 1242:1 1243:1 1245:1 1246:1 1251:1 1261:1 1276:1 1284:2
-1 137:2 263:2 321:2 421:1 449:1 481:1 482:1 1144:4 1218:2 1233:2 1242:2 1243:1 1245:1 1261:1 1276:4 1280:1 1284:6
-1 1144:1 1276:1 1284:1
-1 1144:1 1276:1 1284:2
-1 158:1 1270:1 1284:3
-1 813:1 1284:2
-1 137:1 263:1 268:2 421:1 449:1 469:1 481:1 482:1 512:1 1144:1 1228:1 1233:1 1242:1 1243:1 1245:1 1246:2 1261:1 1276:1 1280:1 1283:1 1284:2
-1 268:1 1144:1 1246:1 1276:1 1284:2
-1 137:1 263:1 321:1 409:1 421:1 458:1 469:1 481:1 482:1 512:1 562:1 710:1 761:1 1144:1 1218:1 1221:1 1228:1 1233:1 1236:1 1242:1 1243:1 1245:1 1247:1 1261:1 1272:1 1276:1 1283:1 1284:2
-1 137:1 263:1 321:1 421:1 469:1 481:1 482:1 512:1 761:1 1144:1 1218:1 1228:1 1233:1 1236:1 1242:1 1243:1 1245:1 1261:1 1276:1 1283:1 1284:1
-1 137:1 263:1 268:1 323:1 458:1 761:1 1144:1 1221:1 1233:1 1236:1 1242:1 1246:1 1276:1 1284:1
-1 125:1 168:1 175:1 186:1 212:1 259:1 382:1 426:1 556:1 618:1 854:1 913:1 937:1 976:1 1055:1 1085:1 1121:1 1164:1 1208:1 1215:1 1260:1 1284:2
-1 137:1 263:1 268:1 323:1 761:1 937:1 971:1 1144:1 1215:1 1233:1 1236:1 1242:1 1246:1 1248:1 1276:1 1284:1 1286:3
-1 149:1 168:1 175:1 186:1 268:1 323:1 426:1 458:1 556:1 618:1 679:1 834:1 854:1 888:1 937:1 974:1 976:1 1121:1 1164:1 1165:1 1208:1 1215:1 1221:1 1224:1 1246:1 1284:1
-1 137:1 263:1 321:1 421:1 469:1 481:1 482:1 512:1 1144:1 1218:1 1228:1 1233:1 1242:1 1243:1 1245:1 1261:1 1276:1 1283:1 1284:1
-1 158:1 1270:1 1284:4
-1 120:1 148:1 177:1 268:1 321:1 333:1 352:1 646:1 728:1 937:1 1215:1 1218:1 1246:1 1284:1
-1 234:1 268:1 284:1 321:1 375:1 390:1 392:1 428:1 480:1 676:1 691:1 733:1 804:1 834:1 899:1 937:1 941:1 942:1 943:1 1010:1 1054:1 1113:1 1121:1 1164:1 1171:1 1215:1 1218:1 1246:1 1284:1
-1 168:1 175:1 186:1 212:1 259:1 264:1 268:1 308:1 317:1 321:1 323:1 426:1 444:1 556:1 558:1 618:1 642:1 677:1 691:1 757:1 834:1 854:1 884:1 937:1 976:1 982:1 1014:1 1025:1 1121:1 1164:1 1194:1 1215:1 1218:1 1246:1 1284:2
-1 158:1 1270:1 1284:3
-1 268:1 412:1 1144:1 1246:1 1276:1 1284:2
-1 158:1 1270:1 1284:3
-1 137:1 168:1 175:1 186:1 212:1 236:1 249:1 254:1 263:1 264:1 268:1 323:1 382:1 409:1 421:1 482:1 523:1 556:1 642:1 679:1 831:1 833:1 834:1 843:1 854:1 888:1 901:1 937:1 950:1 976:1 1023:1 1052:1 1086:1 1121:1 1144:1 1164:1 1185:1 1215:1 1223:1 1233:1 1242:1 1245:1 1246:1 1247:1 1261:1 1276:1 1281:1 1284:3
-1 158:1 1270:1 1284:3
-1 158:1 1270:1 1284:3
-1 158:1 1270:1 1284:3
-1 137:1 263:1 268:1 421:1 1144:1 1233:1 1242:1 1246:1 1261:1 1276:1 1284:2
-1 1144:1 1276:1 1284:1
-1 133:1 137:1 263:1 421:1 469:1 481:1 482:1 512:1 564:1 795:1 896:1 996:1 1144:1 1228:1 1233:1 1234:1 1242:1 1243:1 1244:1 1245:1 1261:1 1274:1 1276:1 1283:1 1284:2 1286:2
-1 137:1 263:1 268:1 481:1 1144:1 1233:1 1242:1 1243:1 1246:1 1276:1 1284:3
-1 137:3 263:2 321:1 421:1 1144:4 1218:1 1233:2 1242:3 1261:1 1276:4 1284:4
-1 168:1 175:1 182:1 186:1 207:1 259:1 264:1 268:1 301:1 382:1 426:1 458:1 556:1 618:1 755:1 757:1 834:1 854:1 887:1 890:1 937:1 976:1 1033:1 1103:1 1121:1 1157:1 1164:1 1215:1 1221:1 1246:1 1284:2
-1 268:1 686:1 925:1 1144:1 1246:1 1276:1 1284:3
-1 268:1 487:1 591:1 648:1 1144:1 1246:1 1276:1 1284:6
-1 268:1 487:1 591:1 648:1 1144:1 1246:1 1276:1 1284:6
-1 268:1 487:1 591:1 648:1 1144:1 1246:1 1276:1 1284:5
-1 268:1 487:1 591:1 648:1 1144:1 1246:1 1276:1 1284:5
-1 268:2 412:1 519:1 700:1 872:1 1144:1 1246:2 1276:1 1284:2
-1 125:1 168:1 175:1 212:1 323:1 556:1 854:1 913:1 937:1 944:1 976:1 1085:1 1121:1 1215:1 1260:1 1284:2
-1 125:1 168:1 175:1 212:1 323:1 556:1 854:1 913:1 937:1 944:1 976:1 1085:1 1121:1 1215:1 1260:1 1284:2
-1 268:1 1144:1 1246:1 1276:1 1284:6
-1 158:1 1270:1 1284:3
-1 123:1 168:1 175:1 186:1 205:1 212:1 236:1 248:1 264:1 268:1 301:1 321:1 323:1 382:1 426:1 556:1 618:1 642:1 679:1 768:1 789:1 834:1 838:1 854:1 884:1 888:1 976:1 1121:1 1164:1 1165:1 1190:1 1218:1 1224:1 1246:1 1284:2
-1 123:1 168:1 175:1 184:1 186:1 264:1 268:1 301:1 321:1 323:1 382:1 426:1 556:1 558:1 618:1 642:1 691:1 789:1 806:1 834:1 854:1 888:1 1019:1 1067:1 1121:1 1164:1 1218:1 1246:1 1284:2
-1 168:1 175:1 212:1 236:1 268:1 301:1 323:1 382:1 394:1 426:1 556:1 618:1 642:1 679:1 691:1 834:1 838:1 854:1 888:1 937:1 976:1 1023:1 1047:1 1055:1 1121:1 1127:1 1140:1 1164:1 1165:1 1209:1 1215:1 1222:1 1224:1 1246:1 1284:2
-1 123:1 168:1 175:1 186:1 208:1 263:1 264:1 268:1 323:1 458:1 523:1 556:1 834:1 854:1 940:1 1121:1 1164:1 1221:1 1233:1 1246:1 1284:2
-1 123:1 168:1 175:1 184:1 186:1 205:1 236:1 264:1 268:1 321:1 323:1 426:1 434:1 458:1 556:1 679:1 772:1 789:1 834:1 854:1 888:1 1019:1 1121:1 1164:1 1218:1 1221:1 1246:1 1284:2
-1 158:1 1270:1 1284:3
-1 158:1 1270:1 1284:2
-1 168:1 175:1 186:1 264:1 268:1 426:1 556:1 618:1 834:1 854:1 937:1 968:1 976:1 1121:1 1215:1 1241:1 1246:1 1284:2
-1 158:1 1270:1 1284:3
-1 137:1 268:2 487:1 581:1 648:1 836:1 1016:1 1144:1 1212:1 1242:1 1246:2 1276:1 1284:4
-1 263:1 1144:1 1233:1 1276:1 1284:2
-1 158:1 1270:1 1284:3
-1 158:1 1270:1 1284:3
-1 158:1 1270:1 1284:3
-1 268:1 937:1 1105:1 1144:1 1215:1 1246:1 1276:1 1284:2
-1 137:1 263:1 321:1 409:1 421:1 458:1 481:1 710:1 761:1 1144:1 1218:1 1221:1 1233:1 1236:1 1242:1 1243:1 1247:1 1261:1 1272:1 1276:1 1284:1 1286:3
-1 137:1 263:1 421:1 482:1 761:1 1144:1 1233:1 1236:1 1242:1 1245:1 1261:1 1276:1 1284:2
-1 137:1 213:1 263:1 321:1 409:1 421:1 469:1 482:1 1144:1 1218:1 1228:1 1233:1 1242:1 1245:1 1247:1 1261:1 1263:1 1276:1 1284:1
-1 158:1 1270:1 1284:3
-1 1144:1 1276:1 1284:1
-1 137:1 168:1 175:1 207:1 263:1 268:1 323:1 421:1 469:1 481:1 523:1 556:1 834:1 854:1 1119:1 1121:1 1144:1 1165:1 1224:1 1228:1 1233:1 1242:1 1243:1 1246:1 1261:1 1276:1 1284:2
-1 168:1 175:1 263:1 268:1 323:1 409:1 469:1 481:1 556:1 834:1 854:1 1121:1 1228:1 1233:1 1243:1 1246:1 1247:1 1284:3
-1 268:1 1144:1 1246:1 1276:1 1284:2 1286:1
-1 268:1 1144:1 1246:1 1276:1 1284:2 1286:1
-1 137:1 263:1 321:1 409:1 421:1 469:1 481:1 482:1 512:1 513:1 559:1 639:1 896:1 1144:1 1214:1 1218:1 1228:1 1233:1 1242:1 1243:1 1244:1 1245:1 1247:1 1261:1 1267:1 1271:1 1276:1 1283:1 1284:2
-1 137:1 263:1 321:1 409:1 421:1 469:1 481:1 482:1 512:1 513:1 559:1 639:1 896:1 1144:1 1214:1 1218:1 1228:1 1233:1 1242:1 1243:1 1244:1 1245:1 1247:1 1261:1 1267:1 1271:1 1276:1 1283:1 1284:3
-1 263:1 268:1 520:1 1144:1 1177:1 1233:1 1246:1 1276:1 1284:3
-1 137:3 263:2 321:1 421:1 1144:4 1218:1 1233:2 1242:3 1261:1 1276:4 1284:4
-1 168:1 175:1 207:1 229:1 263:1 264:1 268:1 321:1 323:1 409:1 422:1 429:1 556:1 761:1 834:1 854:1 937:1 971:1 1075:1 1121:1 1144:1 1215:1 1218:1 1233:1 1236:1 1246:1 1247:1 1248:1 1276:1 1284:2
-1 137:1 263:1 321:1 407:1 409:1 421:1 469:1 481:1 482:1 761:1 992:1 1053:1 1144:1 1179:1 1218:1 1228:1 1233:1 1236:1 1242:1 1243:1 1245:1 1247:1 1250:1 1261:1 1276:1 1284:1
-1 137:1 263:1 421:1 481:1 482:1 512:1 971:1 1053:1 1144:1 1233:1 1242:1 1243:1 1245:1 1248:1 1250:1 1261:1 1276:1 1283:1 1284:1
-1 137:1 263:1 421:1 469:1 481:1 482:1 761:1 1144:1 1228:1 1233:1 1236:1 1242:1 1243:1 1245:1 1261:1 1276:1 1284:2
-1 137:2 263:2 321:2 421:1 469:1 481:2 482:1 512:1 761:1 1144:4 1218:2 1228:1 1233:2 1236:1 1242:2 1243:2 1245:1 1261:1 1276:4 1283:1 1284:6
-1 137:2 263:2 321:1 421:1 1144:2 1218:1 1233:2 1242:2 1261:1 1276:2 1284:7
-1 158:1 1270:1 1284:3
-1 168:1 175:1 186:1 212:1 240:1 259:1 268:1 301:1 426:1 524:1 556:1 618:1 691:1 834:1 838:1 854:1 937:1 946:1 976:1 1025:1 1121:1 1164:1 1171:1 1215:1 1246:1 1284:2
-1 168:1 175:1 268:1 556:1 558:1 618:1 691:1 803:1 834:1 838:1 854:1 932:1 937:1 982:1 1121:1 1144:1 1164:1 1215:1 1246:1 1276:1 1279:1 1284:2
-1 158:1 1270:1 1284:3
-1 158:1 1270:1 1284:2
-1 137:3 263:2 321:2 421:1 1144:4 1218:2 1233:2 1242:3 1261:1 1276:4 1284:6
-1 191:1 1237:1 1284:3
-1 191:1 1237:1 1284:2
-1 191:1 1237:1 1284:2
-1 191:1 1237:1 1284:2
-1 191:1 1237:1 1284:2
-1 191:1 1237:1 1284:2
-1 191:1 1237:1 1284:1
-1 191:1 1237:1 1284:1
-1 191:1 1237:1 1284:2
-1 191:1 1237:1 1284:1
-1 191:1 1237:1 1284:1
-1 191:1 1237:1 1284:1
-1 137:1 168:1 175:1 236:1 263:1 268:1 323:1 409:1 556:1 679:1 834:1 854:1 932:1 1121:1 1144:1 1233:1 1242:1 1246:1 1247:1 1276:1 1279:1 1284:3
-1 137:1 168:1 175:1 182:1 189:1 205:1 207:1 212:1 236:1 248:1 263:1 268:1 321:1 323:1 394:1 395:1 458:1 469:1 482:1 556:1 834:1 854:1 859:1 864:1 998:1 1089:1 1121:1 1144:1 1157:1 1165:1 1218:1 1221:1 1222:1 1224:1 1228:1 1232:1 1233:1 1242:1 1245:1 1246:1 1273:1 1275:1 1276:1 1278:1 1284:1
-1 168:1 175:1 184:1 268:1 556:1 834:1 854:1 888:1 1121:1 1164:1 1246:1 1284:2
-1 137:1 263:1 321:1 345:1 409:1 421:1 469:1 482:1 512:1 1144:1 1218:1 1228:1 1233:1 1242:1 1245:1 1247:1 1249:1 1261:1 1276:1 1283:1 1284:1
-1 158:1 1270:1 1284:4
-1 158:1 1270:1 1284:3
-1 268:2 449:1 1144:1 1246:2 1276:1 1280:1 1284:3
-1 268:2 1144:1 1246:2 1276:1 1284:2
-1 168:1 175:1 212:1 268:1 323:1 382:1 556:1 558:1 755:1 834:1 854:1 937:1 976:1 1121:1 1164:1 1215:1 1246:1 1284:1
-1 188:1 294:1 423:1 1144:1 1276:1 1284:2
-1 137:2 263:2 321:1 421:1 1144:2 1218:1 1233:2 1242:2 1261:1 1276:2 1284:7
-1 137:1 197:1 263:1 268:1 321:1 409:1 469:1 481:1 482:1 507:1 512:1 1053:1 1079:1 1086:1 1116:1 1144:1 1218:1 1228:1 1233:1 1242:1 1243:1 1245:1 1246:1 1247:1 1250:1 1276:1 1281:1 1283:1 1284:1 1286:43
-1 137:1 263:1 481:1 482:1 1144:1 1233:1 1242:1 1243:1 1245:1 1276:1 1284:2
-1 137:1 268:1 1144:1 1242:1 1246:1 1276:1 1284:2
-1 226:1 263:1 373:1 706:1 1101:1 1144:1 1233:1 1276:1 1284:2
-1 137:1 213:1 263:1 268:1 321:1 409:1 421:1 458:1 469:1 481:1 482:1 513:1 761:1 859:1 1144:1 1214:1 1218:1 1221:1 1228:1 1233:1 1236:1 1242:1 1243:1 1245:1 1246:1 1247:1 1261:1 1263:1 1275:1 1276:1 1284:3
-1 168:1 170:1 175:1 187:1 212:1 220:1 268:1 301:1 556:1 618:1 642:1 767:1 834:1 838:1 854:1 937:1 976:1 1077:1 1095:1 1096:1 1115:1 1121:1 1122:1 1164:1 1196:1 1215:1 1246:1 1284:2
-1 137:1 263:1 268:1 321:1 469:1 481:1 1144:1 1218:1 1228:1 1233:1 1242:1 1243:1 1246:1 1276:1 1284:2
-1 137:1 263:1 321:1 421:1 469:1 481:1 482:1 512:1 761:1 1144:1 1218:1 1228:1 1233:1 1236:1 1242:1 1243:1 1245:1 1261:1 1276:1 1283:1 1284:2
-1 137:1 168:1 175:1 186:1 196:1 263:1 268:1 301:1 323:1 426:1 453:1 481:1 516:1 556:1 642:1 691:1 761:1 834:1 854:1 857:1 864:1 937:1 976:1 1025:1 1121:1 1144:1 1164:1 1210:1 1215:1 1233:1 1236:1 1242:1 1243:1 1246:1 1276:1 1278:1 1284:3
-1 137:1 263:1 421:1 482:1 761:1 1144:1 1233:1 1236:1 1242:1 1245:1 1261:1 1276:1 1284:2
-1 137:1 263:1 421:1 482:1 761:1 1144:1 1233:1 1236:1 1242:1 1245:1 1261:1 1276:1 1284:2
-1 137:1 263:1 321:1 421:1 469:1 481:1 512:1 1144:1 1218:1 1228:1 1233:1 1242:1 1243:1 1261:1 1276:1 1283:1 1284:1
-1 158:1 1270:1 1284:3
-1 137:2 263:2 321:1 421:1 1144:2 1218:1 1233:2 1242:2 1261:1 1276:2 1284:7
-1 137:1 263:1 268:1 321:1 380:1 409:1 458:1 469:1 481:1 482:1 790:1 937:1 1053:1 1126:1 1127:1 1144:1 1165:1 1185:1 1215:1 1218:1 1221:1 1224:1 1228:1 1233:1 1242:1 1243:1 1245:1 1246:1 1247:1 1250:1 1276:1 1284:1
-1 137:1 263:1 268:1 481:1 1144:1 1233:1 1242:1 1243:1 1246:1 1276:1 1284:4
-1 294:1 674:1 968:1 1144:1 1241:1 1276:1 1284:3
-1 124:1 294:1 968:1 1144:1 1241:1 1276:1 1284:3
-1 137:2 263:2 321:2 421:1 482:1 761:1 1144:5 1218:2 1233:2 1236:1 1242:2 1245:1 1261:1 1276:5 1284:6
-1 137:1 263:1 421:1 481:1 1144:1 1233:1 1242:1 1243:1 1261:1 1276:1 1284:1
-1 538:1 1144:1 1276:1 1284:1
-1 137:1 263:1 268:1 323:1 1144:1 1233:1 1242:1 1246:1 1276:1 1284:2
-1 137:1 263:1 268:2 482:1 674:1 816:1 971:1 1144:1 1165:1 1224:1 1233:1 1242:1 1245:1 1246:2 1248:1 1276:1 1284:4 1286:5590
-1 137:2 263:2 321:1 421:1 1144:2 1218:1 1233:2 1242:2 1261:1 1276:2 1284:7
-1 137:1 263:1 268:1 481:1 1144:1 1233:1 1242:1 1243:1 1246:1 1276:1 1284:4
-1 137:1 263:1 268:1 421:1 469:1 481:1 513:1 523:1 752:1 937:1 950:1 1144:1 1214:1 1215:1 1228:1 1233:1 1242:1 1243:1 1246:1 1261:1 1276:1 1284:2
-1 137:1 168:1 175:1 207:1 263:1 264:1 268:1 323:1 426:1 454:1 458:1 556:1 580:1 618:1 628:1 642:1 834:1 838:1 854:1 937:1 1119:1 1121:1 1144:1 1215:1 1221:1 1233:1 1242:1 1246:1 1276:1 1284:3
-1 168:1 175:1 249:1 268:1 322:1 323:1 556:1 759:1 834:1 854:1 1121:1 1164:1 1246:1 1284:2
-1 137:1 263:1 421:1 469:1 481:1 482:1 761:1 1144:1 1228:1 1233:1 1236:1 1242:1 1243:1 1245:1 1261:1 1276:1 1284:3
-1 137:1 244:1 263:1 321:1 409:1 421:1 469:1 482:1 700:1 992:1 1144:1 1218:1 1228:1 1233:1 1242:1 1245:1 1247:1 1261:1 1276:1 1284:2
-1 180:1 280:1 666:1 792:1 1144:1 1276:1 1284:2
-1 137:1 180:1 263:1 280:1 321:1 409:1 421:1 469:1 481:1 482:1 666:1 761:1 792:1 1144:1 1218:1 1228:1 1233:1 1236:1 1242:1 1243:1 1245:1 1247:1 1261:1 1276:1 1284:1
-1 158:1 1270:1 1284:4
-1 158:1 1270:1 1284:2
-1 158:1 1270:1 1284:3
-1 158:1 1270:1 1284:2
-1 158:1 1270:1 1284:3
-1 137:2 263:2 321:1 421:1 1144:2 1218:1 1233:2 1242:2 1261:1 1276:2 1284:7
-1 158:1 1270:1 1284:3
-1 137:1 263:1 421:1 469:1 481:1 482:1 761:1 1144:1 1228:1 1233:1 1236:1 1242:1 1243:1 1245:1 1261:1 1276:1 1284:3
-1 158:1 1270:1 1284:2
-1 158:1 1270:1 1284:2
-1 158:1 1270:1 1284:2
-1 158:1 1270:1 1284:2
-1 381:1 559:1 671:1 777:1 1144:1 1267:1 1276:1 1284:3 1286:66
-1 152:1 548:1 559:1 955:1 1144:1 1256:1 1267:1 1276:1 1284:1 1286:66
-1 158:1 1270:1 1284:2
-1 123:1 168:1 175:1 182:1 205:1 207:1 212:1 264:1 268:1 321:1 323:1 382:1 426:1 458:1 618:1 642:1 691:1 834:1 838:1 854:1 884:1 888:1 976:1 1023:1 1025:1 1050:1 1075:1 1121:1 1159:1 1164:1 1208:1 1218:1 1221:1 1246:1 1284:2
-1 125:1 168:1 175:1 212:1 236:1 301:1 308:1 323:1 382:1 556:1 679:1 833:1 834:1 854:1 913:1 976:1 1085:1 1121:1 1164:1 1260:1 1284:2
-1 137:1 263:1 321:1 409:1 481:1 482:1 512:1 859:1 968:1 1144:1 1218:1 1233:1 1241:1 1242:1 1243:1 1245:1 1247:1 1275:1 1276:1 1283:1 1284:1
-1 137:3 263:2 321:1 421:1 1144:4 1218:1 1233:2 1242:3 1261:1 1276:4 1284:5
-1 137:1 263:1 1144:1 1233:1 1242:1 1276:1 1284:1
-1 137:1 263:1 421:1 481:1 482:1 1144:1 1233:1 1242:1 1243:1 1245:1 1261:1 1276:1 1284:1
-1 137:1 263:1 421:1 481:1 482:1 1144:1 1233:1 1242:1 1243:1 1245:1 1261:1 1276:1 1284:1
-1 137:1 263:1 481:1 1144:1 1233:1 1242:1 1243:1 1276:1 1284:1
-1 137:1 263:1 481:1 1144:1 1233:1 1242:1 1243:1 1276:1 1284:1
-1 137:1 263:1 321:1 345:1 404:1 409:1 422:1 469:1 481:1 482:1 512:1 564:1 761:1 790:1 932:1 1144:1 1182:1 1218:1 1228:1 1233:1 1236:1 1242:1 1243:1 1245:1 1247:1 1249:1 1274:1 1276:1 1279:1 1283:1 1284:1
-1 137:1 263:1 321:1 345:1 404:1 409:1 422:1 469:1 481:1 482:1 512:1 564:1 761:1 790:1 932:1 1144:1 1182:1 1218:1 1228:1 1233:1 1236:1 1242:1 1243:1 1245:1 1247:1 1249:1 1274:1 1276:1 1279:1 1283:1 1284:1
-1 268:1 559:1 1056:1 1144:1 1246:1 1267:1 1276:1 1284:3
-1 137:1 263:1 482:1 512:1 1144:1 1233:1 1242:1 1245:1 1276:1 1283:1 1284:1
-1 137:1 168:1 175:1 268:1 481:1 556:1 631:1 773:1 834:1 854:1 937:1 1121:1 1144:1 1165:1 1215:1 1224:1 1242:1 1243:1 1246:1 1276:1 1284:2
-1 137:1 263:1 321:1 409:1 469:1 481:1 482:1 1144:1 1218:1 1228:1 1233:1 1242:1 1243:1 1245:1 1247:1 1276:1 1284:1
-1 137:1 158:1 268:1 321:1 409:1 469:1 1144:1 1218:1 1228:1 1242:1 1246:1 1247:1 1270:1 1276:1 1284:3
-1 137:1 263:1 268:1 321:1 421:1 469:1 481:1 482:1 937:1 1086:1 1144:1 1165:1 1215:1 1218:1 1224:1 1228:1 1233:1 1242:1 1243:1 1245:1 1246:1 1261:1 1276:1 1281:1 1284:2 1286:1
-1 263:1 268:1 421:1 482:1 559:1 639:1 1144:1 1233:1 1245:1 1246:1 1261:1 1267:1 1271:1 1276:1 1284:3
-1 263:1 268:1 1144:1 1233:1 1246:1 1276:1 1284:5
-1 137:1 263:1 321:1 345:1 421:1 469:1 482:1 512:1 1144:1 1167:1 1218:1 1226:1 1228:1 1233:1 1242:1 1245:1 1249:1 1261:1 1276:1 1283:1 1284:2
-1 263:1 287:1 421:1 481:1 1144:1 1233:1 1243:1 1261:1 1276:1 1284:2
-1 137:1 263:1 449:1 481:1 482:1 1144:1 1233:1 1242:1 1243:1 1245:1 1276:1 1280:1 1284:2
-1 137:2 254:1 263:2 321:3 349:1 421:1 469:2 481:2 482:1 512:1 585:1 761:1 896:1 1144:6 1216:1 1218:3 1223:1 1228:2 1233:2 1236:1 1242:2 1243:2 1244:1 1245:1 1261:1 1276:6 1283:1 1284:5
-1 137:1 268:1 696:1 937:1 1144:1 1215:1 1242:1 1246:1 1276:1 1284:2
-1 137:1 189:1 236:1 263:1 268:1 321:1 469:1 679:1 699:1 937:1 1144:1 1215:1 1218:1 1228:1 1232:1 1233:1 1242:1 1246:1 1262:1 1276:1 1284:2
-1 158:1 1270:1 1284:3
-1 268:2 995:1 1144:1 1246:2 1276:1 1284:2
-1 158:1 1270:1 1284:3
-1 158:1 1270:1 1284:3
-1 158:1 1270:1 1284:3
-1 137:1 263:1 321:1 345:1 421:1 469:1 481:1 482:1 512:1 859:1 1144:1 1167:1 1218:1 1226:1 1228:1 1233:1 1242:1 1243:1 1245:1 1249:1 1261:1 1275:1 1276:1 1283:1 1284:2
-1 191:1 1237:1 1284:1
-1 137:1 262:1 263:1 321:1 409:1 421:1 459:1 469:1 481:1 482:1 761:1 896:1 968:1 971:1 998:1 1053:1 1144:1 1218:1 1228:1 1233:1 1236:1 1241:1 1242:1 1243:1 1244:1 1245:1 1247:1 1248:1 1250:1 1261:1 1273:1 1276:1 1284:1 1286:4
-1 137:1 263:1 482:1 559:1 639:1 1144:1 1233:1 1242:1 1245:1 1267:1 1271:1 1276:1 1284:2
-1 268:1 1144:1 1246:1 1276:1 1284:3
-1 137:2 263:2 321:3 421:1 449:1 469:1 481:1 482:1 512:1 761:1 896:1 1144:4 1218:3 1228:1 1233:2 1236:1 1242:2 1243:1 1244:1 1245:1 1261:1 1276:4 1280:1 1283:1 1284:6
-1 137:1 263:1 321:1 404:1 421:1 458:1 469:1 481:1 482:1 761:1 1144:1 1218:1 1221:1 1228:1 1233:1 1236:1 1242:1 1243:1 1245:1 1261:1 1276:1 1284:1
-1 813:1 1284:2
-1 137:1 263:1 321:1 421:1 449:1 481:1 482:1 512:1 761:1 968:1 1144:1 1218:1 1233:1 1236:1 1241:1 1242:1 1243:1 1245:1 1261:1 1276:1 1280:1 1283:1 1284:5
-1 137:1 263:1 321:1 409:1 421:1 469:1 481:1 482:1 1144:1 1218:1 1228:1 1233:1 1242:1 1243:1 1245:1 1247:1 1261:1 1276:1 1284:1
-1 137:1 263:1 321:1 345:1 409:1 421:1 469:1 481:1 482:1 512:1 1144:1 1180:1 1218:1 1228:1 1233:1 1242:1 1243:1 1245:1 1247:1 1249:1 1261:1 1276:1 1283:1 1284:1
-1 137:1 263:1 321:1 409:1 469:1 481:1 482:1 1144:1 1180:1 1218:1 1228:1 1233:1 1242:1 1243:1 1245:1 1247:1 1276:1 1284:1
-1 605:1 1135:1 1144:1 1276:1 1284:1
-1 137:1 263:1 321:1 345:1 409:1 421:1 469:1 482:1 512:1 1144:1 1218:1 1228:1 1233:1 1242:1 1245:1 1247:1 1249:1 1261:1 1276:1 1283:1 1284:1
-1 137:1 263:1 481:1 1144:1 1233:1 1242:1 1243:1 1276:1 1284:1
-1 137:1 263:1 321:1 345:1 409:1 469:1 481:1 482:1 503:1 512:1 589:1 1144:1 1218:1 1228:1 1233:1 1242:1 1243:1 1245:1 1247:1 1249:1 1276:1 1283:1 1284:1
-1 137:1 254:1 263:1 321:1 345:1 409:1 421:1 469:1 481:1 482:1 512:1 513:1 585:1 790:1 896:1 1053:1 1086:1 1144:1 1165:1 1214:1 1216:1 1218:1 1223:1 1224:1 1228:1 1233:1 1242:1 1243:1 1244:1 1245:1 1247:1 1249:1 1250:1 1261:1 1276:1 1281:1 1283:1 1284:1
-1 137:1 263:1 321:1 345:1 409:1 469:1 481:1 482:1 512:1 1144:1 1218:1 1228:1 1233:1 1242:1 1243:1 1245:1 1247:1 1249:1 1276:1 1283:1 1284:1
-1 137:1 263:1 321:1 345:1 409:1 421:1 458:1 469:1 481:1 482:1 512:1 513:1 896:1 932:1 968:1 971:1 1144:1 1214:1 1218:1 1221:1 1228:1 1233:1 1241:1 1242:1 1243:1 1244:1 1245:1 1247:1 1248:1 1249:1 1261:1 1276:1 1279:1 1283:1 1284:1
-1 137:1 263:1 321:1 409:1 421:1 481:1 482:1 1144:1 1218:1 1233:1 1242:1 1243:1 1245:1 1247:1 1261:1 1276:1 1284:1
-1 137:1 159:1 263:1 321:1 345:1 409:1 421:1 469:1 482:1 512:1 1144:1 1218:1 1228:1 1233:1 1242:1 1245:1 1247:1 1249:1 1261:1 1276:1 1283:1 1284:1
-1 137:2 263:2 321:1 421:1 1144:2 1218:1 1233:2 1242:2 1261:1 1276:2 1284:7
-1 137:1 263:1 268:1 421:1 469:1 482:1 1144:1 1228:1 1233:1 1242:1 1245:1 1246:1 1261:1 1276:1 1284:2
-1 137:1 173:1 263:1 421:1 469:1 481:1 482:1 1144:1 1228:1 1233:1 1242:1 1243:1 1245:1 1261:1 1276:1 1284:1 1286:14
-1 449:1 1144:1 1276:1 1280:1 1284:2
-1 134:1 137:1 263:1 268:1 321:1 469:1 481:1 482:1 761:1 1144:1 1218:1 1228:1 1233:1 1236:1 1238:1 1242:1 1243:1 1245:1 1246:1 1276:1 1284:1
-1 137:1 263:1 421:1 761:1 1144:1 1233:1 1236:1 1242:1 1261:1 1276:1 1284:2
-1 137:2 263:2 321:1 421:1 1144:2 1218:1 1233:2 1242:2 1261:1 1276:2 1284:7
-1 449:1 1144:1 1276:1 1280:1 1284:2
-1 151:1 168:1 175:1 212:1 240:1 259:1 264:1 268:1 301:1 311:1 382:1 426:1 461:1 524:1 556:1 834:1 854:1 860:1 888:1 912:1 976:1 1025:1 1121:1 1164:1 1208:1 1246:1 1265:1 1284:2
-1 449:1 1144:1 1276:1 1280:1 1284:2
-1 449:1 1144:1 1276:1 1280:1 1284:2
-1 449:1 1144:1 1276:1 1280:1 1284:2
-1 449:1 1144:1 1276:1 1280:1 1284:2
-1 137:1 263:1 321:1 409:1 482:1 699:1 1144:1 1218:1 1233:1 1242:1 1245:1 1247:1 1262:1 1276:1 1284:1
-1 137:1 263:1 481:1 998:1 1144:1 1233:1 1242:1 1243:1 1273:1 1276:1 1284:1
-1 137:1 254:1 263:1 321:1 345:1 409:1 469:1 481:1 482:1 512:1 513:1 761:1 1144:1 1214:1 1218:1 1223:1 1228:1 1233:1 1236:1 1242:1 1243:1 1245:1 1247:1 1249:1 1276:1 1283:1 1284:1
-1 137:1 254:1 263:1 268:1 321:1 421:1 469:1 481:1 482:1 512:1 687:1 743:1 1144:1 1218:1 1223:1 1228:1 1233:1 1242:1 1243:1 1245:1 1246:1 1261:1 1276:1 1283:1 1284:1
-1 137:1 180:1 263:1 321:1 469:1 482:1 512:1 1144:1 1218:1 1228:1 1233:1 1242:1 1245:1 1276:1 1283:1 1284:1
-1 158:1 1270:1 1284:3
-1 158:1 1270:1 1284:3
-1 137:1 263:1 321:1 345:1 409:1 469:1 481:1 482:1 512:1 1144:1 1218:1 1228:1 1233:1 1242:1 1243:1 1245:1 1247:1 1249:1 1276:1 1283:1 1284:1
-1 137:1 168:1 175:1 207:1 229:1 263:1 268:1 422:1 556:1 834:1 854:1 857:1 893:1 937:1 971:1 1075:1 1121:1 1144:1 1215:1 1233:1 1242:1 1246:1 1248:1 1276:1 1284:2
-1 263:1 268:1 409:1 481:1 1144:1 1233:1 1243:1 1246:1 1247:1 1276:1 1284:2
-1 191:1 1237:1 1284:1
-1 137:1 263:1 268:1 421:1 687:1 1144:1 1233:1 1242:1 1246:1 1261:1 1276:1 1284:1
-1 158:1 1270:1 1284:3
-1 263:1 1144:1 1233:1 1276:1 1284:2
-1 137:1 263:1 321:1 409:1 421:1 469:1 481:1 482:1 512:1 585:1 1053:1 1144:1 1216:1 1218:1 1228:1 1233:1 1242:1 1243:1 1245:1 1247:1 1250:1 1261:1 1276:1 1283:1 1284:1
-1 263:1 469:1 482:1 619:1 1117:1 1144:1 1228:1 1233:1 1245:1 1276:1 1284:2
-1 263:1 469:1 482:1 619:1 1117:1 1144:1 1228:1 1233:1 1245:1 1276:1 1284:2
-1 263:1 469:1 482:1 619:1 1117:1 1144:1 1228:1 1233:1 1245:1 1276:1 1284:2
-1 263:1 469:1 482:1 619:1 1117:1 1144:1 1228:1 1233:1 1245:1 1276:1 1284:2
-1 559:1 639:1 1056:1 1144:1 1267:1 1271:1 1276:1 1284:3
-1 277:1 1144:1 1276:1 1284:2
-1 158:1 1270:1 1284:4
-1 137:1 263:1 421:1 469:1 481:1 482:1 761:1 1144:1 1228:1 1233:1 1236:1 1242:1 1243:1 1245:1 1261:1 1276:1 1284:3
-1 158:1 1270:1 1284:4
-1 191:1 1237:1 1284:1
-1 137:1 167:1 173:1 200:1 250:1 346:1 456:1 469:1 474:1 542:1 638:1 722:1 882:1 913:1 951:1 1123:1 1144:1 1219:1 1228:1 1235:1 1242:1 1252:1 1253:1 1260:1 1269:1 1276:1 1277:1 1282:1 1284:3 1286:8
-1 137:1 263:1 321:1 346:1 469:1 482:1 548:1 1124:1 1144:1 1218:1 1228:1 1233:1 1242:1 1245:1 1256:1 1276:1 1284:1 1286:4
-1 191:1 1237:1 1284:1
-1 407:1 412:1 519:1 992:1 1144:1 1276:1 1284:3
-1 268:1 1144:1 1246:1 1276:1 1284:3
-1 137:2 263:2 321:3 421:1 469:1 481:2 482:1 512:1 761:1 896:1 1144:4 1218:3 1228:1 1233:2 1236:1 1242:2 1243:2 1244:1 1245:1 1261:1 1276:4 1283:1 1284:6
-1 134:1 137:1 263:1 268:1 370:1 421:1 469:1 481:1 482:1 693:1 761:1 1144:1 1228:1 1233:1 1236:1 1238:1 1242:1 1243:1 1245:1 1246:1 1251:1 1261:1 1276:1 1284:2
-1 137:1 263:1 268:1 458:1 710:1 937:1 1144:1 1215:1 1221:1 1233:1 1242:1 1246:1 1272:1 1276:1 1284:3
-1 137:2 263:2 321:1 1144:2 1218:1 1233:2 1242:2 1276:2 1284:7
-1 149:1 168:1 175:1 186:1 209:1 212:1 220:1 236:1 240:1 249:1 263:1 264:1 268:1 301:1 321:1 323:1 380:1 382:1 409:1 414:1 426:1 458:1 481:1 482:1 485:1 530:1 549:1 556:1 558:1 618:1 630:1 679:1 691:1 731:1 752:1 755:1 757:1 786:1 794:1 807:1 828:1 831:1 833:1 834:1 838:1 843:1 849:1 854:1 860:1 888:1 936:1 937:1 944:1 966:1 976:1 998:1 1025:1 1030:1 1047:1 1050:1 1052:1 1068:1 1075:1 1082:1 1086:1 1090:1 1121:1 1143:1 1144:1 1164:1 1165:1 1185:1 1208:1 1215:1 1218:1 1221:1 1224:1 1233:1 1243:1 1245:1 1246:1 1247:1 1273:1 1276:1 1281:1 1284:2
-1 137:1 263:1 482:1 559:1 639:1 896:1 1056:1 1144:1 1233:1 1242:1 1244:1 1245:1 1267:1 1271:1 1276:1 1284:2
-1 158:1 1270:1 1284:3
-1 158:1 1270:1 1284:2
-1 158:1 1270:1 1284:3
-1 158:1 1270:1 1284:4
-1 158:1 1270:1 1284:2
-1 137:1 263:1 268:1 409:1 469:1 470:1 481:1 1144:1 1228:1 1233:1 1242:1 1243:1 1246:1 1247:1 1276:1 1284:2
-1 168:1 175:1 263:1 268:1 421:1 556:1 710:1 854:1 1121:1 1144:1 1233:1 1246:1 1261:1 1272:1 1276:1 1284:2
-1 263:1 564:1 896:1 1144:1 1233:1 1244:1 1274:1 1276:1 1284:2
-1 137:1 193:1 213:1 263:1 268:1 321:1 361:1 409:1 469:1 470:1 481:1 482:1 606:1 828:1 1144:1 1218:1 1228:1 1233:1 1242:1 1243:1 1245:1 1246:1 1247:1 1263:1 1276:1 1284:1
-1 263:1 268:1 971:1 1144:1 1233:1 1246:1 1248:1 1276:1 1284:5 1286:7
-1 158:1 1270:1 1284:4
-1 287:1 1144:1 1276:1 1284:3
-1 1144:1 1276:1 1284:2
-1 263:1 268:1 342:1 371:1 482:1 559:1 639:1 1144:1 1212:1 1233:1 1245:1 1246:1 1267:1 1271:1 1276:1 1284:2
-1 158:1 1270:1 1284:3
-1 158:1 1270:1 1284:3
-1 263:1 1144:1 1233:1 1276:1 1284:4
-1 268:2 971:1 1144:1 1189:1 1246:2 1248:1 1276:1 1284:2
-1 268:2 1144:1 1246:2 1276:1 1284:2
-1 263:1 268:1 409:1 421:1 469:1 481:1 482:1 512:1 1144:1 1228:1 1233:1 1243:1 1245:1 1246:1 1247:1 1261:1 1276:1 1283:1 1284:2
-1 263:1 268:1 512:1 1144:1 1233:1 1246:1 1276:1 1283:1 1284:2
-1 263:1 268:1 512:1 1144:1 1233:1 1246:1 1276:1 1283:1 1284:2
-1 263:1 268:1 482:1 512:1 1144:1 1233:1 1245:1 1246:1 1276:1 1283:1 1284:2
-1 268:1 937:1 1105:1 1144:1 1215:1 1246:1 1276:1 1284:2
-1 268:2 449:1 761:1 1144:1 1236:1 1246:2 1276:1 1280:1 1284:5
-1 158:1 1270:1 1284:3
-1 137:1 263:1 321:1 394:1 409:1 421:1 469:1 481:1 512:1 521:1 547:1 609:1 699:1 761:1 971:1 998:1 1098:1 1144:1 1218:1 1222:1 1228:1 1233:1 1236:1 1242:1 1243:1 1247:1 1248:1 1261:1 1262:1 1273:1 1276:1 1283:1 1284:2
-1 263:1 268:1 321:1 469:1 481:1 1144:1 1218:1 1228:1 1233:1 1243:1 1246:1 1276:1 1284:3
-1 268:2 449:1 1144:1 1246:2 1276:1 1280:1 1284:3
-1 263:1 1028:1 1144:1 1233:1 1276:1 1284:3
-1 263:1 268:2 449:1 564:1 996:1 1144:1 1233:1 1246:2 1274:1 1276:1 1280:1 1284:3
-1 268:2 564:1 870:1 1144:1 1246:2 1274:1 1276:1 1284:2
-1 1144:1 1276:1 1284:1
-1 137:1 263:1 268:1 321:1 383:1 421:1 469:1 481:1 1144:1 1218:1 1228:1 1233:1 1242:1 1243:1 1246:1 1261:1 1276:1 1284:1
-1 191:1 1237:1 1284:1
-1 158:1 1270:1 1284:3
-1 137:1 167:1 200:1 250:1 251:1 263:1 321:1 400:1 409:1 469:1 481:1 482:1 638:1 722:1 761:1 859:1 913:1 951:1 1123:1 1144:1 1185:1 1218:1 1219:1 1228:1 1233:1 1236:1 1242:1 1243:1 1245:1 1247:1 1252:1 1260:1 1269:1 1275:1 1276:1 1277:1 1282:1 1284:2
-1 263:1 268:1 412:1 481:1 519:1 872:1 1144:1 1233:1 1243:1 1246:1 1276:1 1284:4
-1 158:1 263:1 268:1 409:1 421:1 469:1 482:1 937:1 1053:1 1086:1 1144:1 1215:1 1228:1 1233:1 1245:1 1246:1 1247:1 1250:1 1261:1 1270:1 1276:1 1281:1 1284:3
-1 158:1 1270:1 1284:3
-1 137:1 263:1 268:1 321:1 421:1 449:1 469:1 481:1 482:1 512:1 1144:1 1218:1 1228:1 1233:1 1242:1 1243:1 1245:1 1246:1 1261:1 1276:1 1280:1 1283:1 1284:4
-1 158:1 1270:1 1284:3
-1 137:1 263:1 321:1 345:1 348:1 409:1 421:1 469:1 481:1 482:1 512:1 896:1 971:1 1144:1 1167:1 1218:1 1226:1 1228:1 1233:1 1242:1 1243:1 1244:1 1245:1 1247:1 1248:1 1249:1 1261:1 1276:1 1283:1 1284:2
-1 263:1 287:1 1144:1 1233:1 1276:1 1284:3
-1 137:1 263:1 321:1 409:1 469:1 481:1 482:1 505:1 971:1 1144:1 1218:1 1228:1 1233:1 1242:1 1243:1 1245:1 1247:1 1248:1 1276:1 1284:4
-1 137:1 263:1 421:1 469:1 481:1 482:1 1144:1 1228:1 1233:1 1242:1 1243:1 1245:1 1261:1 1276:1 1284:2
-1 137:1 263:1 268:1 321:1 421:1 422:1 425:1 449:1 469:1 481:1 482:1 505:1 511:1 512:1 896:1 971:1 1144:1 1165:1 1218:1 1224:1 1228:1 1233:1 1242:1 1243:1 1244:1 1245:1 1246:1 1248:1 1261:1 1266:1 1276:1 1280:1 1283:1 1284:5
-1 137:1 263:1 761:1 971:1 1144:1 1233:1 1236:1 1242:1 1248:1 1276:1 1284:1
-1 137:1 263:1 321:1 409:1 421:1 469:1 481:1 482:1 761:1 968:1 971:1 1053:1 1144:1 1218:1 1228:1 1233:1 1236:1 1241:1 1242:1 1243:1 1245:1 1247:1 1248:1 1250:1 1261:1 1276:1 1284:2
-1 137:2 263:2 321:3 417:1 421:1 430:1 469:1 481:1 482:1 512:1 559:1 626:1 639:1 761:1 1144:5 1218:3 1228:1 1233:2 1236:1 1242:2 1243:1 1245:1 1261:1 1267:1 1271:1 1276:5 1283:1 1284:6
-1 268:1 937:1 1105:1 1144:1 1215:1 1246:1 1276:1 1284:2
-1 263:1 268:1 481:1 1144:1 1233:1 1243:1 1246:1 1276:1 1284:3
-1 168:1 175:1 186:1 196:1 259:1 268:1 301:1 382:1 426:1 466:1 556:1 642:1 834:1 854:1 937:1 976:1 1019:1 1025:1 1121:1 1164:1 1199:1 1215:1 1246:1 1284:2
-1 137:1 263:1 421:1 469:1 482:1 1144:1 1228:1 1233:1 1242:1 1245:1 1261:1 1276:1 1284:1 1286:5
-1 168:1 175:1 186:1 259:1 264:1 268:1 382:1 426:1 556:1 691:1 834:1 854:1 971:1 976:1 1121:1 1188:1 1246:1 1248:1 1284:2
-1 137:1 263:1 268:1 481:1 1144:1 1233:1 1242:1 1243:1 1246:1 1276:1 1284:3
-1 137:1 167:1 200:1 250:1 611:1 638:1 722:1 778:1 913:1 951:1 1123:1 1144:1 1219:1 1239:1 1242:1 1252:1 1260:1 1269:1 1276:1 1277:1 1282:1 1284:4 1286:36
-1 263:1 268:1 321:1 421:1 481:1 1144:1 1218:1 1233:1 1243:1 1246:1 1261:1 1276:1 1284:4
-1 168:1 175:1 268:1 556:1 828:1 834:1 854:1 1121:1 1144:1 1246:1 1276:1 1284:3
-1 158:1 1270:1 1284:3
-1 268:2 1144:1 1246:2 1276:1 1284:2
-1 263:1 268:1 458:1 469:1 1144:1 1221:1 1228:1 1233:1 1246:1 1276:1 1284:2
-1 137:1 263:1 469:1 481:1 482:1 1086:1 1144:1 1228:1 1233:1 1242:1 1243:1 1245:1 1276:1 1281:1 1284:2
-1 137:1 263:1 321:1 469:1 481:1 482:1 1144:1 1218:1 1228:1 1233:1 1242:1 1243:1 1245:1 1276:1 1284:2
-1 137:1 263:1 321:1 469:1 481:1 482:1 1144:1 1218:1 1228:1 1233:1 1242:1 1243:1 1245:1 1276:1 1284:2
-1 1144:1 1276:1 1284:3
-1 137:1 263:1 268:1 321:1 409:1 421:1 469:1 481:1 482:1 937:1 947:1 1053:1 1086:1 1144:1 1215:1 1218:1 1228:1 1233:1 1242:1 1243:1 1245:1 1246:1 1247:1 1250:1 1261:1 1276:1 1281:1 1284:1
-1 191:1 1237:1 1284:1
-1 263:1 321:1 469:1 761:1 1144:1 1218:1 1228:1 1233:1 1236:1 1276:1 1284:2
-1 125:1 168:1 175:1 186:1 212:1 250:1 259:1 264:1 382:1 426:1 556:1 691:1 838:1 854:1 913:1 976:1 1085:1 1121:1 1164:1 1181:1 1219:1 1260:1 1284:1
-1 134:1 137:1 263:1 268:1 321:1 469:1 490:1 1144:1 1218:1 1228:1 1233:1 1238:1 1242:1 1246:1 1276:1 1284:2 1286:5
-1 137:1 263:1 321:1 421:1 469:1 482:1 761:1 1144:1 1218:1 1228:1 1233:1 1236:1 1242:1 1245:1 1261:1 1276:1 1284:5
-1 263:1 268:2 481:1 482:1 896:1 1144:1 1233:1 1243:1 1244:1 1245:1 1246:2 1276:1 1284:2 1286:116
-1 263:1 268:1 761:1 896:1 1144:1 1233:1 1236:1 1244:1 1246:1 1276:1 1284:3
-1 137:2 263:2 321:1 421:1 1144:2 1218:1 1233:2 1242:2 1261:1 1276:2 1284:7
-1 137:1 263:1 421:1 469:1 481:1 482:1 761:1 1144:1 1228:1 1233:1 1236:1 1242:1 1243:1 1245:1 1261:1 1276:1 1284:3
-1 137:1 168:1 175:1 236:1 268:1 321:1 323:1 458:1 481:1 556:1 679:1 834:1 854:1 937:1 1121:1 1144:1 1215:1 1218:1 1221:1 1242:1 1243:1 1246:1 1276:1 1284:2
-1 168:1 175:1 212:1 263:1 268:1 323:1 469:1 556:1 834:1 854:1 976:1 1121:1 1144:1 1164:1 1228:1 1233:1 1246:1 1276:1 1284:3
-1 268:1 937:1 1144:1 1215:1 1246:1 1276:1 1284:1
-1 137:2 263:2 321:2 421:1 482:1 512:1 559:3 639:2 761:1 1144:4 1218:2 1233:2 1236:1 1242:2 1245:1 1261:1 1267:3 1271:2 1276:4 1283:1 1284:6
-1 137:1 168:1 175:1 212:1 263:1 268:1 323:1 409:1 482:1 512:1 556:1 834:1 854:1 976:1 1121:1 1144:1 1233:1 1242:1 1245:1 1246:1 1247:1 1276:1 1283:1 1284:3
-1 263:1 268:1 409:1 761:1 937:1 971:1 1144:1 1215:1 1233:1 1236:1 1246:1 1247:1 1248:1 1276:1 1284:2
-1 137:1 263:1 321:1 409:1 421:1 449:1 469:1 481:1 482:1 512:1 532:1 622:1 859:1 896:1 971:1 1059:1 1071:1 1144:1 1176:1 1200:1 1218:1 1228:1 1233:1 1242:1 1243:1 1244:1 1245:1 1247:1 1248:1 1261:1 1275:1 1276:1 1280:1 1283:1 1284:2 1286:368
-1 263:1 482:1 761:1 896:1 1144:1 1233:1 1236:1 1244:1 1245:1 1276:1 1284:2
-1 568:1 902:1 1284:2
-1 268:2 481:1 1144:1 1243:1 1246:2 1276:1 1284:2
-1 971:1 1144:1 1248:1 1276:1 1284:2
-1 1144:1 1276:1 1284:2
-1 137:2 263:2 269:1 321:3 421:1 469:1 482:1 512:1 761:1 1144:5 1218:3 1228:1 1233:2 1236:1 1242:2 1245:1 1261:1 1276:5 1283:1 1284:6
-1 137:1 263:1 482:1 512:1 1144:1 1233:1 1242:1 1245:1 1276:1 1283:1 1284:4
-1 263:1 421:1 469:1 481:1 482:1 512:1 971:1 992:1 1144:1 1228:1 1233:1 1243:1 1245:1 1248:1 1261:1 1276:1 1283:1 1284:2
-1 520:1 992:1 1144:1 1276:1 1284:2
-1 520:1 992:1 1144:1 1276:1 1284:2
-1 1144:1 1276:1 1284:3
-1 268:2 452:1 520:1 559:1 639:1 1144:1 1246:2 1267:1 1271:1 1276:1 1284:2
-1 137:1 189:1 263:1 268:1 321:1 397:1 409:1 421:1 469:1 481:1 482:1 507:1 513:1 699:1 746:1 896:1 937:1 1053:1 1079:1 1131:1 1144:1 1214:1 1215:1 1218:1 1225:1 1228:1 1232:1 1233:1 1242:1 1243:1 1244:1 1245:1 1246:1 1247:1 1250:1 1261:1 1262:1 1276:1 1284:2
-1 137:1 263:1 312:1 321:1 409:1 421:1 422:1 458:1 469:1 481:1 482:1 512:1 547:1 550:1 699:1 859:1 896:1 971:1 1144:1 1218:1 1221:1 1228:1 1233:1 1242:1 1243:1 1244:1 1245:1 1247:1 1248:1 1259:1 1261:1 1262:1 1275:1 1276:1 1283:1 1284:3
-1 137:1 263:1 321:1 421:1 422:1 458:1 469:1 481:1 482:1 512:1 547:1 550:1 859:1 896:1 1144:1 1218:1 1221:1 1228:1 1233:1 1242:1 1243:1 1244:1 1245:1 1259:1 1261:1 1275:1 1276:1 1283:1 1284:2
-1 174:1 263:1 268:1 304:1 1144:1 1233:1 1246:1 1276:1 1284:7
-1 263:1 268:2 481:1 482:1 512:1 559:1 639:1 896:1 1144:1 1233:1 1243:1 1244:1 1245:1 1246:2 1267:1 1271:1 1276:1 1283:1 1284:2 1286:112
-1 137:2 263:3 321:2 421:1 469:1 481:1 482:1 512:1 761:1 1144:5 1218:2 1228:1 1233:3 1236:1 1242:2 1243:1 1245:1 1261:1 1276:5 1283:1 1284:6
-1 137:3 263:2 321:1 421:1 1144:4 1218:1 1233:2 1242:3 1261:1 1276:4 1284:4
-1 263:1 268:2 449:1 481:1 783:1 846:1 1144:1 1172:1 1233:1 1243:1 1246:2 1276:1 1280:1 1284:2
-1 137:1 268:2 1144:1 1242:1 1246:2 1276:1 1284:3
-1 137:1 180:1 810:1 968:1 971:1 1144:1 1241:1 1242:1 1248:1 1276:1 1284:2
-1 268:1 481:1 559:1 639:1 693:1 858:1 876:1 1144:1 1243:1 1246:1 1251:1 1267:1 1271:1 1276:1 1284:2
-1 137:1 263:1 268:1 323:1 421:1 753:1 1105:1 1144:1 1233:1 1242:1 1246:1 1261:1 1276:1 1284:2
-1 191:1 1237:1 1284:1
-1 137:1 263:1 268:1 409:1 421:1 458:1 469:1 481:1 482:1 505:1 512:1 971:1 1144:1 1188:1 1221:1 1228:1 1233:1 1242:1 1243:1 1245:1 1246:1 1247:1 1248:1 1261:1 1276:1 1283:1 1284:1
-1 168:1 175:1 186:1 240:1 259:1 264:1 268:1 323:1 382:1 426:1 524:1 556:1 558:1 580:1 618:1 642:1 691:1 724:1 834:1 838:1 854:1 860:1 936:1 937:1 976:1 1025:1 1121:1 1143:1 1164:1 1198:1 1199:1 1208:1 1215:1 1246:1 1284:2
-1 263:1 268:1 971:1 1144:1 1233:1 1246:1 1248:1 1276:1 1284:2
-1 294:1 602:1 763:1 985:1 1058:1 1144:1 1276:1 1284:3
-1 268:2 449:1 761:1 1144:1 1236:1 1246:2 1276:1 1280:1 1284:4
-1 168:1 175:1 186:1 259:1 264:1 268:1 382:1 426:1 524:1 556:1 618:1 691:1 834:1 854:1 937:1 971:1 976:1 1075:1 1121:1 1164:1 1188:1 1208:1 1215:1 1246:1 1248:1 1284:1
-1 263:1 482:1 1144:1 1233:1 1245:1 1276:1 1284:2
-1 263:1 482:1 512:1 896:1 1144:1 1233:1 1244:1 1245:1 1276:1 1283:1 1284:2
-1 263:1 464:1 482:1 512:1 559:1 639:1 1144:1 1233:1 1245:1 1267:1 1271:1 1276:1 1283:1 1284:2
-1 137:1 178:1 263:1 321:1 345:1 409:1 421:1 422:1 469:1 481:1 482:1 512:1 647:1 1144:1 1218:1 1228:1 1233:1 1242:1 1243:1 1245:1 1247:1 1249:1 1261:1 1276:1 1283:1 1284:2
-1 137:1 263:1 321:1 345:1 409:1 421:1 469:1 481:1 482:1 512:1 1144:1 1218:1 1228:1 1233:1 1242:1 1243:1 1245:1 1247:1 1249:1 1261:1 1276:1 1283:1 1284:1
-1 137:1 178:1 228:1 263:1 321:1 345:1 409:1 421:1 469:1 481:1 482:1 512:1 682:1 1144:1 1218:1 1228:1 1233:1 1242:1 1243:1 1245:1 1247:1 1249:1 1261:1 1276:1 1283:1 1284:1
-1 137:1 178:1 228:1 245:1 263:1 321:1 345:1 409:1 421:1 469:1 481:1 482:1 512:1 531:1 682:1 873:1 1144:1 1180:1 1218:1 1228:1 1233:1 1242:1 1243:1 1245:1 1247:1 1249:1 1261:1 1276:1 1283:1 1284:1 1286:21
-1 137:1 263:1 321:1 345:1 393:1 409:1 421:1 469:1 481:1 482:1 512:1 1144:1 1218:1 1228:1 1233:1 1242:1 1243:1 1245:1 1247:1 1249:1 1261:1 1276:1 1283:1 1284:1
-1 137:1 263:1 321:1 345:1 409:1 421:1 469:1 482:1 512:1 531:1 1144:1 1218:1 1228:1 1233:1 1242:1 1245:1 1247:1 1249:1 1261:1 1276:1 1283:1 1284:1
-1 137:2 263:2 321:1 421:1 1144:2 1218:1 1233:2 1242:2 1261:1 1276:2 1284:7
-1 137:1 263:1 268:1 309:1 323:1 421:1 481:1 482:1 1144:1 1233:1 1242:1 1243:1 1245:1 1246:1 1261:1 1276:1 1284:2 1286:39
-1 137:1 263:1 268:1 309:1 421:1 481:1 1144:1 1233:1 1242:1 1243:1 1246:1 1261:1 1276:1 1284:2 1286:39
-1 137:2 263:2 321:1 421:1 1144:2 1218:1 1233:2 1242:2 1261:1 1276:2 1284:6
-1 137:1 263:1 268:1 481:1 482:1 512:1 687:1 1144:1 1233:1 1242:1 1243:1 1245:1 1246:1 1276:1 1283:1 1284:1
-1 137:1 261:1 263:1 268:1 321:1 409:1 458:1 469:1 481:1 482:1 740:1 761:1 809:1 937:1 1144:1 1165:1 1215:1 1218:1 1221:1 1224:1 1228:1 1230:1 1233:1 1236:1 1242:1 1243:1 1245:1 1246:1 1247:1 1276:1 1284:2
-1 137:1 268:1 313:1 1144:1 1242:1 1246:1 1276:1 1284:2
-1 263:1 473:1 992:1 1144:1 1233:1 1276:1 1284:2
-1 268:2 1144:1 1246:2 1276:1 1284:2
-1 137:1 263:1 421:1 469:1 481:1 482:1 761:1 1144:1 1228:1 1233:1 1236:1 1242:1 1243:1 1245:1 1261:1 1276:1 1284:3
-1 125:1 137:1 168:1 175:1 212:1 236:1 321:1 458:1 469:1 491:1 556:1 679:1 781:1 854:1 913:1 999:1 1085:1 1121:1 1144:1 1218:1 1221:1 1228:1 1242:1 1260:1 1276:1 1284:1
-1 263:1 268:2 371:1 482:1 559:1 600:1 639:1 1144:1 1233:1 1245:1 1246:2 1267:1 1271:1 1276:1 1284:2
-1 137:1 254:1 263:1 321:1 409:1 449:1 469:1 481:1 482:1 559:1 756:1 761:1 795:1 896:1 971:1 1144:1 1218:1 1223:1 1228:1 1233:1 1236:1 1242:1 1243:1 1244:1 1245:1 1247:1 1248:1 1267:1 1276:1 1280:1 1284:2 1286:5
-1 137:1 263:1 268:1 481:1 1144:1 1233:1 1242:1 1243:1 1246:1 1276:1 1284:3
-1 191:1 1237:1 1284:1
-1 263:1 268:2 371:1 482:1 559:1 639:1 1144:1 1233:1 1245:1 1246:2 1267:1 1271:1 1276:1 1284:2
-1 125:1 128:1 137:1 168:1 175:1 193:1 211:1 212:1 236:1 250:1 263:1 283:1 308:1 321:1 323:1 361:1 409:1 421:1 444:1 456:1 458:1 468:1 472:1 481:1 482:1 551:1 556:1 679:1 833:1 834:1 843:1 854:1 913:1 937:1 1053:1 1085:1 1086:1 1121:1 1144:1 1185:1 1215:1 1218:1 1219:1 1221:1 1233:1 1242:1 1243:1 1245:1 1247:1 1250:1 1260:1 1261:1 1276:1 1281:1 1284:2
-1 137:2 263:2 321:2 421:1 469:1 481:1 482:1 585:1 747:1 761:1 1144:5 1216:1 1218:2 1228:1 1233:2 1236:1 1242:2 1243:1 1245:1 1261:1 1276:5 1284:6
-1 263:1 268:1 397:1 421:1 512:1 1144:1 1233:1 1246:1 1261:1 1276:1 1283:1 1284:1
-1 158:1 1270:1 1284:3
-1 158:1 1270:1 1284:2
-1 137:1 263:1 421:1 469:1 481:1 482:1 761:1 1144:1 1228:1 1233:1 1236:1 1242:1 1243:1 1245:1 1261:1 1276:1 1284:3
-1 137:1 268:1 321:1 458:1 469:1 932:1 937:1 1144:1 1215:1 1218:1 1221:1 1228:1 1242:1 1246:1 1276:1 1279:1 1284:2
-1 191:1 1237:1 1284:1
-1 134:1 263:1 268:1 270:1 539:1 693:1 1144:1 1233:1 1238:1 1246:1 1251:1 1276:1 1284:2
-1 268:1 1144:1 1246:1 1276:1 1284:6
-1 268:2 1144:1 1246:2 1276:1 1284:2
-1 268:1 1144:1 1246:1 1276:1 1284:5
-1 268:2 1144:1 1246:2 1276:1 1284:3
-1 137:1 263:1 268:2 971:1 1144:1 1212:1 1233:1 1242:1 1246:2 1248:1 1276:1 1284:4
-1 268:2 971:1 1144:1 1246:2 1248:1 1276:1 1284:4
-1 268:1 369:1 836:1 1144:1 1246:1 1276:1 1284:3
-1 137:1 263:1 321:1 345:1 409:1 421:1 469:1 481:1 482:1 512:1 619:1 896:1 1144:1 1167:1 1218:1 1226:1 1228:1 1233:1 1242:1 1243:1 1244:1 1245:1 1247:1 1249:1 1261:1 1276:1 1283:1 1284:2
-1 137:1 263:1 321:1 421:1 469:1 481:1 482:1 512:1 585:1 761:1 1144:1 1216:1 1218:1 1228:1 1233:1 1236:1 1242:1 1243:1 1245:1 1261:1 1276:1 1283:1 1284:5
-1 137:1 263:1 321:1 421:1 481:1 482:1 761:1 1144:1 1218:1 1233:1 1236:1 1242:1 1243:1 1245:1 1261:1 1276:1 1284:4
-1 137:1 263:1 321:1 421:1 422:1 469:1 481:1 482:1 512:1 585:1 761:1 896:1 1144:1 1216:1 1218:1 1228:1 1233:1 1236:1 1242:1 1243:1 1244:1 1245:1 1261:1 1276:1 1283:1 1284:5
-1 137:1 263:1 268:2 321:1 421:1 469:1 481:1 482:1 512:1 1089:1 1144:1 1218:1 1228:1 1233:1 1242:1 1243:1 1245:1 1246:2 1261:1 1276:1 1283:1 1284:4
-1 469:1 1144:1 1228:1 1276:1 1284:2
-1 129:1 179:1 183:1 252:1 440:1 478:1 926:1 1034:1 1125:1 1144:1 1192:1 1276:1 1284:1 1286:75
-1 168:1 175:1 186:1 220:1 264:1 268:1 308:1 321:1 323:1 382:1 426:1 458:1 556:1 618:1 691:1 790:1 831:1 834:1 854:1 887:1 893:1 937:1 940:1 974:1 976:1 1019:1 1025:1 1037:1 1055:1 1095:1 1103:1 1121:1 1164:1 1165:1 1208:1 1215:1 1218:1 1221:1 1224:1 1246:1 1284:2
-1 1144:1 1276:1 1284:2
-1 226:1 263:1 373:1 1101:1 1144:1 1233:1 1276:1 1284:3
-1 137:1 263:1 421:1 469:1 481:1 482:1 761:1 1144:1 1228:1 1233:1 1236:1 1242:1 1243:1 1245:1 1261:1 1276:1 1284:2
-1 268:1 1144:1 1246:1 1276:1 1284:1
-1 158:1 1270:1 1284:3
-1 137:1 263:1 321:1 345:1 421:1 469:1 482:1 512:1 1144:1 1167:1 1218:1 1226:1 1228:1 1233:1 1242:1 1245:1 1249:1 1261:1 1276:1 1283:1 1284:2
-1 180:1 263:1 469:1 939:1 1053:1 1144:1 1228:1 1233:1 1250:1 1276:1 1284:1
-1 263:1 1144:1 1233:1 1276:1 1284:3
-1 168:1 175:1 182:1 196:1 207:1 229:1 263:1 264:1 268:1 321:1 323:1 422:1 429:1 556:1 834:1 854:1 857:1 893:1 937:1 971:1 1075:1 1121:1 1144:1 1215:1 1218:1 1233:1 1246:1 1248:1 1276:1 1284:2
-1 137:1 263:1 449:1 1144:1 1233:1 1242:1 1276:1 1280:1 1284:2
-1 1144:1 1276:1 1284:2
-1 268:2 1144:1 1246:2 1276:1 1284:2
-1 158:1 1270:1 1284:3
-1 214:1 384:1 518:1 520:1 559:1 592:1 780:1 967:1 1144:1 1267:1 1276:1 1284:2
-1 137:1 254:1 263:1 268:1 421:1 481:1 482:1 512:1 1144:1 1223:1 1233:1 1242:1 1243:1 1245:1 1246:1 1261:1 1276:1 1283:1 1284:4
-1 137:1 263:1 421:1 469:1 481:1 482:1 761:1 1144:1 1228:1 1233:1 1236:1 1242:1 1243:1 1245:1 1261:1 1276:1 1284:3
-1 140:1 156:1 246:1 263:1 268:1 303:1 350:1 356:1 367:1 372:1 374:1 415:1 575:1 661:1 712:1 739:1 815:1 829:1 836:1 844:1 986:1 989:1 990:1 1128:1 1129:1 1144:1 1233:1 1246:1 1276:1 1284:6
-1 140:1 156:1 263:1 268:1 303:1 350:1 356:1 367:1 372:1 374:1 415:1 575:1 661:1 712:1 815:1 829:1 836:1 844:1 986:1 989:1 990:1 1128:1 1144:1 1233:1 1246:1 1276:1 1284:6
-1 137:1 263:1 421:1 469:1 481:1 482:1 761:1 1144:1 1228:1 1233:1 1236:1 1242:1 1243:1 1245:1 1261:1 1276:1 1284:3
-1 137:2 263:2 321:1 421:1 1144:2 1218:1 1233:2 1242:2 1261:1 1276:2 1284:7
-1 158:1 1270:1 1284:4
-1 263:1 268:1 397:1 469:1 482:1 896:1 963:1 1117:1 1144:1 1228:1 1233:1 1244:1 1245:1 1246:1 1276:1 1284:4
-1 137:1 263:1 421:1 469:1 481:1 482:1 761:1 1144:1 1228:1 1233:1 1236:1 1242:1 1243:1 1245:1 1261:1 1276:1 1284:3
-1 224:1 342:1 452:1 464:1 520:1 536:1 559:1 605:1 639:1 878:1 1135:1 1144:1 1267:1 1271:1 1276:1 1284:1
-1 268:2 1144:1 1246:2 1276:1 1284:5 1286:73
-1 263:1 421:1 449:1 482:1 559:1 896:1 1144:1 1233:1 1244:1 1245:1 1261:1 1267:1 1276:1 1280:1 1284:2
-1 226:1 263:1 373:1 482:1 492:1 559:1 639:1 1101:1 1144:1 1233:1 1245:1 1267:1 1271:1 1276:1 1284:2
-1 615:1 1144:1 1276:1 1284:2
-1 263:1 330:1 469:1 559:1 639:1 933:1 1056:1 1144:1 1228:1 1233:1 1267:1 1271:1 1276:1 1284:3
-1 268:1 1144:1 1246:1 1276:1 1284:2
-1 158:1 1270:1 1284:3
-1 137:2 263:2 321:1 421:1 1144:2 1218:1 1233:2 1242:2 1261:1 1276:2 1284:7
-1 813:1 1284:1
-1 137:1 263:1 481:1 482:1 1144:1 1233:1 1242:1 1243:1 1245:1 1276:1 1284:3
-1 263:1 406:1 421:1 481:1 482:1 512:1 548:1 585:1 964:1 1144:1 1216:1 1233:1 1243:1 1245:1 1256:1 1258:1 1261:1 1276:1 1283:1 1284:1
-1 137:1 263:1 409:1 425:1 458:1 469:1 481:1 761:1 998:1 1144:1 1221:1 1228:1 1233:1 1236:1 1242:1 1243:1 1247:1 1266:1 1273:1 1276:1 1284:1
-1 409:1 1144:1 1247:1 1276:1 1284:1
-1 263:1 409:1 469:1 481:1 1144:1 1228:1 1233:1 1243:1 1247:1 1276:1 1284:3
-1 191:1 1237:1 1284:1
-1 133:1 137:2 263:2 321:2 421:1 481:2 482:1 512:1 564:1 761:1 896:1 1144:4 1218:2 1233:2 1234:1 1236:1 1242:2 1243:2 1244:1 1245:1 1261:1 1274:1 1276:4 1283:1 1284:6
-1 137:1 168:1 175:1 189:1 207:1 229:1 259:1 263:1 268:1 321:1 323:1 382:1 422:1 426:1 429:1 555:1 556:1 561:1 691:1 834:1 854:1 893:1 971:1 976:1 1047:1 1075:1 1121:1 1144:1 1157:1 1218:1 1232:1 1233:1 1242:1 1246:1 1248:1 1276:1 1284:1
-1 263:1 268:1 1144:1 1233:1 1246:1 1276:1 1284:5
-1 168:1 175:1 186:1 212:1 263:1 264:1 268:1 426:1 556:1 618:1 691:1 834:1 838:1 854:1 884:1 937:1 976:1 1121:1 1164:1 1215:1 1233:1 1246:1 1284:1
-1 133:1 137:2 263:2 321:3 421:1 469:5 481:2 482:1 512:1 564:1 761:1 1144:4 1218:3 1228:5 1233:2 1234:1 1236:1 1242:2 1243:2 1245:1 1261:1 1274:1 1276:4 1283:1 1284:7
-1 137:1 263:1 268:2 321:1 421:1 469:1 481:1 482:1 512:1 559:1 872:1 1144:1 1218:1 1228:1 1233:1 1242:1 1243:1 1245:1 1246:2 1261:1 1267:1 1276:1 1283:1 1284:2
-1 137:1 168:1 175:1 263:1 268:1 408:1 556:1 854:1 937:1 998:1 1121:1 1144:1 1158:1 1215:1 1233:1 1242:1 1246:1 1273:1 1276:1 1284:1
-1 137:1 263:1 409:1 421:1 481:1 971:1 1144:1 1233:1 1242:1 1243:1 1247:1 1248:1 1261:1 1276:1 1284:2
-1 158:1 1270:1 1284:3
-1 224:1 263:1 407:1 421:1 481:1 482:1 520:1 559:1 639:1 896:1 992:1 1056:1 1144:1 1179:1 1233:1 1243:1 1244:1 1245:1 1261:1 1267:1 1271:1 1276:1 1284:2
-1 134:1 137:1 263:1 268:1 321:1 417:1 421:1 469:1 481:1 482:1 512:1 761:1 1144:1 1218:1 1228:1 1233:1 1236:1 1238:1 1242:1 1243:1 1245:1 1246:1 1261:1 1276:1 1283:1 1284:1
-1 268:1 412:1 519:1 1144:1 1155:1 1246:1 1276:1 1284:3
-1 137:1 254:1 263:1 321:1 345:1 409:1 417:1 421:1 469:1 481:1 482:1 512:1 513:1 585:1 761:1 896:1 971:1 1053:1 1100:1 1127:1 1144:1 1214:1 1216:1 1218:1 1223:1 1228:1 1233:1 1236:1 1242:1 1243:1 1244:1 1245:1 1247:1 1248:1 1249:1 1250:1 1261:1 1276:1 1283:1 1284:4
-1 268:1 412:1 519:1 629:1 872:1 1144:1 1246:1 1276:1 1284:4
-1 1144:1 1276:1 1284:1
-1 263:1 482:1 1144:1 1233:1 1245:1 1276:1 1284:1
-1 137:1 263:1 321:1 481:1 482:1 605:1 748:1 1135:1 1144:1 1218:1 1233:1 1242:1 1243:1 1245:1 1276:1 1284:1
-1 137:2 263:2 321:1 421:1 1144:2 1218:1 1233:2 1242:2 1261:1 1276:2 1284:7
-1 137:1 254:1 263:1 321:1 406:1 409:1 469:1 481:1 482:1 548:1 585:1 675:1 699:1 710:1 832:1 1053:1 1086:1 1144:1 1216:1 1218:1 1223:1 1228:1 1233:1 1242:1 1243:1 1245:1 1247:1 1250:1 1255:1 1256:1 1258:1 1262:1 1272:1 1276:1 1281:1 1284:1 1286:44
-1 137:1 263:1 321:1 409:1 458:1 469:1 481:1 482:1 548:1 675:1 1144:1 1218:1 1221:1 1228:1 1233:1 1242:1 1243:1 1245:1 1247:1 1256:1 1276:1 1284:2 1286:1
-1 137:1 168:1 175:1 254:1 263:1 268:1 323:1 409:1 421:1 481:1 556:1 834:1 854:1 1121:1 1144:1 1223:1 1233:1 1242:1 1243:1 1246:1 1247:1 1261:1 1276:1 1284:2
-1 134:1 137:1 263:1 268:1 481:1 482:1 559:1 639:1 693:1 876:1 896:1 1144:1 1233:1 1238:1 1242:1 1243:1 1244:1 1245:1 1246:1 1251:1 1267:1 1271:1 1276:1 1284:2 1286:92
-1 263:1 321:1 421:1 469:1 481:1 482:1 761:1 1144:1 1218:1 1228:1 1233:1 1236:1 1243:1 1245:1 1261:1 1276:1 1284:5
-1 158:1 1270:1 1284:4
-1 268:2 836:1 1144:1 1246:2 1276:1 1284:3
-1 268:2 836:1 1144:1 1246:2 1276:1 1284:3
-1 137:1 263:1 481:1 482:1 1144:1 1233:1 1242:1 1243:1 1245:1 1276:1 1284:2
-1 268:2 331:1 412:1 519:1 825:1 872:1 900:1 1144:1 1246:2 1276:1 1284:2
-1 246:1 268:1 367:1 369:1 836:1 1144:1 1246:1 1276:1 1284:3 1286:6
-1 156:1 246:1 268:1 1144:1 1246:1 1276:1 1284:3
-1 137:2 263:2 321:3 421:1 469:1 482:1 512:1 585:1 761:1 1144:6 1216:1 1218:3 1228:1 1233:2 1236:1 1242:2 1245:1 1261:1 1276:6 1283:1 1284:6
-1 119:1 268:1 509:1 1029:1 1144:1 1246:1 1276:1 1284:3
-1 158:1 1270:1 1284:3
-1 137:2 263:2 321:2 349:1 396:1 421:1 422:1 469:2 481:1 482:1 512:1 545:1 585:1 761:1 1144:4 1216:1 1218:2 1228:2 1233:2 1236:1 1242:2 1243:1 1245:1 1261:1 1276:4 1283:1 1284:5
-1 158:1 1270:1 1284:4
-1 137:1 263:1 407:1 421:1 481:1 482:1 651:1 992:1 1144:1 1179:1 1233:1 1242:1 1243:1 1245:1 1261:1 1276:1 1284:2
-1 137:1 263:1 268:1 421:1 449:1 469:1 481:1 482:1 512:1 761:1 1144:1 1228:1 1233:1 1236:1 1242:1 1243:1 1245:1 1246:1 1261:1 1276:1 1280:1 1283:1 1284:4
-1 137:1 263:1 421:1 469:1 481:1 482:1 761:1 1144:1 1228:1 1233:1 1236:1 1242:1 1243:1 1245:1 1261:1 1276:1 1284:3
-1 1144:1 1276:1 1284:3
-1 137:1 263:1 345:1 421:1 449:1 469:1 481:1 482:1 512:1 896:1 1144:1 1228:1 1233:1 1242:1 1243:1 1244:1 1245:1 1249:1 1261:1 1276:1 1280:1 1283:1 1284:2
-1 1144:1 1276:1 1284:3 1286:1
-1 137:1 263:1 481:1 482:1 1144:1 1233:1 1242:1 1243:1 1245:1 1276:1 1284:2
-1 268:1 937:1 1144:1 1215:1 1246:1 1276:1 1284:2
-1 1144:1 1276:1 1284:1
-1 158:1 1270:1 1284:3
-1 137:1 189:1 263:1 268:1 321:1 397:1 409:1 421:1 469:1 481:1 482:1 507:1 513:1 699:1 746:1 896:1 937:1 1053:1 1079:1 1131:1 1144:1 1214:1 1215:1 1218:1 1225:1 1228:1 1232:1 1233:1 1242:1 1243:1 1244:1 1245:1 1246:1 1247:1 1250:1 1261:1 1262:1 1276:1 1284:2
-1 158:1 1270:1 1284:3
-1 158:1 1270:1 1284:3
-1 158:1 1270:1 1284:3
-1 137:1 263:1 421:1 469:1 481:1 482:1 761:1 1144:1 1228:1 1233:1 1236:1 1242:1 1243:1 1245:1 1261:1 1276:1 1284:2
-1 268:1 1144:1 1246:1 1276:1 1284:2
-1 137:1 263:1 268:1 321:1 409:1 421:1 469:1 481:1 482:1 937:1 1132:1 1144:1 1215:1 1218:1 1228:1 1233:1 1242:1 1243:1 1245:1 1246:1 1247:1 1261:1 1276:1 1284:2
-1 548:1 1144:1 1256:1 1276:1 1284:2
-1 469:1 535:1 1144:1 1228:1 1276:1 1284:2
-1 137:1 268:1 1144:1 1242:1 1246:1 1276:1 1284:2
-1 137:1 263:1 268:2 421:1 481:1 482:1 512:1 1144:1 1233:1 1242:1 1243:1 1245:1 1246:2 1261:1 1276:1 1283:1 1284:3
-1 263:1 268:1 421:1 1144:1 1233:1 1246:1 1261:1 1276:1 1284:2
-1 158:1 1270:1 1284:4
-1 137:1 263:1 321:1 421:1 469:1 481:1 482:1 761:1 1144:1 1218:1 1228:1 1233:1 1236:1 1242:1 1243:1 1245:1 1261:1 1276:1 1284:2
-1 268:2 449:1 1144:1 1246:2 1276:1 1280:1 1284:3
-1 268:2 449:1 1144:1 1246:2 1276:1 1280:1 1284:3
-1 137:1 263:1 404:1 421:1 481:1 482:1 1144:1 1233:1 1242:1 1243:1 1245:1 1261:1 1276:1 1284:3
-1 191:1 1237:1 1284:1
-1 137:2 263:2 321:3 421:1 449:1 469:1 481:1 482:1 512:1 761:1 1144:4 1218:3 1228:1 1233:2 1236:1 1242:2 1243:1 1245:1 1261:1 1276:4 1280:1 1283:1 1284:6
-1 168:1 175:1 186:1 259:1 264:1 268:1 382:1 426:1 556:1 691:1 834:1 854:1 971:1 976:1 1121:1 1188:1 1246:1 1248:1 1284:2
-1 268:1 995:1 1144:1 1246:1 1276:1 1284:2
-1 321:1 469:1 1144:1 1218:1 1228:1 1276:1 1284:1
-1 137:1 189:1 263:1 321:1 409:1 469:1 481:1 547:1 761:1 1053:1 1144:1 1218:1 1228:1 1232:1 1233:1 1236:1 1242:1 1243:1 1247:1 1250:1 1276:1 1284:1
-1 137:1 263:1 321:1 345:1 409:1 421:1 469:1 481:1 482:1 512:1 1144:1 1218:1 1228:1 1233:1 1242:1 1243:1 1245:1 1247:1 1249:1 1261:1 1276:1 1283:1 1284:2
-1 137:1 263:1 481:1 1144:1 1233:1 1242:1 1243:1 1276:1 1284:1
-1 137:1 263:1 321:1 409:1 482:1 1144:1 1218:1 1233:1 1242:1 1245:1 1247:1 1276:1 1284:1
-1 158:1 1270:1 1284:3
-1 137:1 263:1 482:1 1144:1 1233:1 1242:1 1245:1 1276:1 1284:2 1286:2
-1 285:1 402:1 440:1 1061:1 1144:1 1276:1 1284:3 1286:1
-1 268:1 394:1 1144:1 1222:1 1246:1 1276:1 1284:1
-1 268:1 1144:1 1246:1 1276:1 1284:1
-1 137:1 268:1 323:1 481:1 1144:1 1242:1 1243:1 1246:1 1276:1 1284:1
-1 263:1 761:1 1144:1 1233:1 1236:1 1276:1 1284:5 1286:1
-1 1144:1 1276:1 1284:2
-1 168:1 175:1 186:1 259:1 264:1 268:1 382:1 426:1 556:1 691:1 834:1 838:1 854:1 884:1 936:1 937:1 976:1 1024:1 1121:1 1164:1 1171:1 1215:1 1246:1 1284:1
-1 158:1 1270:1 1284:3
-1 137:1 263:1 321:1 469:1 932:1 998:1 1144:1 1218:1 1228:1 1233:1 1242:1 1273:1 1276:1 1279:1 1284:1
-1 168:1 175:1 268:1 556:1 558:1 618:1 755:1 834:1 854:1 864:1 974:1 1031:1 1121:1 1246:1 1278:1 1284:1
-1 168:1 175:1 268:1 323:1 359:1 556:1 618:1 834:1 854:1 1121:1 1164:1 1246:1 1284:2
-1 158:1 1270:1 1284:3
-1 158:1 1270:1 1284:2
-1 294:1 423:1 1144:1 1168:1 1276:1 1284:2
-1 137:1 263:1 321:1 345:1 421:1 469:1 481:1 482:1 512:1 1144:1 1167:1 1218:1 1226:1 1228:1 1233:1 1242:1 1243:1 1245:1 1249:1 1261:1 1276:1 1283:1 1284:2
-1 137:1 263:1 268:1 481:1 1144:1 1233:1 1242:1 1243:1 1246:1 1276:1 1284:1
-1 137:1 213:1 263:1 268:1 321:1 409:1 425:1 438:1 469:1 470:1 475:1 481:1 761:1 817:1 859:1 1144:1 1165:1 1218:1 1224:1 1228:1 1233:1 1236:1 1242:1 1243:1 1246:1 1247:1 1263:1 1266:1 1275:1 1276:1 1284:1
-1 158:1 263:1 268:1 321:1 421:1 469:1 513:1 1144:1 1214:1 1218:1 1228:1 1233:1 1246:1 1261:1 1270:1 1276:1 1284:4
-1 137:1 263:1 321:1 330:1 469:1 1144:1 1218:1 1228:1 1233:1 1242:1 1276:1 1284:3
-1 321:1 469:1 992:1 1144:1 1218:1 1228:1 1276:1 1284:2
-1 137:1 213:1 263:1 268:1 321:1 454:1 458:1 469:1 470:1 790:1 1144:1 1218:1 1221:1 1228:1 1233:1 1242:1 1246:1 1263:1 1276:1 1284:2
-1 263:1 268:1 469:1 470:1 859:1 1144:1 1228:1 1233:1 1246:1 1275:1 1276:1 1284:2
-1 160:1 199:1 221:1 253:1 403:1 410:1 515:1 623:1 652:1 842:1 858:1 914:1 934:1 970:1 1017:1 1026:1 1041:1 1049:1 1065:1 1144:1 1183:1 1276:1 1284:2 1286:427
-1 137:1 263:1 268:1 321:1 323:1 409:1 481:1 1144:1 1218:1 1233:1 1242:1 1243:1 1246:1 1247:1 1276:1 1284:1 1286:66
-1 137:1 268:1 444:1 470:1 709:1 915:1 994:1 1144:1 1242:1 1246:1 1276:1 1284:3
-1 137:1 263:1 268:1 421:1 482:1 512:1 700:1 761:1 1144:1 1233:1 1236:1 1242:1 1245:1 1246:1 1261:1 1276:1 1283:1 1284:2
-1 137:1 263:1 294:1 421:1 481:1 482:1 1144:1 1233:1 1242:1 1243:1 1245:1 1261:1 1276:1 1284:3
-1 137:1 263:1 268:1 321:1 469:1 481:1 529:1 707:1 845:1 1138:1 1144:1 1218:1 1228:1 1233:1 1242:1 1243:1 1246:1 1276:1 1284:2
-1 586:1 1144:1 1220:1 1276:1 1284:2
-1 137:1 158:1 263:1 321:1 327:1 469:1 1083:1 1144:1 1218:1 1228:1 1233:1 1242:1 1270:1 1276:1 1284:1
-1 137:1 263:1 321:1 345:1 409:1 421:1 469:1 481:1 482:1 512:1 1053:1 1144:1 1218:1 1228:1 1233:1 1242:1 1243:1 1245:1 1247:1 1249:1 1250:1 1261:1 1276:1 1283:1 1284:1
-1 342:1 452:1 464:1 520:1 559:1 605:1 639:1 878:1 1135:1 1144:1 1267:1 1271:1 1276:1 1284:1
-1 158:1 1270:1 1284:3
-1 137:1 263:1 421:1 469:1 481:1 482:1 761:1 1144:1 1228:1 1233:1 1236:1 1242:1 1243:1 1245:1 1261:1 1276:1 1284:3
-1 263:1 266:1 268:1 321:1 409:1 421:1 469:1 481:1 1144:1 1218:1 1228:1 1233:1 1243:1 1246:1 1247:1 1261:1 1276:1 1284:3
-1 137:2 263:2 321:2 421:1 469:1 481:1 482:1 1144:3 1218:2 1228:1 1233:2 1242:2 1243:1 1245:1 1261:1 1276:3 1284:6
-1 137:1 254:1 263:1 268:1 409:1 421:1 469:1 481:1 482:1 512:1 1144:1 1223:1 1228:1 1233:1 1242:1 1243:1 1245:1 1246:1 1247:1 1261:1 1276:1 1283:1 1284:1
-1 158:1 1270:1 1284:2
-1 137:1 149:1 168:1 175:1 186:1 212:1 240:1 249:1 263:1 264:1 268:1 301:1 308:1 321:1 323:1 382:1 409:1 426:1 481:1 524:1 556:1 558:1 561:1 618:1 678:1 691:1 828:1 831:1 834:1 838:1 854:1 884:1 888:1 893:1 937:1 976:1 1025:1 1050:1 1052:1 1121:1 1127:1 1144:1 1164:1 1208:1 1215:1 1218:1 1233:1 1242:1 1243:1 1246:1 1247:1 1276:1 1284:2
-1 137:1 263:1 268:1 321:1 469:1 481:1 482:1 516:1 1144:1 1218:1 1228:1 1233:1 1242:1 1243:1 1245:1 1246:1 1276:1 1284:2
-1 137:1 268:1 421:1 469:1 481:1 1144:1 1228:1 1242:1 1243:1 1246:1 1261:1 1276:1 1284:1
-1 137:1 263:1 268:1 469:1 482:1 1144:1 1149:1 1228:1 1233:1 1242:1 1245:1 1246:1 1276:1 1284:1
-1 137:1 263:1 268:1 321:1 409:1 421:1 469:1 481:1 1144:1 1218:1 1228:1 1233:1 1242:1 1243:1 1246:1 1247:1 1261:1 1276:1 1284:2
-1 137:1 168:1 175:1 263:1 268:1 321:1 323:1 409:1 421:1 469:1 481:1 482:1 556:1 691:1 710:1 790:1 828:1 834:1 854:1 976:1 1050:1 1086:1 1121:1 1144:1 1165:1 1218:1 1224:1 1228:1 1233:1 1242:1 1243:1 1245:1 1246:1 1247:1 1261:1 1272:1 1276:1 1281:1 1284:2
-1 137:2 263:2 268:1 321:3 421:1 469:2 481:2 482:1 512:1 585:1 761:1 1144:4 1216:1 1218:3 1228:2 1233:2 1236:1 1242:2 1243:2 1245:1 1246:1 1261:1 1276:4 1283:1 1284:5
-1 137:1 254:1 263:1 321:1 345:1 409:1 421:1 469:1 481:1 482:1 512:1 513:1 585:1 896:1 1053:1 1144:1 1214:1 1216:1 1218:1 1223:1 1228:1 1233:1 1242:1 1243:1 1244:1 1245:1 1247:1 1249:1 1250:1 1261:1 1276:1 1283:1 1284:1
-1 137:2 263:2 321:2 421:1 469:1 481:1 482:1 512:1 560:1 585:1 761:1 1144:5 1216:1 1218:2 1228:1 1233:2 1236:1 1242:2 1243:1 1245:1 1261:1 1276:5 1283:1 1284:6
-1 137:1 168:1 175:1 254:1 263:1 268:1 321:1 323:1 409:1 421:1 458:1 469:1 481:1 482:1 512:1 556:1 561:1 828:1 854:1 893:1 937:1 1050:1 1121:1 1144:1 1215:1 1218:1 1221:1 1223:1 1228:1 1233:1 1242:1 1243:1 1245:1 1246:1 1247:1 1261:1 1276:1 1283:1 1284:2
-1 137:1 263:1 268:1 481:1 482:1 1144:1 1233:1 1242:1 1243:1 1245:1 1246:1 1276:1 1284:1
-1 168:1 175:1 186:1 212:1 263:1 264:1 268:1 301:1 323:1 382:1 469:1 481:1 482:1 523:1 556:1 558:1 618:1 834:1 838:1 854:1 884:1 888:1 937:1 976:1 1019:1 1052:1 1121:1 1164:1 1215:1 1228:1 1233:1 1243:1 1245:1 1246:1 1284:2
-1 137:1 149:1 168:1 175:1 186:1 196:1 240:1 263:1 268:1 308:1 321:1 409:1 426:1 469:1 481:1 524:1 556:1 618:1 691:1 710:1 761:1 828:1 834:1 838:1 854:1 884:1 888:1 937:1 1024:1 1025:1 1050:1 1052:1 1055:1 1121:1 1144:1 1208:1 1215:1 1218:1 1228:1 1233:1 1236:1 1242:1 1243:1 1246:1 1247:1 1272:1 1276:1 1284:2 1286:1
-1 137:1 263:1 268:1 469:1 481:1 687:1 1144:1 1228:1 1233:1 1242:1 1243:1 1246:1 1276:1 1284:1
-1 158:1 1270:1 1284:3
-1 125:1 137:1 168:1 175:1 212:1 263:1 264:1 321:1 323:1 376:1 426:1 458:1 491:1 556:1 558:1 755:1 828:1 838:1 854:1 864:1 884:1 888:1 913:1 932:1 937:1 976:1 1050:1 1085:1 1121:1 1144:1 1215:1 1218:1 1221:1 1233:1 1242:1 1260:1 1276:1 1278:1 1279:1 1284:2
-1 268:2 412:1 519:1 1144:1 1155:1 1246:2 1276:1 1284:2
-1 268:1 331:1 412:1 1144:1 1155:1 1246:1 1276:1 1284:2
-1 268:1 331:1 412:1 519:1 1144:1 1155:1 1246:1 1276:1 1284:2
-1 268:2 451:1 824:1 1144:1 1246:2 1276:1 1284:5
-1 137:1 254:1 263:1 268:1 421:1 469:1 482:1 1144:1 1223:1 1228:1 1233:1 1242:1 1245:1 1246:1 1261:1 1276:1 1284:1
-1 156:1 246:1 268:2 350:1 367:1 836:1 1114:1 1129:1 1144:1 1246:2 1276:1 1284:2 1286:347
-1 137:1 263:1 268:1 409:1 421:1 469:1 481:1 512:1 1144:1 1228:1 1233:1 1242:1 1243:1 1246:1 1247:1 1261:1 1276:1 1283:1 1284:1
-1 137:1 254:1 263:1 268:1 421:1 469:1 481:1 482:1 512:1 1144:1 1223:1 1228:1 1233:1 1242:1 1243:1 1245:1 1246:1 1261:1 1276:1 1283:1 1284:3
-1 137:2 263:2 321:1 421:1 1144:2 1218:1 1233:2 1242:2 1261:1 1276:2 1284:7
-1 263:1 268:1 482:1 1144:1 1233:1 1245:1 1246:1 1276:1 1284:2
-1 158:1 263:1 268:1 409:1 469:1 481:1 1144:1 1228:1 1233:1 1243:1 1246:1 1247:1 1270:1 1276:1 1284:2
-1 268:1 377:1 421:1 481:1 932:1 1144:1 1243:1 1246:1 1261:1 1276:1 1279:1 1284:2
-1 191:1 1237:1 1284:1
-1 137:1 263:1 321:1 421:1 469:1 481:1 482:1 512:1 761:1 896:1 1144:1 1218:1 1228:1 1233:1 1236:1 1242:1 1243:1 1244:1 1245:1 1261:1 1276:1 1283:1 1284:2
-1 268:1 548:1 597:1 1144:1 1246:1 1256:1 1276:1 1284:2
-1 134:1 263:1 268:1 482:1 559:1 639:1 693:1 1144:1 1233:1 1238:1 1245:1 1246:1 1251:1 1267:1 1271:1 1276:1 1284:2
-1 137:1 263:1 268:1 321:1 409:1 421:1 469:1 481:1 482:1 516:1 523:1 761:1 937:1 1086:1 1144:1 1215:1 1218:1 1228:1 1233:1 1236:1 1242:1 1243:1 1245:1 1246:1 1247:1 1261:1 1276:1 1281:1 1284:2
-1 268:2 1144:1 1246:2 1276:1 1284:2
-1 224:1 342:1 452:1 464:1 520:1 536:1 559:1 605:1 639:1 878:1 1135:1 1144:1 1267:1 1271:1 1276:1 1284:2
-1 263:1 1144:1 1233:1 1276:1 1284:2
-1 168:1 175:1 212:1 254:1 263:1 268:1 321:1 409:1 458:1 469:1 481:1 556:1 691:1 834:1 854:1 976:1 1025:1 1085:1 1121:1 1127:1 1144:1 1148:1 1218:1 1221:1 1223:1 1228:1 1233:1 1243:1 1246:1 1247:1 1276:1 1284:1
-1 263:1 321:1 421:1 469:1 482:1 513:1 761:1 1144:1 1214:1 1218:1 1228:1 1233:1 1236:1 1245:1 1261:1 1276:1 1284:2
-1 137:1 263:1 321:1 409:1 421:1 469:1 481:1 482:1 512:1 513:1 1144:1 1214:1 1218:1 1228:1 1233:1 1242:1 1243:1 1245:1 1247:1 1261:1 1276:1 1283:1 1284:3
-1 149:1 168:1 175:1 212:1 240:1 249:1 268:1 293:1 301:1 426:1 556:1 618:1 691:1 828:1 834:1 838:1 854:1 884:1 888:1 937:1 976:1 1025:1 1052:1 1121:1 1164:1 1215:1 1246:1 1284:2
-1 149:1 168:1 175:1 186:1 212:1 268:1 293:1 301:1 382:1 426:1 556:1 618:1 642:1 691:1 754:1 828:1 834:1 838:1 854:1 888:1 937:1 974:1 976:1 1019:1 1052:1 1121:1 1164:1 1215:1 1246:1 1284:2
-1 137:1 263:1 421:1 469:1 481:1 482:1 512:1 761:1 1144:1 1228:1 1233:1 1236:1 1242:1 1243:1 1245:1 1261:1 1276:1 1283:1 1284:2
-1 158:1 1270:1 1284:3
-1 158:1 1270:1 1284:3
-1 158:1 1270:1 1284:3
-1 263:1 482:1 1144:1 1233:1 1245:1 1276:1 1284:3
-1 263:1 481:1 482:1 1144:1 1233:1 1243:1 1245:1 1276:1 1284:2
-1 137:1 263:1 421:1 469:1 481:1 482:1 761:1 1144:1 1228:1 1233:1 1236:1 1242:1 1243:1 1245:1 1261:1 1276:1 1284:2
-1 137:1 263:1 421:1 469:1 481:1 482:1 761:1 1144:1 1228:1 1233:1 1236:1 1242:1 1243:1 1245:1 1261:1 1276:1 1284:3
-1 137:1 263:1 469:1 481:1 1144:1 1228:1 1233:1 1242:1 1243:1 1276:1 1284:3
-1 158:1 1270:1 1284:2
-1 137:1 1144:1 1242:1 1276:1 1284:1
-1 137:1 263:1 421:1 482:1 761:1 1144:1 1233:1 1236:1 1242:1 1245:1 1261:1 1276:1 1284:2
-1 137:1 263:1 421:1 482:1 761:1 1144:1 1233:1 1236:1 1242:1 1245:1 1261:1 1276:1 1284:2
-1 137:1 263:1 321:1 421:1 458:1 469:1 481:1 482:1 761:1 1144:1 1218:1 1221:1 1228:1 1233:1 1236:1 1242:1 1243:1 1245:1 1261:1 1276:1 1284:2
-1 137:1 263:1 421:1 469:1 481:1 482:1 761:1 1144:1 1228:1 1233:1 1236:1 1242:1 1243:1 1245:1 1261:1 1276:1 1284:2
-1 137:1 321:1 469:1 482:1 790:1 1144:1 1218:1 1228:1 1242:1 1245:1 1276:1 1284:3
-1 268:2 449:1 1144:1 1246:2 1276:1 1280:1 1284:3
-1 158:1 1270:1 1284:3
-1 158:1 1270:1 1284:3
-1 137:2 263:2 321:1 421:1 1144:2 1218:1 1233:2 1242:2 1261:1 1276:2 1284:7
-1 168:1 175:1 186:1 240:1 259:1 264:1 268:1 382:1 426:1 431:1 556:1 618:1 653:1 691:1 834:1 838:1 854:1 860:1 885:1 937:1 968:1 971:1 976:1 1046:1 1121:1 1215:1 1231:1 1241:1 1246:1 1248:1 1284:2
-1 137:1 263:1 321:1 421:1 469:1 481:1 1144:1 1218:1 1228:1 1233:1 1242:1 1243:1 1261:1 1276:1 1284:3
-1 137:2 263:2 321:2 421:1 449:1 481:1 482:1 761:1 1144:4 1218:2 1233:2 1236:1 1242:2 1243:1 1245:1 1261:1 1276:4 1280:1 1284:6
-1 137:1 263:1 321:1 421:1 469:1 481:1 482:1 761:1 1144:1 1218:1 1228:1 1233:1 1236:1 1242:1 1243:1 1245:1 1261:1 1276:1 1284:2
-1 137:1 263:1 268:1 321:1 409:1 469:1 481:1 687:1 699:1 896:1 937:1 971:1 1144:1 1188:1 1215:1 1218:1 1228:1 1233:1 1242:1 1243:1 1244:1 1246:1 1247:1 1248:1 1262:1 1276:1 1284:1
-1 263:1 482:1 559:1 1144:1 1233:1 1245:1 1267:1 1276:1 1284:1
-1 137:2 263:2 321:2 421:1 469:1 481:2 482:1 512:1 761:1 1144:4 1218:2 1228:1 1233:2 1236:1 1242:2 1243:2 1245:1 1261:1 1276:4 1283:1 1284:6
-1 137:2 263:2 321:2 421:1 482:1 512:1 761:1 1144:4 1218:2 1233:2 1236:1 1242:2 1245:1 1261:1 1276:4 1283:1 1284:6
-1 137:1 263:1 421:1 469:1 481:1 482:1 761:1 1144:1 1228:1 1233:1 1236:1 1242:1 1243:1 1245:1 1261:1 1276:1 1284:3
-1 1144:1 1276:1 1284:1
-1 263:1 482:1 1144:1 1233:1 1245:1 1276:1 1284:3
-1 137:1 263:1 421:1 469:1 481:1 482:1 761:1 1144:1 1228:1 1233:1 1236:1 1242:1 1243:1 1245:1 1261:1 1276:1 1284:3
-1 137:1 263:1 321:1 404:1 421:1 458:1 469:1 481:1 482:1 761:1 1144:1 1218:1 1221:1 1228:1 1233:1 1236:1 1242:1 1243:1 1245:1 1261:1 1276:1 1284:1
-1 263:1 321:1 1144:1 1218:1 1233:1 1276:1 1284:4
-1 168:1 175:1 186:1 259:1 268:1 301:1 382:1 426:1 527:1 556:1 642:1 691:1 826:1 834:1 854:1 940:1 971:1 976:1 991:1 1121:1 1164:1 1208:1 1246:1 1248:1 1284:4
-1 263:1 268:1 409:1 481:1 482:1 1144:1 1233:1 1243:1 1245:1 1246:1 1247:1 1276:1 1284:3
-1 268:1 1144:1 1246:1 1276:1 1284:2
-1 137:6 263:2 321:3 421:1 422:1 425:5 469:1 481:2 482:1 512:1 761:1 1144:5 1218:3 1228:1 1233:2 1236:1 1242:6 1243:2 1245:1 1261:1 1266:5 1276:5 1283:1 1284:6
-1 137:1 263:1 421:1 469:1 481:1 482:1 761:1 1144:1 1228:1 1233:1 1236:1 1242:1 1243:1 1245:1 1261:1 1276:1 1284:5
-1 137:1 168:1 175:1 263:1 268:1 308:1 321:1 323:1 409:1 421:1 556:1 834:1 854:1 1025:1 1085:1 1086:1 1121:1 1144:1 1218:1 1233:1 1242:1 1246:1 1247:1 1261:1 1276:1 1281:1 1284:1
-1 137:2 263:2 321:1 421:1 469:1 482:1 512:1 761:1 896:1 1144:4 1218:1 1228:1 1233:2 1236:1 1242:2 1244:1 1245:1 1261:1 1276:4 1283:1 1284:6
-1 294:1 1144:1 1276:1 1284:2
-1 294:1 1144:1 1276:1 1284:2
-1 137:1 263:1 421:1 469:1 481:1 482:1 761:1 1144:1 1228:1 1233:1 1236:1 1242:1 1243:1 1245:1 1261:1 1276:1 1284:4
-1 137:1 263:1 1144:1 1233:1 1242:1 1276:1 1284:3
-1 137:1 263:1 321:1 421:1 469:1 481:1 482:1 761:1 1144:1 1218:1 1228:1 1233:1 1236:1 1242:1 1243:1 1245:1 1261:1 1276:1 1284:2
-1 137:1 263:1 421:1 469:1 481:1 482:1 512:1 1144:1 1228:1 1233:1 1242:1 1243:1 1245:1 1261:1 1276:1 1283:1 1284:4
-1 137:1 263:2 321:2 422:1 1144:4 1218:2 1233:2 1242:1 1276:4 1284:6
-1 137:2 263:2 321:1 421:1 1144:2 1218:1 1233:2 1242:2 1261:1 1276:2 1284:7
-1 568:1 654:1 1284:2
-1 568:1 654:1 1284:2
-1 568:1 654:1 1284:2
-1 137:1 263:1 421:1 469:1 481:1 482:1 512:1 971:1 1018:1 1144:1 1228:1 1233:1 1242:1 1243:1 1245:1 1248:1 1261:1 1276:1 1283:1 1284:4
-1 134:1 137:1 263:1 268:1 482:1 693:1 896:1 975:1 1079:1 1144:1 1233:1 1238:1 1242:1 1244:1 1245:1 1246:1 1251:1 1276:1 1284:2
-1 568:1 654:1 787:1 1284:2
-1 137:1 263:1 421:1 1144:1 1233:1 1242:1 1261:1 1276:1 1284:1
-1 137:1 263:1 268:1 971:1 1144:1 1233:1 1242:1 1246:1 1248:1 1276:1 1284:4
-1 263:1 321:1 449:1 469:1 1144:1 1218:1 1228:1 1233:1 1276:1 1280:1 1284:1
-1 191:1 1144:1 1237:1 1276:1 1284:4
-1 137:2 263:2 321:1 421:1 1144:2 1218:1 1233:2 1242:2 1261:1 1276:2 1284:7
-1 137:1 263:1 268:2 481:1 1144:1 1233:1 1242:1 1243:1 1246:2 1276:1 1284:4
-1 137:1 263:1 481:1 482:1 1144:1 1233:1 1242:1 1243:1 1245:1 1276:1 1284:1 1286:26
-1 137:2 263:2 321:1 421:1 1144:2 1218:1 1233:2 1242:2 1261:1 1276:2 1284:7
-1 137:1 321:1 409:1 469:1 605:1 1144:1 1218:1 1228:1 1242:1 1247:1 1276:1 1284:1
-1 137:1 263:1 321:1 345:1 421:1 469:1 481:1 482:1 512:1 1144:1 1167:1 1218:1 1226:1 1228:1 1233:1 1242:1 1243:1 1245:1 1249:1 1261:1 1276:1 1283:1 1284:2
-1 137:1 263:2 321:3 409:1 469:1 481:1 1144:6 1218:3 1228:1 1233:2 1242:1 1243:1 1247:1 1276:6 1284:5
-1 137:1 263:1 268:1 321:1 409:1 421:1 469:1 481:1 482:1 490:1 507:1 687:1 693:1 937:1 1053:1 1086:1 1144:1 1215:1 1218:1 1228:1 1233:1 1242:1 1243:1 1245:1 1246:1 1247:1 1250:1 1251:1 1261:1 1276:1 1281:1 1284:1
-1 158:1 1270:1 1284:3
-1 268:1 1144:1 1246:1 1276:1 1284:3
-1 268:2 1144:1 1246:2 1276:1 1284:4
-1 137:1 254:1 263:1 321:1 345:1 409:1 421:1 469:1 481:1 482:1 513:1 585:1 859:1 896:1 1053:1 1086:1 1144:1 1214:1 1216:1 1218:1 1223:1 1228:1 1233:1 1242:1 1243:1 1244:1 1245:1 1247:1 1249:1 1250:1 1261:1 1275:1 1276:1 1281:1 1284:2
-1 1144:1 1276:1 1284:2
-1 137:1 263:1 321:1 409:1 421:1 469:1 481:1 482:1 512:1 585:1 971:1 1053:1 1144:1 1216:1 1218:1 1228:1 1233:1 1242:1 1243:1 1245:1 1247:1 1248:1 1250:1 1261:1 1276:1 1283:1 1284:1
-1 137:1 1144:1 1242:1 1276:1 1284:3
-1 137:1 268:1 1144:1 1242:1 1246:1 1276:1 1284:4
-1 137:1 263:1 469:1 482:1 518:1 1102:1 1144:1 1228:1 1233:1 1242:1 1245:1 1276:1 1284:3
-1 158:1 1270:1 1284:2
-1 137:1 971:1 1144:1 1242:1 1248:1 1276:1 1284:2
-1 137:1 971:1 1144:1 1200:1 1242:1 1248:1 1276:1 1284:3
-1 263:1 421:1 469:1 481:1 482:1 512:1 896:1 1144:1 1228:1 1233:1 1243:1 1244:1 1245:1 1261:1 1276:1 1283:1 1284:4
-1 158:1 1270:1 1284:4
-1 158:1 1270:1 1284:2
-1 191:1 1237:1 1284:1
-1 191:1 1237:1 1284:1
-1 158:1 1270:1 1284:4
-1 458:1 1144:1 1221:1 1276:1 1284:2 1286:4
-1 191:1 1237:1 1284:1
-1 137:2 254:1 263:2 321:2 421:1 422:1 481:1 482:1 761:1 1144:4 1218:2 1223:1 1233:2 1236:1 1242:2 1243:1 1245:1 1261:1 1276:4 1284:6
-1 137:3 263:2 321:1 421:1 1144:4 1218:1 1233:2 1242:3 1261:1 1276:4 1284:4
-1 137:3 263:2 321:1 421:1 1144:4 1218:1 1233:2 1242:3 1261:1 1276:4 1284:4
-1 158:1 1270:1 1284:2
-1 174:1 268:1 481:1 573:1 648:1 1084:1 1144:1 1206:1 1243:1 1246:1 1276:1 1284:7
-1 287:1 1144:1 1276:1 1284:3
-1 137:2 263:2 321:3 345:1 409:1 421:1 449:1 469:1 481:2 482:1 512:1 761:1 896:1 1144:4 1218:3 1228:1 1233:2 1236:1 1242:2 1243:2 1244:1 1245:1 1247:1 1249:1 1261:1 1276:4 1280:1 1283:1 1284:6
-1 137:1 263:1 321:1 345:1 421:1 469:1 481:1 482:1 512:1 1144:1 1218:1 1228:1 1233:1 1242:1 1243:1 1245:1 1249:1 1261:1 1276:1 1283:1 1284:2
-1 137:1 263:1 421:1 469:1 481:1 482:1 1144:1 1228:1 1233:1 1242:1 1243:1 1245:1 1261:1 1276:1 1284:2
-1 1144:1 1276:1 1284:2
-1 137:1 263:1 321:1 409:1 421:1 481:1 482:1 512:1 1144:1 1218:1 1233:1 1242:1 1243:1 1245:1 1247:1 1261:1 1276:1 1283:1 1284:1
-1 294:1 1144:1 1276:1 1284:3
-1 137:1 263:2 321:2 481:1 1144:4 1218:2 1233:2 1242:1 1243:1 1276:4 1284:6
-1 137:1 168:1 175:1 186:1 207:1 259:1 268:1 382:1 426:1 556:1 691:1 834:1 854:1 937:1 976:1 1075:1 1121:1 1144:1 1157:1 1215:1 1242:1 1246:1 1276:1 1284:2
-1 263:1 482:1 1144:1 1233:1 1245:1 1276:1 1284:3 1286:2
-1 263:1 520:1 627:1 1144:1 1233:1 1276:1 1284:2 1286:35
-1 1144:1 1276:1 1284:3
-1 191:1 1237:1 1284:1
-1 137:1 263:1 421:1 469:1 481:1 482:1 761:1 1144:1 1228:1 1233:1 1236:1 1242:1 1243:1 1245:1 1261:1 1276:1 1284:3
-1 137:1 168:1 175:1 207:1 229:1 259:1 268:1 382:1 426:1 556:1 691:1 834:1 854:1 937:1 976:1 1075:1 1089:1 1121:1 1144:1 1157:1 1215:1 1242:1 1246:1 1276:1 1284:1
-1 137:2 263:2 321:3 421:1 469:1 481:2 482:1 512:1 761:1 896:1 1144:4 1218:3 1228:1 1233:2 1236:1 1242:2 1243:2 1244:1 1245:1 1261:1 1276:4 1283:1 1284:6
-1 605:1 1144:1 1195:1 1276:1 1284:2
-1 137:1 268:1 323:1 937:1 1144:1 1198:1 1215:1 1242:1 1246:1 1276:1 1284:1
-1 137:1 263:1 384:1 421:1 481:1 482:1 518:1 896:1 1117:1 1144:1 1173:1 1233:1 1242:1 1243:1 1244:1 1245:1 1261:1 1276:1 1284:2
-1 263:1 268:1 481:1 896:1 1144:1 1233:1 1243:1 1244:1 1246:1 1276:1 1284:2
-1 158:1 1270:1 1284:3
-1 263:1 482:1 1144:1 1233:1 1245:1 1276:1 1284:2
-1 268:1 753:1 937:1 1105:1 1144:1 1215:1 1246:1 1276:1 1284:2
-1 137:1 268:1 674:1 816:1 968:1 971:1 1144:1 1241:1 1242:1 1246:1 1248:1 1276:1 1284:2
-1 158:1 1270:1 1284:4
-1 1144:1 1276:1 1284:4
-1 137:1 263:1 268:1 421:1 449:1 469:1 481:1 482:1 512:1 896:1 1144:1 1228:1 1233:1 1242:1 1243:1 1244:1 1245:1 1246:1 1261:1 1276:1 1280:1 1283:1 1284:2
-1 168:1 175:1 212:1 236:1 268:1 308:1 321:1 323:1 382:1 556:1 679:1 833:1 834:1 854:1 976:1 1121:1 1164:1 1218:1 1246:1 1284:1
-1 158:1 1270:1 1284:3
-1 158:1 1270:1 1284:2
-1 137:1 189:1 263:1 321:1 409:1 469:1 481:1 761:1 896:1 998:1 1144:1 1218:1 1228:1 1232:1 1233:1 1236:1 1242:1 1243:1 1244:1 1247:1 1273:1 1276:1 1284:1 1286:2
-1 137:1 263:1 481:1 1144:1 1233:1 1242:1 1243:1 1276:1 1284:3
-1 191:1 1237:1 1284:1
-1 191:1 1237:1 1284:1
-1 168:1 175:1 186:1 268:1 323:1 481:1 556:1 834:1 854:1 976:1 1121:1 1243:1 1246:1 1284:2
-1 137:1 168:1 175:1 268:1 321:1 323:1 470:1 481:1 556:1 679:1 834:1 854:1 937:1 1121:1 1144:1 1193:1 1215:1 1218:1 1242:1 1243:1 1246:1 1276:1 1284:1
-1 191:1 1237:1 1284:1
-1 137:2 263:2 321:3 421:1 449:1 469:1 481:2 482:1 512:1 761:1 896:1 968:1 1144:7 1218:3 1228:1 1233:2 1236:1 1241:1 1242:2 1243:2 1244:1 1245:1 1261:1 1276:7 1280:1 1283:1 1284:6 1286:1
-1 263:1 287:1 321:1 421:1 469:1 481:1 482:1 512:1 761:1 1144:1 1218:1 1228:1 1233:1 1236:1 1243:1 1245:1 1261:1 1276:1 1283:1 1284:4
-1 158:1 1270:1 1284:3
-1 263:1 268:1 1144:1 1233:1 1246:1 1276:1 1284:5
-1 137:2 263:2 321:3 421:1 469:2 481:2 482:1 512:1 585:1 761:1 1144:5 1216:1 1218:3 1228:2 1233:2 1236:1 1242:2 1243:2 1245:1 1261:1 1276:5 1283:1 1284:6
-1 268:2 1144:1 1246:2 1276:1 1284:2
-1 137:1 263:1 321:1 345:1 421:1 469:1 481:1 482:1 512:1 896:1 1144:1 1167:1 1218:1 1226:1 1228:1 1233:1 1242:1 1243:1 1244:1 1245:1 1249:1 1261:1 1276:1 1283:1 1284:2
-1 137:1 263:1 482:1 512:1 1144:1 1233:1 1242:1 1245:1 1276:1 1283:1 1284:1
-1 168:1 175:1 186:1 212:1 264:1 268:1 301:1 321:1 323:1 382:1 426:1 556:1 558:1 618:1 642:1 691:1 755:1 834:1 854:1 937:1 976:1 1025:1 1031:1 1121:1 1164:1 1215:1 1218:1 1246:1 1284:2
-1 158:1 1270:1 1284:3
-1 137:1 203:1 412:1 519:1 559:1 577:1 694:1 1144:1 1242:1 1267:1 1276:1 1284:3
-1 137:1 263:1 481:1 482:1 692:1 859:1 1144:1 1233:1 1242:1 1243:1 1245:1 1275:1 1276:1 1284:1
-1 137:1 263:1 421:1 469:1 481:1 482:1 761:1 1144:1 1228:1 1233:1 1236:1 1242:1 1243:1 1245:1 1261:1 1276:1 1284:3
-1 168:1 175:1 186:1 205:1 236:1 264:1 268:1 323:1 426:1 432:1 556:1 642:1 679:1 834:1 854:1 976:1 1001:1 1025:1 1121:1 1164:1 1246:1 1284:1
-1 168:1 175:1 186:1 264:1 268:1 301:1 308:1 323:1 382:1 426:1 556:1 618:1 642:1 691:1 710:1 834:1 854:1 860:1 893:1 940:1 946:1 976:1 1011:1 1019:1 1025:1 1082:1 1121:1 1164:1 1246:1 1272:1 1284:2
-1 137:1 168:1 175:1 263:1 264:1 268:1 323:1 481:1 523:1 556:1 679:1 833:1 834:1 854:1 1121:1 1144:1 1233:1 1242:1 1243:1 1246:1 1276:1 1284:2
-1 137:1 263:1 406:1 469:1 481:1 548:1 550:1 1126:1 1144:1 1228:1 1233:1 1242:1 1243:1 1256:1 1258:1 1259:1 1276:1 1284:2
-1 268:2 449:1 1144:1 1246:2 1276:1 1280:1 1284:3
-1 137:1 263:1 321:1 409:1 421:1 469:1 1144:1 1218:1 1228:1 1233:1 1242:1 1247:1 1261:1 1276:1 1284:1
-1 224:1 342:1 452:1 464:1 520:1 536:1 559:1 605:1 639:1 878:1 1135:1 1144:1 1267:1 1271:1 1276:1 1284:1
-1 137:1 263:1 409:1 469:1 481:1 1144:1 1228:1 1233:1 1242:1 1243:1 1247:1 1276:1 1284:2
-1 263:1 268:2 371:1 482:1 559:1 600:1 639:1 1144:1 1233:1 1245:1 1246:2 1267:1 1271:1 1276:1 1284:2
-1 158:1 1270:1 1284:3
-1 137:1 263:1 482:1 512:1 761:1 1144:1 1233:1 1236:1 1242:1 1245:1 1276:1 1283:1 1284:1
-1 137:1 263:1 321:1 409:1 421:1 458:1 469:1 481:1 482:1 547:1 585:1 859:1 896:1 968:1 971:1 1053:1 1144:1 1216:1 1218:1 1221:1 1228:1 1233:1 1241:1 1242:1 1243:1 1244:1 1245:1 1247:1 1248:1 1250:1 1261:1 1275:1 1276:1 1284:1
-1 158:1 1270:1 1284:3
-1 137:1 263:1 268:1 469:1 481:1 932:1 937:1 1144:1 1158:1 1215:1 1228:1 1233:1 1242:1 1243:1 1246:1 1276:1 1279:1 1284:3
-1 137:1 168:1 175:1 205:1 263:1 268:1 323:1 444:1 469:1 481:1 556:1 598:1 834:1 854:1 888:1 937:1 1019:1 1121:1 1144:1 1215:1 1228:1 1233:1 1242:1 1243:1 1246:1 1276:1 1284:1
-1 168:1 175:1 268:1 556:1 742:1 834:1 854:1 1103:1 1121:1 1246:1 1284:2
-1 168:1 175:1 212:1 236:1 268:1 308:1 323:1 366:1 382:1 556:1 691:1 713:1 781:1 833:1 834:1 854:1 888:1 976:1 1019:1 1052:1 1121:1 1164:1 1246:1 1284:1 1286:2
-1 137:1 168:1 175:1 209:1 212:1 236:1 249:1 254:1 263:1 264:1 268:1 291:1 311:1 321:1 323:1 382:1 482:1 523:1 556:1 618:1 642:1 679:1 691:1 752:1 831:1 833:1 834:1 854:1 884:1 888:1 937:1 950:1 999:1 1019:1 1025:1 1052:1 1068:1 1121:1 1144:1 1164:1 1215:1 1218:1 1223:1 1233:1 1242:1 1245:1 1246:1 1276:1 1284:3
-1 168:1 175:1 236:1 263:1 268:1 323:1 482:1 523:1 556:1 618:1 679:1 831:1 833:1 834:1 854:1 937:1 950:1 976:1 1025:1 1121:1 1144:1 1164:1 1185:1 1215:1 1233:1 1245:1 1246:1 1276:1 1284:2
-1 168:1 175:1 186:1 196:1 259:1 264:1 268:1 382:1 398:1 426:1 556:1 618:1 691:1 834:1 838:1 854:1 888:1 889:1 976:1 1024:1 1055:1 1121:1 1164:1 1246:1 1284:2
-1 268:2 449:1 1144:1 1246:2 1276:1 1280:1 1284:3
-1 137:1 263:1 268:1 321:1 449:1 469:1 859:1 1144:1 1218:1 1228:1 1233:1 1242:1 1246:1 1275:1 1276:1 1280:1 1284:1
-1 191:1 1237:1 1284:1
-1 158:1 1270:1 1284:3
-1 158:1 1270:1 1284:3
-1 137:2 263:2 321:3 421:1 469:2 481:1 482:1 761:1 1144:5 1218:3 1228:2 1233:2 1236:1 1242:2 1243:1 1245:1 1261:1 1276:5 1284:6
-1 168:1 175:1 186:1 240:1 259:1 264:1 268:1 321:1 323:1 382:1 409:1 426:1 453:1 466:1 556:1 558:1 618:1 691:1 834:1 838:1 854:1 884:1 893:1 937:1 976:1 1025:1 1075:1 1121:1 1164:1 1171:1 1215:1 1218:1 1246:1 1247:1 1284:2
-1 263:1 268:1 901:1 1144:1 1233:1 1246:1 1276:1 1284:2
-1 168:1 175:1 264:1 268:1 323:1 556:1 834:1 854:1 1121:1 1246:1 1284:2
-1 137:1 263:1 421:1 469:1 481:1 482:1 761:1 1144:1 1228:1 1233:1 1236:1 1242:1 1243:1 1245:1 1261:1 1276:1 1284:3
-1 263:1 421:1 469:1 481:1 482:1 512:1 1144:1 1228:1 1233:1 1243:1 1245:1 1261:1 1276:1 1283:1 1284:2
-1 268:1 917:1 1144:1 1246:1 1276:1 1284:3
-1 168:1 175:1 263:1 268:1 308:1 321:1 323:1 469:1 556:1 834:1 854:1 937:1 1121:1 1164:1 1215:1 1218:1 1228:1 1233:1 1246:1 1284:1
-1 137:1 168:1 175:1 212:1 263:1 264:1 268:1 321:1 323:1 409:1 421:1 469:1 481:1 482:1 556:1 691:1 717:1 828:1 854:1 937:1 1121:1 1144:1 1215:1 1218:1 1228:1 1233:1 1242:1 1243:1 1245:1 1246:1 1247:1 1261:1 1276:1 1284:2
-1 137:1 168:1 175:1 236:1 268:1 496:1 556:1 834:1 854:1 937:1 1121:1 1144:1 1215:1 1242:1 1246:1 1276:1 1284:1
-1 137:1 263:1 421:1 469:1 481:1 482:1 761:1 1144:1 1228:1 1233:1 1236:1 1242:1 1243:1 1245:1 1261:1 1276:1 1284:3
-1 168:1 284:1 301:1 390:1 458:1 556:1 618:1 732:1 733:1 819:1 899:1 921:1 937:1 941:1 1052:1 1077:1 1121:1 1164:1 1171:1 1208:1 1215:1 1221:1 1284:3 1286:4
-1 263:1 1144:1 1233:1 1276:1 1284:1
-1 137:3 263:2 321:1 421:1 1144:4 1218:1 1233:2 1242:3 1261:1 1276:4 1284:4
-1 191:1 1237:1 1284:1
-1 268:1 1099:1 1246:1 1284:2
-1 268:1 1074:1 1246:1 1284:2
-1 268:1 1099:1 1246:1 1284:2
-1 268:1 1074:1 1246:1 1284:2
-1 268:1 1144:1 1246:1 1276:1 1284:3
-1 137:1 263:1 469:1 481:1 482:1 1144:1 1228:1 1233:1 1242:1 1243:1 1245:1 1276:1 1284:2
-1 191:1 1237:1 1284:1
-1 137:1 263:1 268:1 1144:1 1233:1 1242:1 1246:1 1276:1 1284:3
-1 1144:1 1276:1 1284:2
-1 1144:1 1276:1 1284:3
-1 158:1 1270:1 1284:3
-1 263:1 1144:1 1233:1 1276:1 1284:3 1286:9
-1 263:1 481:1 482:1 896:1 971:1 1144:1 1188:1 1233:1 1243:1 1244:1 1245:1 1248:1 1276:1 1284:2
-1 137:1 211:1 263:1 268:1 321:1 364:1 409:1 421:1 469:1 481:1 482:1 513:1 523:1 937:1 1053:1 1144:1 1185:1 1214:1 1215:1 1218:1 1228:1 1233:1 1242:1 1243:1 1245:1 1246:1 1247:1 1250:1 1261:1 1276:1 1284:2
-1 137:1 189:1 263:1 268:1 321:1 397:1 409:1 421:1 469:1 481:1 482:1 507:1 513:1 699:1 746:1 896:1 937:1 1053:1 1079:1 1131:1 1144:1 1214:1 1215:1 1218:1 1225:1 1228:1 1232:1 1233:1 1242:1 1243:1 1244:1 1245:1 1246:1 1247:1 1250:1 1261:1 1262:1 1276:1 1284:2
-1 268:2 1144:1 1246:2 1276:1 1284:3
-1 137:1 263:1 409:1 458:1 469:1 761:1 790:1 1144:1 1165:1 1221:1 1224:1 1228:1 1233:1 1236:1 1242:1 1247:1 1276:1 1284:2
-1 206:1 263:1 268:1 508:1 710:1 1144:1 1233:1 1246:1 1272:1 1276:1 1284:1
-1 137:1 263:1 268:2 1144:1 1233:1 1242:1 1246:2 1276:1 1284:3
-1 1144:1 1276:1 1284:3
-1 137:1 263:1 268:1 341:1 481:1 482:1 512:1 546:1 1144:1 1233:1 1242:1 1243:1 1245:1 1246:1 1276:1 1283:1 1284:2
-1 263:1 482:1 761:1 1144:1 1233:1 1236:1 1245:1 1276:1 1284:2
-1 137:1 243:1 268:1 321:1 428:1 469:1 691:1 834:1 893:1 1050:1 1144:1 1218:1 1228:1 1242:1 1246:1 1276:1 1284:2
-1 158:1 1270:1 1284:3
-1 137:2 263:2 321:3 421:1 469:1 481:1 482:1 512:1 761:1 1144:5 1218:3 1228:1 1233:2 1236:1 1242:2 1243:1 1245:1 1261:1 1276:5 1283:1 1284:6
-1 137:2 263:2 321:3 421:1 469:1 482:1 761:1 1144:4 1218:3 1228:1 1233:2 1236:1 1242:2 1245:1 1261:1 1276:4 1284:6
-1 268:2 449:1 520:1 1144:1 1246:2 1276:1 1280:1 1284:2
-1 158:1 1270:1 1284:3
-1 137:1 263:1 321:1 409:1 421:1 425:1 469:1 481:1 482:1 512:1 550:1 585:1 761:1 1144:1 1216:1 1218:1 1228:1 1233:1 1236:1 1242:1 1243:1 1245:1 1247:1 1259:1 1261:1 1266:1 1276:1 1283:1 1284:2
-1 263:1 482:1 1144:1 1151:1 1233:1 1245:1 1276:1 1284:1
-1 137:1 254:1 263:1 321:1 345:1 409:1 421:1 469:1 481:1 482:1 512:1 513:1 559:1 585:1 896:1 1053:1 1144:1 1214:1 1216:1 1218:1 1223:1 1228:1 1233:1 1242:1 1243:1 1244:1 1245:1 1247:1 1249:1 1250:1 1261:1 1267:1 1276:1 1283:1 1284:1 1286:973
-1 137:1 254:1 263:1 321:1 345:1 409:1 421:1 469:1 481:1 482:1 512:1 513:1 559:1 585:1 896:1 1053:1 1144:1 1214:1 1216:1 1218:1 1223:1 1228:1 1233:1 1242:1 1243:1 1244:1 1245:1 1247:1 1249:1 1250:1 1261:1 1267:1 1276:1 1283:1 1284:1 1286:973
-1 158:1 1270:1 1284:4
-1 132:1 137:1 216:1 268:1 321:1 409:1 469:1 790:1 828:1 937:1 1144:1 1158:1 1165:1 1215:1 1218:1 1224:1 1228:1 1242:1 1246:1 1247:1 1276:1 1284:1
-1 168:1 175:1 186:1 212:1 263:1 264:1 268:1 292:1 308:1 321:1 323:1 382:1 409:1 421:1 458:1 469:1 481:1 482:1 505:1 556:1 558:1 618:1 699:1 755:1 834:1 843:1 854:1 888:1 896:1 937:1 976:1 999:1 1025:1 1053:1 1085:1 1086:1 1121:1 1144:1 1164:1 1185:1 1215:1 1218:1 1221:1 1228:1 1233:1 1243:1 1244:1 1245:1 1246:1 1247:1 1250:1 1261:1 1262:1 1276:1 1281:1 1284:1
-1 158:1 1270:1 1284:3
-1 1144:1 1276:1 1284:3
-1 137:1 182:1 207:1 937:1 1144:1 1215:1 1242:1 1276:1 1284:1
-1 137:1 263:1 421:1 482:1 761:1 1144:1 1233:1 1236:1 1242:1 1245:1 1261:1 1276:1 1284:2
-1 137:2 263:2 321:1 421:1 1144:2 1218:1 1233:2 1242:2 1261:1 1276:2 1284:7
-1 268:2 1144:1 1246:2 1276:1 1284:4
-1 137:1 263:1 321:1 421:1 469:1 481:1 482:1 761:1 896:1 1144:1 1218:1 1228:1 1233:1 1236:1 1242:1 1243:1 1244:1 1245:1 1261:1 1276:1 1284:5
-1 168:1 175:1 186:1 196:1 212:1 240:1 268:1 301:1 382:1 426:1 556:1 618:1 691:1 731:1 755:1 834:1 854:1 888:1 956:1 976:1 1019:1 1047:1 1121:1 1164:1 1193:1 1246:1 1284:1
-1 134:1 263:1 268:1 421:1 481:1 482:1 1144:1 1233:1 1238:1 1243:1 1245:1 1246:1 1261:1 1276:1 1284:2
-1 137:1 168:1 175:1 205:1 236:1 264:1 268:1 321:1 323:1 556:1 679:1 834:1 854:1 1121:1 1144:1 1218:1 1242:1 1246:1 1276:1 1284:1
-1 137:1 205:1 268:1 321:1 434:1 458:1 469:1 481:1 699:1 789:1 998:1 1126:1 1144:1 1165:1 1218:1 1221:1 1224:1 1228:1 1242:1 1243:1 1246:1 1262:1 1273:1 1276:1 1284:1
-1 168:1 175:1 268:1 556:1 703:1 834:1 854:1 1121:1 1246:1 1284:1
-1 268:2 520:1 1144:1 1246:2 1276:1 1284:2
-1 137:1 263:1 268:1 321:1 421:1 469:1 481:1 1144:1 1218:1 1228:1 1233:1 1242:1 1243:1 1246:1 1261:1 1276:1 1284:3
-1 137:1 263:1 268:1 421:1 1037:1 1144:1 1233:1 1242:1 1246:1 1261:1 1276:1 1284:3
-1 158:1 1270:1 1284:3
-1 158:1 1270:1 1284:3
-1 158:1 1270:1 1284:2
-1 158:1 1270:1 1284:2
-1 481:1 1144:1 1243:1 1276:1 1284:1
-1 189:1 263:1 469:1 481:1 482:1 859:1 1126:1 1144:1 1165:1 1224:1 1228:1 1232:1 1233:1 1243:1 1245:1 1275:1 1276:1 1284:1 1286:2
-1 137:2 263:2 321:2 421:1 482:1 512:1 1004:1 1144:4 1218:2 1233:2 1242:2 1245:1 1261:1 1276:4 1283:1 1284:6
-1 158:1 1270:1 1284:4
-1 158:1 1270:1 1284:2
-1 158:1 1270:1 1284:2
-1 137:1 263:1 421:1 469:1 481:1 482:1 761:1 1144:1 1228:1 1233:1 1236:1 1242:1 1243:1 1245:1 1261:1 1276:1 1284:2
-1 158:1 1270:1 1284:3
-1 137:1 263:1 421:1 481:1 482:1 512:1 1144:1 1233:1 1242:1 1243:1 1245:1 1261:1 1276:1 1283:1 1284:1
-1 1284:1
-1 137:1 268:2 469:1 896:1 971:1 1144:1 1228:1 1242:1 1244:1 1246:2 1248:1 1276:1 1284:3
-1 158:1 1270:1 1284:3
-1 294:1 1144:1 1276:1 1284:2
-1 451:1 1144:1 1276:1 1284:1
-1 268:2 331:1 412:1 519:1 1144:1 1155:1 1246:2 1276:1 1284:2
-1 268:1 1246:1 1284:3
-1 168:1 175:1 186:1 212:1 236:1 268:1 301:1 323:1 368:1 556:1 642:1 679:1 755:1 834:1 854:1 965:1 976:1 1070:1 1121:1 1164:1 1246:1 1284:3
-1 137:1 263:1 321:1 421:1 449:1 482:1 512:1 896:1 1144:1 1218:1 1233:1 1242:1 1244:1 1245:1 1261:1 1276:1 1280:1 1283:1 1284:5
-1 137:1 263:1 421:1 469:1 481:1 482:1 761:1 1144:1 1228:1 1233:1 1236:1 1242:1 1243:1 1245:1 1261:1 1276:1 1284:2
-1 137:1 263:1 321:1 421:1 469:1 481:1 482:1 761:1 896:1 1144:1 1218:1 1228:1 1233:1 1236:1 1242:1 1243:1 1244:1 1245:1 1261:1 1276:1 1284:5
-1 168:1 175:1 236:1 268:1 308:1 323:1 375:1 556:1 713:1 781:1 833:1 834:1 854:1 937:1 1121:1 1215:1 1246:1 1284:1 1286:3
-1 137:1 268:1 324:1 470:1 709:1 790:1 937:1 1001:1 1144:1 1215:1 1242:1 1246:1 1276:1 1284:3
-1 137:1 236:1 268:1 324:1 469:1 679:1 713:1 781:1 833:1 1144:1 1228:1 1242:1 1246:1 1276:1 1284:2
-1 137:1 247:1 268:1 469:1 481:1 1144:1 1228:1 1242:1 1243:1 1246:1 1276:1 1284:1
-1 158:1 1270:1 1284:2
-1 158:1 1270:1 1284:2
-1 268:2 1144:1 1246:2 1276:1 1284:2
-1 268:2 1144:1 1246:2 1276:1 1284:3
-1 263:1 1144:1 1233:1 1276:1 1284:5
-1 158:1 1270:1 1284:3
-1 268:2 1144:1 1246:2 1276:1 1284:2
-1 268:2 1144:1 1246:2 1276:1 1284:2
-1 268:2 1144:1 1246:2 1276:1 1284:2
-1 483:1 896:1 971:1 1144:1 1244:1 1248:1 1276:1 1284:2
-1 137:2 263:2 321:1 421:1 1144:2 1218:1 1233:2 1242:2 1261:1 1276:2 1284:7
-1 191:1 896:1 1237:1 1244:1 1284:1
-1 268:2 1144:1 1246:2 1276:1 1284:2
-1 137:1 263:1 321:1 409:1 421:1 469:1 481:1 482:1 512:1 812:1 896:1 1144:1 1218:1 1228:1 1233:1 1242:1 1243:1 1244:1 1245:1 1247:1 1261:1 1276:1 1283:1 1284:4
-1 263:1 268:1 482:1 512:1 896:1 1144:1 1233:1 1244:1 1245:1 1246:1 1276:1 1283:1 1284:4 1286:112
-1 268:2 1144:1 1246:2 1276:1 1284:2
-1 137:1 263:1 406:1 421:1 469:1 481:1 482:1 512:1 548:1 1144:1 1228:1 1233:1 1242:1 1243:1 1245:1 1256:1 1258:1 1261:1 1276:1 1283:1 1284:1
-1 268:2 1144:1 1246:2 1276:1 1284:2
-1 191:1 1237:1 1284:2
-1 158:1 1270:1 1284:3
-1 158:1 1270:1 1284:2
-1 137:1 263:1 321:1 397:1 409:1 421:1 469:1 481:1 482:1 896:1 1144:1 1218:1 1228:1 1233:1 1242:1 1243:1 1244:1 1245:1 1247:1 1261:1 1276:1 1284:2
-1 268:2 1144:1 1246:2 1276:1 1284:2
-1 268:2 1144:1 1246:2 1276:1 1284:2
-1 268:2 1144:1 1246:2 1276:1 1284:2
-1 268:2 1144:1 1246:2 1276:1 1284:2
-1 137:1 268:1 458:1 469:1 481:1 998:1 1144:1 1221:1 1228:1 1242:1 1243:1 1246:1 1273:1 1276:1 1284:1
-1 137:1 263:1 268:1 409:1 469:1 481:1 696:1 1144:1 1228:1 1233:1 1242:1 1243:1 1246:1 1247:1 1276:1 1284:1
-1 137:1 157:1 268:1 1144:1 1242:1 1246:1 1276:1 1284:2
-1 137:1 263:1 268:1 421:1 937:1 1144:1 1215:1 1233:1 1242:1 1246:1 1261:1 1276:1 1284:2
-1 137:1 263:1 268:1 421:1 481:1 534:1 687:1 696:1 708:1 1053:1 1144:1 1233:1 1242:1 1243:1 1246:1 1250:1 1261:1 1276:1 1284:2 1286:62
-1 137:3 263:2 321:1 421:1 1144:4 1218:1 1233:2 1242:3 1261:1 1276:4 1284:5
-1 137:1 189:1 263:1 268:1 321:1 397:1 409:1 421:1 469:1 481:1 482:1 507:1 513:1 699:1 746:1 896:1 937:1 1053:1 1079:1 1131:1 1144:1 1214:1 1215:1 1218:1 1225:1 1228:1 1232:1 1233:1 1242:1 1243:1 1244:1 1245:1 1246:1 1247:1 1250:1 1261:1 1262:1 1276:1 1284:2
-1 263:1 268:2 1144:1 1233:1 1246:2 1276:1 1284:2
-1 263:1 268:2 1144:1 1233:1 1246:2 1276:1 1284:2
-1 137:1 263:1 268:2 990:1 1144:1 1233:1 1242:1 1246:2 1276:1 1284:4
-1 191:1 1237:1 1284:1
-1 158:1 1270:1 1284:3
-1 137:1 263:1 481:1 1144:1 1233:1 1242:1 1243:1 1276:1 1284:2
-1 134:1 263:1 268:1 421:1 481:1 482:1 876:1 1144:1 1233:1 1238:1 1243:1 1245:1 1246:1 1261:1 1276:1 1284:2
-1 137:1 263:1 421:1 469:1 481:1 482:1 761:1 1144:1 1228:1 1233:1 1236:1 1242:1 1243:1 1245:1 1261:1 1276:1 1284:3
-1 268:2 449:1 1144:1 1246:2 1276:1 1280:1 1284:3
-1 191:1 1237:1 1284:1
-1 191:1 1237:1 1284:1
-1 158:1 1270:1 1284:2
-1 137:1 263:1 268:1 321:1 421:1 469:1 481:1 482:1 513:1 585:1 761:1 937:1 1053:1 1086:1 1144:1 1185:1 1214:1 1215:1 1216:1 1218:1 1228:1 1233:1 1236:1 1242:1 1243:1 1245:1 1246:1 1250:1 1261:1 1276:1 1281:1 1284:1 1286:1
-1 168:1 175:1 212:1 236:1 268:1 556:1 558:1 679:1 834:1 854:1 1121:1 1246:1 1284:3
-1 137:1 263:1 421:1 469:1 481:1 482:1 1144:1 1228:1 1233:1 1242:1 1243:1 1245:1 1261:1 1276:1 1284:3
-1 137:1 263:1 421:1 469:1 481:1 482:1 1144:1 1228:1 1233:1 1242:1 1243:1 1245:1 1261:1 1276:1 1284:2
-1 1284:1
-1 137:1 263:1 268:1 421:1 469:1 481:1 482:1 512:1 1144:1 1228:1 1233:1 1242:1 1243:1 1245:1 1246:1 1261:1 1276:1 1283:1 1284:2
-1 137:1 263:1 421:1 469:1 481:1 482:1 761:1 1144:1 1228:1 1233:1 1236:1 1242:1 1243:1 1245:1 1261:1 1276:1 1284:2
-1 268:2 1144:1 1246:2 1276:1 1284:2
-1 294:1 1144:1 1276:1 1284:2
-1 158:1 1270:1 1284:4
-1 1144:1 1276:1 1284:2
-1 268:2 458:1 533:227 744:1 827:15 1144:1 1168:1 1221:1 1246:2 1276:1 1284:2
-1 268:2 744:1 1144:1 1246:2 1276:1 1284:2
-1 137:1 263:1 421:1 469:1 481:1 482:1 761:1 1144:1 1228:1 1233:1 1236:1 1242:1 1243:1 1245:1 1261:1 1276:1 1284:3
-1 137:1 263:1 421:1 469:1 481:1 482:1 761:1 1144:1 1228:1 1233:1 1236:1 1242:1 1243:1 1245:1 1261:1 1276:1 1284:3
-1 263:1 268:1 409:1 469:1 482:1 618:1 687:1 937:1 950:1 1086:1 1137:1 1144:1 1215:1 1228:1 1233:1 1245:1 1246:1 1247:1 1276:1 1281:1 1284:1
-1 263:1 440:1 469:1 482:1 1144:1 1228:1 1233:1 1245:1 1276:1 1284:1
-1 294:1 1144:1 1276:1 1284:2
-1 137:1 168:1 175:1 212:1 263:1 268:1 323:1 382:1 481:1 556:1 618:1 834:1 854:1 976:1 1121:1 1144:1 1164:1 1233:1 1242:1 1243:1 1246:1 1276:1 1284:4
-1 263:1 321:1 1144:1 1218:1 1233:1 1276:1 1284:4
-1 168:1 175:1 186:1 259:1 268:1 323:1 382:1 426:1 556:1 691:1 755:1 834:1 837:1 854:1 893:1 976:1 1121:1 1246:1 1284:2
-1 275:1 384:1 518:1 1144:1 1276:1 1284:2
-1 158:1 1270:1 1284:5
-1 137:1 263:1 268:1 481:1 512:1 971:1 1144:1 1233:1 1242:1 1243:1 1246:1 1248:1 1276:1 1283:1 1284:4
-1 158:1 1270:1 1284:3
-1 268:1 1144:1 1246:1 1276:1 1284:6
-1 1004:1 1144:1 1276:1 1284:4 1286:3
-1 137:2 263:2 321:1 421:1 1144:2 1218:1 1233:2 1242:2 1261:1 1276:2 1284:7
-1 137:1 263:1 321:1 421:1 469:1 481:1 482:1 512:1 513:1 896:1 1144:1 1214:1 1218:1 1228:1 1233:1 1242:1 1243:1 1244:1 1245:1 1261:1 1276:1 1283:1 1284:2
-1 137:1 263:1 469:1 896:1 1144:1 1228:1 1233:1 1242:1 1244:1 1276:1 1284:2
-1 1144:1 1276:1 1284:1
-1 137:1 263:1 481:1 482:1 1144:1 1233:1 1242:1 1243:1 1245:1 1276:1 1284:2
-1 137:1 263:1 481:1 482:1 1144:1 1233:1 1242:1 1243:1 1245:1 1276:1 1284:2
-1 137:1 263:1 421:1 469:1 481:1 482:1 761:1 1144:1 1228:1 1233:1 1236:1 1242:1 1243:1 1245:1 1261:1 1276:1 1284:3
-1 137:2 263:2 321:3 421:1 469:2 481:1 482:1 512:1 761:1 896:1 1053:1 1144:4 1218:3 1228:2 1233:2 1236:1 1242:2 1243:1 1244:1 1245:1 1250:1 1261:1 1276:4 1283:1 1284:6
-1 168:1 175:1 186:1 196:1 259:1 264:1 268:1 382:1 426:1 556:1 691:1 834:1 854:1 937:1 976:1 1019:1 1121:1 1164:1 1208:1 1215:1 1246:1 1284:2
-1 191:1 1237:1 1284:1
-1 137:1 263:1 482:1 512:1 761:1 1144:1 1233:1 1236:1 1242:1 1245:1 1276:1 1283:1 1284:1
-1 224:1 342:1 452:1 464:1 520:1 536:1 559:1 605:1 639:1 878:1 1135:1 1144:1 1267:1 1271:1 1276:1 1284:2
-1 268:2 452:1 520:1 559:1 639:1 1144:1 1246:2 1267:1 1271:1 1276:1 1284:2
-1 137:1 263:1 268:1 481:1 1144:1 1233:1 1242:1 1243:1 1246:1 1276:1 1284:3
-1 137:2 263:2 321:2 421:1 482:1 761:1 1144:5 1218:2 1233:2 1236:1 1242:2 1245:1 1261:1 1276:5 1284:6
-1 137:2 263:2 321:2 421:1 482:1 512:1 896:1 1144:4 1218:2 1233:2 1242:2 1244:1 1245:1 1261:1 1276:4 1283:1 1284:6
-1 1144:1 1276:1 1284:2
-1 137:1 263:1 421:1 469:1 481:1 482:1 761:1 1144:1 1228:1 1233:1 1236:1 1242:1 1243:1 1245:1 1261:1 1276:1 1284:3
-1 263:1 421:1 1144:1 1233:1 1261:1 1276:1 1284:3
-1 137:1 263:1 421:1 469:1 481:1 482:1 761:1 1144:1 1228:1 1233:1 1236:1 1242:1 1243:1 1245:1 1261:1 1276:1 1284:3
-1 137:1 263:1 421:1 469:1 481:1 482:1 761:1 1144:1 1228:1 1233:1 1236:1 1242:1 1243:1 1245:1 1261:1 1276:1 1284:3
-1 137:2 263:2 321:1 421:1 1144:2 1218:1 1233:2 1242:2 1261:1 1276:2 1284:7
-1 1012:1 1144:1 1276:1 1284:2
-1 137:1 263:1 421:1 469:1 481:1 482:1 761:1 1144:1 1228:1 1233:1 1236:1 1242:1 1243:1 1245:1 1261:1 1276:1 1284:3
-1 137:2 263:2 321:3 421:1 469:1 482:1 512:1 1144:5 1218:3 1228:1 1233:2 1242:2 1245:1 1261:1 1276:5 1283:1 1284:6
-1 137:2 263:2 321:1 421:1 469:1 482:1 512:1 761:1 1144:3 1218:1 1228:1 1233:2 1236:1 1242:2 1245:1 1261:1 1276:3 1283:1 1284:6
-1 158:1 1270:1 1284:3
-1 137:1 263:1 421:1 469:1 481:1 482:1 761:1 1144:1 1228:1 1233:1 1236:1 1242:1 1243:1 1245:1 1261:1 1276:1 1284:3
-1 134:1 263:1 268:1 469:1 481:1 1144:1 1167:1 1226:1 1228:1 1233:1 1238:1 1243:1 1246:1 1276:1 1284:2
-1 189:1 263:1 469:1 481:1 482:1 859:1 1126:1 1144:1 1165:1 1224:1 1228:1 1232:1 1233:1 1243:1 1245:1 1275:1 1276:1 1284:3 1286:2
-1 191:1 1237:1 1284:1
-1 158:1 1270:1 1284:3
-1 158:1 1270:1 1284:3
-1 268:2 1144:1 1246:2 1276:1 1284:2
-1 263:1 409:1 421:1 469:1 481:1 482:1 512:1 1144:1 1228:1 1233:1 1243:1 1245:1 1247:1 1261:1 1276:1 1283:1 1284:2
-1 268:1 1144:1 1246:1 1276:1 1284:2
-1 268:1 896:1 1144:1 1244:1 1246:1 1276:1 1284:2
-1 137:2 263:2 321:3 354:1 421:1 422:1 469:1 481:1 482:1 512:1 552:1 761:1 896:1 1117:1 1144:5 1218:3 1228:1 1233:2 1236:1 1242:2 1243:1 1244:1 1245:1 1261:1 1276:5 1283:1 1284:6
-1 263:1 548:1 1144:1 1233:1 1256:1 1276:1 1284:2
-1 137:1 168:1 175:1 268:1 321:1 458:1 469:1 556:1 790:1 854:1 893:1 948:1 1075:1 1121:1 1144:1 1165:1 1218:1 1221:1 1224:1 1228:1 1242:1 1246:1 1276:1 1284:2
-1 268:2 1144:1 1246:2 1276:1 1284:2
-1 137:1 263:1 421:1 469:1 482:1 512:1 896:1 1144:1 1167:1 1226:1 1228:1 1233:1 1242:1 1244:1 1245:1 1261:1 1276:1 1283:1 1284:2
-1 137:2 263:2 321:1 421:1 1144:2 1218:1 1233:2 1242:2 1261:1 1276:2 1284:7
-1 294:1 1144:1 1276:1 1284:3
-1 158:1 1270:1 1284:4
-1 137:1 263:1 321:1 345:1 397:1 409:1 469:1 481:1 482:1 512:1 761:1 859:1 896:1 971:1 1117:1 1144:1 1218:1 1228:1 1233:1 1236:1 1242:1 1243:1 1244:1 1245:1 1247:1 1248:1 1249:1 1275:1 1276:1 1283:1 1284:1
-1 137:2 263:2 321:1 421:1 1144:2 1218:1 1233:2 1242:2 1261:1 1276:2 1284:7
-1 137:1 263:1 268:2 469:1 481:1 482:1 559:1 896:1 971:1 1144:1 1228:1 1233:1 1242:1 1243:1 1244:1 1245:1 1246:2 1248:1 1267:1 1276:1 1284:3
-1 137:1 263:1 421:1 481:1 482:1 512:1 1144:1 1233:1 1242:1 1243:1 1245:1 1261:1 1276:1 1283:1 1284:2
-1 191:1 1237:1 1284:1
-1 931:1 1144:1 1276:1 1284:2
-1 137:1 168:1 175:1 268:1 458:1 556:1 834:1 854:1 937:1 1121:1 1144:1 1215:1 1221:1 1242:1 1246:1 1276:1 1284:3
-1 137:1 168:1 175:1 236:1 268:1 469:1 556:1 679:1 833:1 834:1 854:1 893:1 937:1 948:1 1121:1 1144:1 1215:1 1228:1 1242:1 1246:1 1276:1 1284:2
-1 137:2 263:2 321:3 421:1 469:1 481:1 482:1 512:1 761:1 1144:4 1218:3 1228:1 1233:2 1236:1 1242:2 1243:1 1245:1 1261:1 1276:4 1283:1 1284:6
-1 263:1 268:2 896:1 918:1 1144:1 1233:1 1244:1 1246:2 1276:1 1284:2
-1 168:1 175:1 186:1 259:1 264:1 268:1 382:1 426:1 556:1 691:1 834:1 854:1 937:1 971:1 976:1 1121:1 1215:1 1246:1 1248:1 1284:2
-1 137:1 263:1 421:1 482:1 761:1 1144:1 1233:1 1236:1 1242:1 1245:1 1261:1 1276:1 1284:3
-1 263:1 268:1 321:1 421:1 469:1 482:1 512:1 513:1 632:1 1144:1 1214:1 1218:1 1228:1 1233:1 1245:1 1246:1 1261:1 1276:1 1283:1 1284:2
-1 263:1 346:1 406:1 481:1 482:1 548:1 585:1 1124:1 1126:1 1144:1 1216:1 1233:1 1243:1 1245:1 1256:1 1258:1 1276:1 1284:2 1286:69
-1 137:1 168:1 175:1 212:1 263:1 268:1 308:1 321:1 409:1 421:1 469:1 481:1 482:1 512:1 556:1 699:1 761:1 790:1 834:1 854:1 859:1 937:1 948:1 976:1 998:1 1025:1 1053:1 1085:1 1121:1 1144:1 1165:1 1215:1 1218:1 1224:1 1228:1 1233:1 1236:1 1242:1 1243:1 1245:1 1246:1 1247:1 1250:1 1261:1 1262:1 1273:1 1275:1 1276:1 1283:1 1284:1
-1 137:1 168:1 175:1 212:1 263:1 268:1 308:1 321:1 409:1 469:1 481:1 482:1 556:1 561:1 699:1 790:1 834:1 854:1 893:1 937:1 948:1 976:1 998:1 1025:1 1053:1 1085:1 1121:1 1144:1 1165:1 1215:1 1218:1 1224:1 1228:1 1233:1 1242:1 1243:1 1245:1 1246:1 1247:1 1250:1 1262:1 1273:1 1276:1 1284:1
-1 158:1 1270:1 1284:2
-1 141:1 268:1 1144:1 1246:1 1276:1 1284:3
-1 137:1 263:1 268:1 321:1 323:1 409:1 481:1 482:1 490:1 687:1 761:1 937:1 1037:1 1144:1 1215:1 1218:1 1233:1 1236:1 1242:1 1243:1 1245:1 1246:1 1247:1 1276:1 1284:2 1286:10
-1 263:1 1094:1 1144:1 1233:1 1276:1 1284:2
-1 137:1 158:1 263:1 321:1 327:1 469:1 1144:1 1218:1 1228:1 1233:1 1242:1 1270:1 1276:1 1284:1
-1 263:1 482:1 1094:1 1144:1 1233:1 1245:1 1276:1 1284:2
-1 168:1 175:1 186:1 212:1 264:1 268:1 301:1 323:1 382:1 426:1 556:1 618:1 691:1 834:1 838:1 854:1 893:1 937:1 966:1 987:1 1121:1 1144:1 1164:1 1215:1 1246:1 1276:1 1284:2
-1 137:1 189:1 263:1 268:1 321:1 394:1 409:1 421:1 458:1 469:1 481:1 490:1 512:1 516:1 523:1 710:1 790:1 937:1 950:1 1086:1 1144:1 1165:1 1215:1 1218:1 1221:1 1222:1 1224:1 1228:1 1232:1 1233:1 1242:1 1243:1 1246:1 1247:1 1261:1 1272:1 1276:1 1281:1 1283:1 1284:1
-1 263:1 1094:1 1144:1 1233:1 1276:1 1284:2
-1 268:1 323:1 1144:1 1246:1 1276:1 1284:2
-1 263:1 421:1 469:1 512:1 1144:1 1228:1 1233:1 1261:1 1276:1 1283:1 1284:3
-1 268:1 858:1 1144:1 1246:1 1276:1 1284:4
-1 263:1 1144:1 1233:1 1276:1 1284:2
-1 154:5 223:21 294:1 978:1 1144:1 1276:1 1284:3
-1 154:5 223:6 294:1 978:1 1144:1 1276:1 1284:3
-1 263:1 268:1 901:1 1144:1 1233:1 1246:1 1276:1 1284:1
-1 116:1 268:1 1144:1 1246:1 1276:1 1284:2
-1 116:1 268:1 1144:1 1246:1 1276:1 1284:2
-1 137:1 263:1 421:1 469:1 481:1 482:1 761:1 1144:1 1228:1 1233:1 1236:1 1242:1 1243:1 1245:1 1261:1 1276:1 1284:2
-1 137:1 263:1 268:1 469:1 937:1 1144:1 1215:1 1228:1 1233:1 1242:1 1246:1 1276:1 1284:3
-1 137:1 263:1 268:1 321:1 409:1 421:1 469:1 481:1 482:1 490:1 505:1 507:1 512:1 687:1 932:1 937:1 1144:1 1215:1 1218:1 1228:1 1233:1 1242:1 1243:1 1245:1 1246:1 1247:1 1261:1 1276:1 1279:1 1283:1 1284:2
-1 137:1 168:1 175:1 268:1 556:1 790:1 834:1 854:1 893:1 937:1 1121:1 1144:1 1165:1 1215:1 1224:1 1242:1 1246:1 1276:1 1284:1
-1 1284:5
-1 1284:1
-1 137:1 168:1 175:1 263:1 264:1 268:1 321:1 323:1 380:1 382:1 409:1 421:1 426:1 481:1 556:1 618:1 691:1 794:1 822:1 831:1 834:1 854:1 884:1 888:1 937:1 1052:1 1121:1 1144:1 1164:1 1165:1 1215:1 1218:1 1224:1 1233:1 1242:1 1243:1 1246:1 1247:1 1261:1 1276:1 1284:1
-1 137:1 189:1 263:1 321:1 409:1 458:1 469:1 481:1 482:1 548:1 761:1 1086:1 1144:1 1218:1 1221:1 1228:1 1232:1 1233:1 1236:1 1242:1 1243:1 1245:1 1247:1 1256:1 1276:1 1281:1 1284:2 1286:1
-1 1284:1
-1 137:1 168:1 175:1 186:1 212:1 236:1 240:1 263:1 268:1 321:1 323:1 380:1 409:1 421:1 426:1 458:1 469:1 481:1 482:1 512:1 556:1 618:1 679:1 687:1 691:1 788:1 833:1 834:1 854:1 888:1 896:1 937:1 1121:1 1144:1 1215:1 1218:1 1221:1 1228:1 1233:1 1242:1 1243:1 1244:1 1245:1 1246:1 1247:1 1261:1 1276:1 1283:1 1284:1
-1 137:2 263:4 321:1 349:1 421:1 469:1 481:3 482:1 512:2 585:4 761:1 1144:3 1216:4 1218:1 1228:1 1233:4 1236:1 1242:2 1243:3 1245:1 1261:1 1276:3 1283:2 1284:6
-1 137:1 263:1 321:1 458:1 469:1 482:1 513:1 548:1 585:1 1144:1 1214:1 1216:1 1218:1 1221:1 1228:1 1233:1 1242:1 1245:1 1256:1 1276:1 1284:1
-1 137:1 263:1 268:1 315:1 321:1 409:1 421:1 458:1 469:1 481:1 482:1 512:1 937:1 971:1 998:1 1075:1 1086:1 1144:1 1165:1 1215:1 1218:1 1221:1 1224:1 1228:1 1233:1 1242:1 1243:1 1245:1 1246:1 1247:1 1248:1 1261:1 1273:1 1276:1 1281:1 1283:1 1284:1
-1 125:1 137:1 168:1 172:1 175:1 212:1 236:1 250:1 321:1 380:1 409:1 458:1 469:1 481:1 491:1 556:1 679:1 699:1 710:1 761:1 790:1 834:1 854:1 885:1 913:1 937:1 952:1 968:1 971:1 998:1 1085:1 1121:1 1144:1 1165:1 1184:1 1215:1 1218:1 1219:1 1221:1 1224:1 1228:1 1236:1 1241:1 1242:1 1243:1 1247:1 1248:1 1260:1 1262:1 1272:1 1273:1 1276:1 1284:1
-1 137:1 263:1 268:1 321:1 409:1 458:1 469:1 481:1 1144:1 1218:1 1221:1 1228:1 1233:1 1242:1 1243:1 1246:1 1247:1 1276:1 1284:2
-1 168:1 175:1 186:1 196:1 212:1 263:1 268:1 321:1 323:1 556:1 618:1 691:1 834:1 838:1 854:1 888:1 1019:1 1025:1 1121:1 1164:1 1218:1 1233:1 1246:1 1284:1
-1 132:1 137:1 189:1 263:1 268:1 321:1 394:1 409:1 421:1 425:1 458:1 469:1 481:1 482:1 512:1 809:1 859:1 896:1 937:1 968:1 971:1 1120:1 1144:1 1165:1 1198:1 1215:1 1218:1 1221:1 1222:1 1224:1 1228:1 1232:1 1233:1 1241:1 1242:1 1243:1 1244:1 1245:1 1246:1 1247:1 1248:1 1257:1 1261:1 1266:1 1275:1 1276:1 1283:1 1284:2
-1 137:1 263:1 1144:1 1233:1 1242:1 1276:1 1284:1
-1 268:2 299:1 365:1 413:1 645:1 1003:1 1144:1 1246:2 1276:1 1284:2
-1 137:1 168:1 175:1 186:1 212:1 263:1 264:1 268:1 321:1 323:1 382:1 426:1 556:1 580:1 618:1 691:1 834:1 838:1 854:1 884:1 893:1 937:1 1047:1 1075:1 1121:1 1143:1 1144:1 1215:1 1218:1 1233:1 1242:1 1246:1 1276:1 1284:2 1286:1
-1 137:1 263:1 421:1 469:1 481:1 482:1 761:1 1144:1 1228:1 1233:1 1236:1 1242:1 1243:1 1245:1 1261:1 1276:1 1284:2
-1 168:1 175:1 186:1 268:1 301:1 382:1 426:1 541:1 556:1 558:1 618:1 689:1 691:1 834:1 838:1 854:1 936:1 937:1 976:1 1025:1 1055:1 1075:1 1121:1 1164:1 1215:1 1246:1 1284:3
-1 138:1 149:1 168:1 175:1 186:1 196:1 254:1 263:1 264:1 268:1 301:1 323:1 482:1 556:1 618:1 834:1 854:1 937:1 940:1 976:1 1019:1 1121:1 1215:1 1223:1 1233:1 1245:1 1246:1 1284:3
-1 137:1 263:1 421:1 469:1 481:1 482:1 761:1 1144:1 1228:1 1233:1 1236:1 1242:1 1243:1 1245:1 1261:1 1276:1 1284:2
-1 548:1 1144:1 1202:1 1256:1 1276:1 1284:2 1286:2
-1 137:1 263:1 512:1 971:1 1144:1 1233:1 1242:1 1248:1 1276:1 1283:1 1284:2
-1 137:1 263:1 421:1 469:1 481:1 482:1 1144:1 1228:1 1233:1 1242:1 1243:1 1245:1 1261:1 1276:1 1284:2
-1 158:1 1270:1 1284:3
-1 180:1 1144:1 1276:1 1284:2
-1 268:2 452:1 520:1 559:1 639:1 957:1 1144:1 1246:2 1267:1 1271:1 1276:1 1284:2
-1 137:2 263:2 321:1 421:1 469:1 481:2 482:1 896:1 1144:3 1218:1 1228:1 1233:2 1242:2 1243:2 1244:1 1245:1 1261:1 1276:3 1284:6
-1 137:1 263:1 268:2 321:1 421:1 469:1 481:1 482:1 512:1 1144:1 1218:1 1228:1 1233:1 1242:1 1243:1 1245:1 1246:2 1261:1 1276:1 1283:1 1284:2
-1 137:1 263:1 421:1 469:1 481:1 482:1 761:1 1144:1 1228:1 1233:1 1236:1 1242:1 1243:1 1245:1 1261:1 1276:1 1284:3
-1 137:1 263:1 268:1 481:1 1144:1 1233:1 1242:1 1243:1 1246:1 1276:1 1284:4
-1 137:1 263:1 294:2 421:1 469:1 481:1 482:1 512:1 779:1 896:1 958:1 1144:1 1168:1 1228:1 1233:1 1242:1 1243:1 1244:1 1245:1 1261:1 1276:1 1283:1 1284:2
-1 149:1 168:1 175:1 186:1 205:1 212:1 240:1 268:1 301:1 321:1 323:1 382:1 426:1 556:1 618:1 642:1 757:1 828:1 834:1 838:1 854:1 888:1 937:1 940:1 976:1 998:1 1019:1 1033:1 1121:1 1156:1 1164:1 1171:1 1193:1 1215:1 1218:1 1246:1 1273:1 1284:2
-1 149:1 168:1 175:1 186:1 205:1 212:1 236:1 240:1 264:1 268:1 301:1 323:1 382:1 426:1 556:1 618:1 679:1 757:1 828:1 834:1 854:1 888:1 940:1 976:1 1019:1 1033:1 1121:1 1164:1 1193:1 1246:1 1284:3
-1 1144:1 1276:1 1284:1
-1 268:2 1144:1 1246:2 1276:1 1284:2
-1 137:2 263:2 321:1 421:1 1144:2 1218:1 1233:2 1242:2 1261:1 1276:2 1284:7
-1 134:1 137:1 263:1 268:1 421:1 481:1 482:1 896:1 1144:1 1233:1 1238:1 1242:1 1243:1 1244:1 1245:1 1246:1 1261:1 1276:1 1284:2
-1 137:1 937:1 1144:1 1215:1 1242:1 1276:1 1284:1
-1 134:1 263:1 268:1 469:1 896:1 1144:1 1228:1 1233:1 1238:1 1244:1 1246:1 1276:1 1284:2
-1 263:1 321:1 421:1 469:1 481:1 482:1 512:1 761:1 971:1 1144:1 1218:1 1228:1 1233:1 1236:1 1243:1 1245:1 1248:1 1261:1 1276:1 1283:1 1284:5
-1 263:1 268:1 321:1 448:1 469:1 481:1 543:1 593:1 693:1 695:1 1108:1 1144:1 1218:1 1228:1 1233:1 1243:1 1246:1 1251:1 1276:1 1284:2
-1 137:1 263:1 421:1 482:1 1144:1 1233:1 1242:1 1245:1 1261:1 1276:1 1284:2
-1 158:1 1270:1 1284:3
-1 137:1 449:1 1144:1 1242:1 1276:1 1280:1 1284:1
-1 137:1 263:1 268:2 481:1 1144:1 1233:1 1242:1 1243:1 1246:2 1276:1 1284:4 1286:7
-1 224:1 263:1 520:1 548:1 896:1 971:1 1144:1 1233:1 1244:1 1248:1 1256:1 1276:1 1284:1 1286:771
-1 134:1 137:1 263:1 268:1 298:1 421:1 449:1 481:1 482:1 795:1 876:1 996:1 1144:1 1233:1 1238:1 1242:1 1243:1 1245:1 1246:1 1261:1 1276:1 1280:1 1284:4
-1 137:2 263:2 321:1 421:1 1144:2 1218:1 1233:2 1242:2 1261:1 1276:2 1284:7
-1 137:1 263:1 449:1 1144:1 1233:1 1242:1 1276:1 1280:1 1284:1
-1 137:1 263:1 449:1 1144:1 1233:1 1242:1 1276:1 1280:1 1284:3
-1 137:1 449:1 1144:1 1242:1 1276:1 1280:1 1284:1
-1 137:1 449:1 1144:1 1242:1 1276:1 1280:1 1284:1
-1 137:1 449:1 1144:1 1242:1 1276:1 1280:1 1284:1
-1 137:1 254:1 263:1 321:1 409:1 421:1 469:1 481:1 482:1 512:1 513:1 585:1 761:1 896:1 1053:1 1144:1 1214:1 1216:1 1218:1 1223:1 1228:1 1233:1 1236:1 1242:1 1243:1 1244:1 1245:1 1247:1 1250:1 1261:1 1276:1 1283:1 1284:1
-1 137:1 263:1 421:1 469:1 481:1 482:1 761:1 1144:1 1228:1 1233:1 1236:1 1242:1 1243:1 1245:1 1261:1 1276:1 1284:2
-1 263:1 268:2 421:1 481:1 482:1 512:1 896:1 1144:1 1233:1 1243:1 1244:1 1245:1 1246:2 1261:1 1276:1 1283:1 1284:3
-1 137:1 263:1 321:1 469:1 548:1 1144:1 1218:1 1228:1 1233:1 1242:1 1256:1 1276:1 1284:1
-1 133:1 137:1 263:1 421:1 469:1 481:1 482:1 512:1 564:1 795:1 896:1 988:1 996:1 1078:1 1144:1 1228:1 1233:1 1234:1 1242:1 1243:1 1244:1 1245:1 1261:1 1274:1 1276:1 1283:1 1284:2 1286:2
-1 158:1 1270:1 1284:3
-1 263:1 268:1 421:1 482:1 937:1 941:1 1053:1 1144:1 1215:1 1233:1 1245:1 1246:1 1250:1 1261:1 1276:1 1284:1
-1 125:1 137:1 211:1 250:1 263:1 321:1 323:1 409:1 481:1 482:1 513:1 523:1 896:1 913:1 937:1 1144:1 1214:1 1215:1 1218:1 1219:1 1233:1 1242:1 1243:1 1244:1 1245:1 1247:1 1260:1 1276:1 1284:2
-1 263:1 421:1 481:1 482:1 1144:1 1233:1 1243:1 1245:1 1261:1 1276:1 1284:3
-1 268:1 302:1 331:1 412:1 465:1 519:1 872:1 1144:1 1246:1 1276:1 1284:4
-1 137:1 263:1 268:1 1144:1 1233:1 1242:1 1246:1 1276:1 1284:5
-1 137:1 263:1 268:1 937:1 968:1 971:1 1144:1 1188:1 1215:1 1233:1 1241:1 1242:1 1246:1 1248:1 1276:1 1284:2
-1 158:1 1270:1 1284:3
-1 137:1 268:1 481:1 937:1 1144:1 1215:1 1242:1 1243:1 1246:1 1276:1 1284:2
-1 174:1 238:1 268:2 412:1 519:1 872:1 923:1 1144:1 1246:2 1276:1 1284:3
-1 137:1 263:1 268:1 481:1 1144:1 1233:1 1242:1 1243:1 1246:1 1276:1 1284:3
-1 263:1 321:1 481:1 1144:1 1218:1 1233:1 1243:1 1276:1 1284:2
-1 137:1 263:1 321:1 407:1 409:1 469:1 481:1 896:1 932:1 992:1 1144:1 1218:1 1228:1 1233:1 1242:1 1243:1 1244:1 1247:1 1276:1 1279:1 1284:1
-1 137:1 263:1 321:1 362:1 407:1 409:1 421:1 458:1 469:1 481:1 482:1 503:1 761:1 968:1 971:1 992:1 1053:1 1144:1 1218:1 1221:1 1228:1 1233:1 1236:1 1241:1 1242:1 1243:1 1245:1 1247:1 1248:1 1250:1 1261:1 1276:1 1284:1 1286:20
-1 137:1 263:1 407:1 469:1 992:1 1144:1 1228:1 1233:1 1242:1 1276:1 1284:1
-1 263:1 321:1 362:1 407:1 421:1 469:1 481:1 992:1 1144:1 1218:1 1228:1 1233:1 1243:1 1261:1 1276:1 1284:2
-1 137:1 263:1 321:1 407:1 409:1 421:1 469:1 481:1 482:1 761:1 859:1 971:1 992:1 1053:1 1144:1 1179:1 1218:1 1228:1 1233:1 1236:1 1242:1 1243:1 1245:1 1247:1 1248:1 1250:1 1261:1 1275:1 1276:1 1284:1 1286:326
-1 137:1 263:1 321:1 337:1 407:1 421:1 469:1 481:1 482:1 501:1 505:1 667:1 922:1 992:1 1048:1 1053:1 1144:1 1146:1 1160:1 1170:1 1218:1 1228:1 1233:1 1242:1 1243:1 1245:1 1250:1 1261:1 1276:1 1284:1
-1 158:1 1270:1 1284:3
-1 158:1 1270:1 1284:3
-1 168:1 175:1 182:1 186:1 207:1 229:1 240:1 259:1 264:1 268:1 301:1 305:1 307:1 382:1 426:1 466:1 479:1 525:1 556:1 618:1 642:1 691:1 742:1 834:1 838:1 854:1 860:1 887:1 912:1 937:1 976:1 1115:1 1119:1 1121:1 1157:1 1215:1 1246:1 1284:1
-1 134:1 263:1 268:1 421:1 422:1 425:1 971:1 1144:1 1233:1 1238:1 1246:1 1248:1 1261:1 1266:1 1276:1 1284:2
-1 137:1 268:1 937:1 968:1 1144:1 1215:1 1241:1 1242:1 1246:1 1276:1 1284:2
-1 137:1 268:1 469:1 932:1 1144:1 1228:1 1242:1 1246:1 1276:1 1279:1 1284:2
-1 168:1 175:1 268:1 323:1 458:1 556:1 834:1 854:1 888:1 937:1 1121:1 1144:1 1215:1 1221:1 1246:1 1276:1 1284:1
-1 137:2 263:2 321:1 421:1 449:1 469:1 482:1 1144:3 1218:1 1228:1 1233:2 1242:2 1245:1 1261:1 1276:3 1280:1 1284:6
-1 168:1 175:1 268:1 321:1 323:1 458:1 556:1 755:1 757:1 834:1 838:1 854:1 937:1 976:1 1052:1 1121:1 1164:1 1194:1 1215:1 1218:1 1221:1 1246:1 1284:1
-1 168:1 175:1 182:1 186:1 207:1 229:1 259:1 264:1 268:1 301:1 382:1 422:1 426:1 466:1 556:1 618:1 642:1 691:1 834:1 854:1 937:1 968:1 976:1 1055:1 1119:1 1121:1 1164:1 1215:1 1241:1 1246:1 1284:2
-1 168:1 175:1 268:1 301:1 556:1 834:1 854:1 1121:1 1246:1 1284:3
-1 168:1 175:1 186:1 268:1 426:1 556:1 618:1 653:1 691:1 834:1 854:1 887:1 937:1 968:1 976:1 1046:1 1103:1 1121:1 1215:1 1231:1 1241:1 1246:1 1284:2
-1 137:2 263:2 321:1 421:1 1144:2 1218:1 1233:2 1242:2 1261:1 1276:2 1284:7
-1 168:1 175:1 263:1 268:1 409:1 482:1 556:1 818:1 834:1 854:1 1121:1 1144:1 1233:1 1245:1 1246:1 1247:1 1276:1 1284:2
-1 137:1 268:1 481:1 953:1 1144:1 1242:1 1243:1 1246:1 1276:1 1284:3
-1 168:1 175:1 186:1 196:1 259:1 264:1 268:1 301:1 321:1 323:1 382:1 426:1 466:1 556:1 618:1 691:1 834:1 838:1 854:1 937:1 976:1 1121:1 1164:1 1215:1 1218:1 1246:1 1284:3 1286:23
-1 168:1 175:1 186:1 259:1 264:1 268:1 298:1 382:1 426:1 556:1 653:1 691:1 834:1 838:1 854:1 966:1 968:1 971:1 976:1 1121:1 1164:1 1241:1 1246:1 1248:1 1284:2
-1 137:1 263:1 421:1 481:1 482:1 512:1 1144:1 1233:1 1242:1 1243:1 1245:1 1261:1 1276:1 1283:1 1284:2
-1 158:1 1270:1 1284:4
-1 168:1 175:1 186:1 263:1 268:1 323:1 481:1 556:1 558:1 834:1 838:1 854:1 937:1 976:1 1121:1 1144:1 1164:1 1215:1 1233:1 1243:1 1246:1 1276:1 1284:2
-1 158:1 1270:1 1284:3
-1 1144:1 1276:1 1284:3
-1 133:1 137:1 263:1 321:1 409:1 421:1 469:1 481:1 482:1 512:1 971:1 1144:1 1218:1 1228:1 1233:1 1234:1 1242:1 1243:1 1245:1 1247:1 1248:1 1261:1 1276:1 1283:1 1284:3
-1 158:1 1270:1 1284:2
-1 268:2 971:1 1144:1 1246:2 1248:1 1276:1 1284:2
-1 268:2 971:1 1144:1 1246:2 1248:1 1276:1 1284:2
-1 137:1 263:1 971:1 1144:1 1233:1 1242:1 1248:1 1276:1 1284:2
-1 158:1 1270:1 1284:3
-1 167:1 200:1 638:1 913:1 937:1 951:1 1123:1 1144:1 1215:1 1252:1 1260:1 1269:1 1276:1 1277:1 1284:4
-1 263:1 482:1 1144:1 1233:1 1245:1 1276:1 1284:3
-1 263:1 1144:1 1233:1 1276:1 1284:1
-1 137:1 168:1 175:1 212:1 263:1 268:1 321:1 426:1 469:1 556:1 558:1 618:1 742:1 790:1 801:1 834:1 854:1 893:1 948:1 976:1 1025:1 1121:1 1144:1 1164:1 1165:1 1218:1 1224:1 1228:1 1233:1 1242:1 1246:1 1276:1 1284:1 1286:9
-1 137:1 207:1 263:1 268:1 458:1 555:1 937:1 971:1 1144:1 1157:1 1215:1 1221:1 1233:1 1242:1 1246:1 1248:1 1276:1 1284:1
-1 137:1 263:1 321:1 362:1 407:1 409:1 421:1 469:1 481:1 482:1 503:1 761:1 992:1 1144:1 1218:1 1228:1 1233:1 1236:1 1242:1 1243:1 1245:1 1247:1 1261:1 1276:1 1284:1
-1 137:1 263:1 321:1 404:1 421:1 422:1 469:1 481:1 482:1 512:1 761:1 896:1 1144:1 1218:1 1228:1 1233:1 1236:1 1242:1 1243:1 1244:1 1245:1 1261:1 1276:1 1283:1 1284:5
-1 226:1 263:1 373:1 486:1 736:1 896:1 1101:1 1144:1 1233:1 1244:1 1276:1 1284:2
-1 137:1 263:1 421:1 469:1 481:1 482:1 761:1 1144:1 1228:1 1233:1 1236:1 1242:1 1243:1 1245:1 1261:1 1276:1 1284:3
-1 137:1 156:1 246:1 263:1 350:1 367:1 481:1 661:1 712:1 836:1 1076:1 1129:1 1144:1 1204:1 1233:1 1242:1 1243:1 1276:1 1284:4
-1 137:1 263:1 268:1 321:1 409:1 421:1 469:1 481:1 482:1 512:1 761:1 937:1 1144:1 1215:1 1218:1 1228:1 1233:1 1236:1 1242:1 1243:1 1245:1 1246:1 1247:1 1261:1 1276:1 1283:1 1284:3
-1 137:1 263:1 409:1 421:1 469:1 481:1 482:1 512:1 550:1 790:1 832:1 1144:1 1165:1 1224:1 1228:1 1233:1 1242:1 1243:1 1245:1 1247:1 1255:1 1259:1 1261:1 1276:1 1283:1 1284:1
-1 137:1 168:1 175:1 212:1 213:1 236:1 263:1 268:1 321:1 323:1 380:1 409:1 421:1 481:1 482:1 512:1 556:1 679:1 691:1 788:1 833:1 834:1 854:1 937:1 976:1 1121:1 1144:1 1215:1 1218:1 1233:1 1242:1 1243:1 1245:1 1246:1 1247:1 1261:1 1263:1 1276:1 1283:1 1284:2
-1 137:1 263:1 482:1 512:1 761:1 1144:1 1233:1 1236:1 1242:1 1245:1 1276:1 1283:1 1284:2
-1 137:1 263:1 409:1 421:1 481:1 482:1 512:1 1144:1 1233:1 1242:1 1243:1 1245:1 1247:1 1261:1 1276:1 1283:1 1284:2
-1 137:2 263:2 321:2 421:1 482:1 626:1 761:1 1144:4 1218:2 1233:2 1236:1 1242:2 1245:1 1261:1 1276:4 1284:6
-1 137:1 263:1 421:1 469:1 481:1 482:1 1144:1 1228:1 1233:1 1242:1 1243:1 1245:1 1261:1 1276:1 1284:2
-1 268:1 1051:1 1144:1 1246:1 1276:1 1284:3
-1 137:1 263:1 421:1 469:1 481:1 482:1 761:1 1144:1 1228:1 1233:1 1236:1 1242:1 1243:1 1245:1 1261:1 1276:1 1284:2
-1 168:1 175:1 186:1 264:1 268:1 301:1 382:1 556:1 618:1 642:1 834:1 854:1 885:1 937:1 971:1 976:1 1121:1 1188:1 1215:1 1246:1 1248:1 1284:3
-1 158:1 1270:1 1284:3
-1 191:1 1237:1 1284:1
-1 263:1 268:1 482:1 1144:1 1233:1 1245:1 1246:1 1276:1 1284:2
-1 158:1 1270:1 1284:3
-1 158:1 1270:1 1284:3
-1 158:1 1270:1 1284:3
-1 158:1 1270:1 1284:3
-1 158:1 1270:1 1284:3
-1 158:1 1270:1 1284:3
-1 158:1 1270:1 1284:3
-1 268:2 995:1 1144:1 1246:2 1276:1 1284:2
-1 137:1 263:1 409:1 421:1 1126:1 1144:1 1233:1 1242:1 1247:1 1261:1 1276:1 1284:1
-1 263:1 268:1 1144:1 1233:1 1246:1 1276:1 1284:5
-1 158:1 1270:1 1284:3
-1 137:1 263:1 268:1 321:1 421:1 449:1 469:1 481:1 482:1 512:1 971:1 1144:1 1218:1 1228:1 1233:1 1242:1 1243:1 1245:1 1246:1 1248:1 1261:1 1276:1 1280:1 1283:1 1284:4
-1 263:1 268:1 1144:1 1233:1 1246:1 1276:1 1284:3
-1 137:1 263:1 268:1 1144:1 1233:1 1242:1 1246:1 1276:1 1284:2
-1 137:1 189:1 469:1 481:1 550:1 761:1 1126:1 1144:1 1228:1 1232:1 1236:1 1242:1 1243:1 1259:1 1276:1 1284:1
-1 167:1 200:1 638:1 913:1 951:1 1123:1 1144:1 1252:1 1260:1 1269:1 1276:1 1277:1 1284:2
-1 158:1 1270:1 1284:4
-1 158:1 1270:1 1284:2
-1 1144:1 1276:1 1284:4
-1 1144:1 1276:1 1284:2
-1 263:1 564:1 765:1 896:1 988:1 1078:1 1144:1 1233:1 1244:1 1274:1 1276:1 1284:2
-1 1284:1
-1 137:1 167:1 173:1 200:1 250:1 469:1 474:1 638:1 722:1 882:1 913:1 951:1 1123:1 1144:1 1219:1 1228:1 1235:1 1242:1 1252:1 1260:1 1269:1 1276:1 1277:1 1282:1 1284:3
-1 123:1 168:1 175:1 186:1 205:1 212:1 240:1 264:1 268:1 301:1 311:1 321:1 323:1 382:1 426:1 434:1 556:1 558:1 618:1 789:1 834:1 854:1 888:1 937:1 966:1 974:1 976:1 997:1 1019:1 1050:1 1052:1 1121:1 1127:1 1140:1 1156:1 1164:1 1165:1 1171:1 1215:1 1218:1 1224:1 1246:1 1284:2
-1 123:1 149:1 168:1 175:1 212:1 240:1 264:1 268:1 323:1 382:1 556:1 618:1 789:1 806:1 834:1 854:1 888:1 976:1 1019:1 1121:1 1164:1 1246:1 1284:1
-1 137:1 263:1 421:1 481:1 482:1 512:1 761:1 896:1 1144:1 1233:1 1236:1 1242:1 1243:1 1244:1 1245:1 1261:1 1276:1 1283:1 1284:2
-1 137:1 263:1 421:1 481:1 482:1 512:1 761:1 896:1 1144:1 1233:1 1236:1 1242:1 1243:1 1244:1 1245:1 1261:1 1276:1 1283:1 1284:2
-1 328:1 568:1 902:1 1284:2
-1 328:1 568:1 902:1 1284:2
-1 137:1 321:1 409:1 469:1 481:1 859:1 1144:1 1218:1 1228:1 1242:1 1243:1 1247:1 1275:1 1276:1 1284:2
-1 137:1 189:1 263:1 321:1 394:1 409:1 421:1 469:1 481:1 482:1 516:1 710:1 761:1 790:1 937:1 971:1 1053:1 1144:1 1165:1 1215:1 1218:1 1222:1 1224:1 1228:1 1232:1 1233:1 1236:1 1242:1 1243:1 1245:1 1247:1 1248:1 1250:1 1261:1 1272:1 1276:1 1284:2
-1 137:1 263:1 409:1 469:1 482:1 548:1 725:1 1144:1 1228:1 1233:1 1242:1 1245:1 1247:1 1256:1 1276:1 1284:1
-1 263:1 548:1 1144:1 1233:1 1256:1 1276:1 1284:1
-1 137:2 263:2 321:1 421:1 1144:2 1218:1 1233:2 1242:2 1261:1 1276:2 1284:7
-1 168:1 175:1 186:1 264:1 268:1 321:1 323:1 426:1 524:1 556:1 558:1 618:1 691:1 698:1 755:1 834:1 854:1 888:1 912:1 937:1 940:1 976:1 1000:1 1019:1 1121:1 1164:1 1215:1 1218:1 1246:1 1284:2
-1 137:1 268:1 409:1 469:1 481:1 790:1 1144:1 1165:1 1224:1 1228:1 1242:1 1243:1 1246:1 1247:1 1276:1 1284:2
-1 268:1 1144:1 1246:1 1276:1 1284:6
-1 156:1 268:1 304:1 363:1 481:1 648:1 712:1 821:1 836:1 1144:1 1243:1 1246:1 1276:1 1284:5 1286:150
-1 174:1 268:1 648:1 1144:1 1246:1 1276:1 1284:6
-1 268:1 493:1 1144:1 1246:1 1276:1 1284:6
-1 156:1 268:1 304:1 363:1 367:1 493:1 648:1 712:1 821:1 836:1 1144:1 1246:1 1276:1 1284:5 1286:52
-1 137:1 263:1 421:1 469:1 481:1 482:1 761:1 1144:1 1228:1 1233:1 1236:1 1242:1 1243:1 1245:1 1261:1 1276:1 1284:3
-1 268:2 449:1 1144:1 1246:2 1276:1 1280:1 1284:3
-1 224:1 342:1 386:1 452:1 464:1 520:1 536:1 559:1 605:1 633:1 639:1 865:1 878:1 1135:1 1144:1 1267:1 1271:1 1276:1 1284:1
-1 201:1 268:2 488:1 557:1 559:1 639:1 784:1 836:1 840:1 866:2 954:1 960:1 1072:1 1128:1 1144:1 1246:2 1267:1 1271:1 1276:1 1284:2
-1 137:1 263:1 421:1 469:1 481:1 482:1 761:1 1144:1 1228:1 1233:1 1236:1 1242:1 1243:1 1245:1 1261:1 1276:1 1284:3
-1 137:1 207:1 229:1 263:1 268:1 409:1 422:1 429:1 761:1 937:1 971:1 1075:1 1144:1 1215:1 1233:1 1236:1 1242:1 1246:1 1247:1 1248:1 1276:1 1284:2
-1 263:1 268:1 342:1 482:1 600:1 686:1 896:1 1002:1 1144:1 1233:1 1244:1 1245:1 1246:1 1276:1 1284:2
-1 137:1 263:2 321:2 520:1 559:1 1144:4 1218:2 1233:2 1242:1 1267:1 1276:4 1284:5
-1 137:2 263:2 321:1 421:1 469:1 482:1 559:2 1144:3 1218:1 1228:1 1233:2 1242:2 1245:1 1261:1 1267:2 1276:3 1284:6
-1 158:1 1270:1 1284:4
-1 158:1 1270:1 1284:3
-1 224:1 232:1 268:2 355:1 520:1 1144:1 1246:2 1276:1 1284:2
-1 268:2 331:1 412:1 519:1 1144:1 1155:1 1246:2 1276:1 1284:3
-1 137:2 263:2 321:2 421:1 422:1 482:1 512:1 761:1 896:1 1144:4 1218:2 1233:2 1236:1 1242:2 1244:1 1245:1 1261:1 1276:4 1283:1 1284:6
-1 813:1 1284:1
-1 268:1 344:1 449:1 659:1 1144:1 1246:1 1276:1 1280:1 1284:3
-1 137:1 263:1 321:1 421:1 469:1 481:1 482:1 512:1 761:1 896:1 1144:1 1218:1 1228:1 1233:1 1236:1 1242:1 1243:1 1244:1 1245:1 1261:1 1276:1 1283:1 1284:5
-1 158:1 1270:1 1284:3
-1 137:1 263:1 421:1 469:1 481:1 482:1 761:1 1144:1 1228:1 1233:1 1236:1 1242:1 1243:1 1245:1 1261:1 1276:1 1284:3
-1 137:2 263:2 321:1 421:1 1144:2 1218:1 1233:2 1242:2 1261:1 1276:2 1284:7
-1 168:1 175:1 263:1 264:1 268:1 323:1 409:1 421:1 481:1 556:1 752:1 834:1 854:1 1121:1 1144:1 1233:1 1243:1 1246:1 1247:1 1261:1 1276:1 1284:4
-1 263:1 268:1 321:1 469:1 481:1 482:1 1144:1 1218:1 1228:1 1233:1 1243:1 1245:1 1246:1 1276:1 1284:1
-1 615:1 1144:1 1276:1 1284:2
-1 168:1 175:1 263:1 268:1 323:1 409:1 469:1 482:1 556:1 834:1 854:1 1121:1 1144:1 1228:1 1233:1 1245:1 1246:1 1247:1 1276:1 1284:3
-1 158:1 1270:1 1284:4
-1 605:1 1144:1 1195:1 1276:1 1284:2
-1 137:2 263:2 321:3 421:1 469:1 481:2 482:1 761:1 896:1 1144:5 1218:3 1228:1 1233:2 1236:1 1242:2 1243:2 1244:1 1245:1 1261:1 1276:5 1284:6
-1 137:1 263:1 268:1 481:1 1144:1 1233:1 1242:1 1243:1 1246:1 1276:1 1284:3 1286:1
-1 263:1 971:1 1144:1 1233:1 1248:1 1276:1 1284:4
-1 158:1 1270:1 1284:3
-1 137:1 263:1 268:2 421:1 449:1 469:1 481:1 482:1 512:1 1144:1 1228:1 1233:1 1242:1 1243:1 1245:1 1246:2 1261:1 1276:1 1280:1 1283:1 1284:2
-1 137:1 263:1 421:1 469:1 481:1 482:1 761:1 1144:1 1228:1 1233:1 1236:1 1242:1 1243:1 1245:1 1261:1 1276:1 1284:3
-1 137:1 194:1 231:1 263:1 268:1 321:1 469:1 481:1 482:1 513:1 523:1 896:1 937:1 950:1 1053:1 1144:1 1185:1 1214:1 1215:1 1218:1 1228:1 1233:1 1242:1 1243:1 1244:1 1245:1 1246:1 1250:1 1276:1 1284:1
-1 158:1 1270:1 1284:2
-1 137:1 263:1 421:1 469:1 481:1 482:1 761:1 1144:1 1228:1 1233:1 1236:1 1242:1 1243:1 1245:1 1261:1 1276:1 1284:3
-1 263:1 268:1 758:1 1144:1 1233:1 1246:1 1276:1 1284:2
-1 263:1 482:1 761:1 896:1 1144:1 1233:1 1236:1 1244:1 1245:1 1276:1 1284:2
-1 568:1 902:1 1284:2
-1 1284:1
-1 158:1 1270:1 1284:4
-1 137:1 254:1 263:1 406:1 469:1 482:1 548:1 761:1 1126:1 1144:1 1223:1 1228:1 1233:1 1236:1 1242:1 1245:1 1256:1 1258:1 1276:1 1284:3 1286:123
-1 137:1 263:1 321:1 406:1 469:1 481:1 548:1 690:1 847:1 971:1 1134:1 1144:1 1165:1 1166:1 1174:1 1218:1 1224:1 1228:1 1233:1 1242:1 1243:1 1248:1 1256:1 1258:1 1276:1 1284:1 1286:2
-1 158:1 1270:1 1284:2
-1 1144:1 1276:1 1284:2
-1 137:2 263:2 321:3 421:1 469:1 481:2 482:1 512:1 761:1 1144:4 1218:3 1228:1 1233:2 1236:1 1242:2 1243:2 1245:1 1261:1 1276:4 1283:1 1284:6
-1 137:1 190:1 263:1 268:1 409:1 458:1 481:1 482:1 937:1 1144:1 1187:1 1215:1 1221:1 1233:1 1242:1 1243:1 1245:1 1246:1 1247:1 1276:1 1284:1
-1 137:1 263:1 321:1 345:1 409:1 421:1 469:1 481:1 482:1 512:1 761:1 971:1 1117:1 1144:1 1218:1 1228:1 1233:1 1236:1 1242:1 1243:1 1245:1 1247:1 1248:1 1249:1 1261:1 1276:1 1283:1 1284:4
-1 137:1 168:1 175:1 268:1 469:1 556:1 834:1 854:1 1121:1 1144:1 1193:1 1228:1 1242:1 1246:1 1276:1 1284:1
-1 137:1 263:1 268:1 507:1 790:1 1144:1 1158:1 1165:1 1224:1 1233:1 1242:1 1246:1 1276:1 1284:1
-1 137:1 263:1 321:1 421:1 469:1 481:1 482:1 512:1 761:1 1144:1 1218:1 1228:1 1233:1 1236:1 1242:1 1243:1 1245:1 1261:1 1276:1 1283:1 1284:5
-1 137:1 263:2 321:2 1144:4 1218:2 1233:2 1242:1 1276:4 1284:6
-1 137:2 263:2 321:1 421:1 1144:2 1218:1 1233:2 1242:2 1261:1 1276:2 1284:7
-1 137:1 263:1 481:1 482:1 512:1 1144:1 1233:1 1242:1 1243:1 1245:1 1276:1 1283:1 1284:2
-1 137:1 263:1 421:1 481:1 482:1 512:1 1144:1 1233:1 1242:1 1243:1 1245:1 1261:1 1276:1 1283:1 1284:1
-1 158:1 1270:1 1284:3
-1 263:1 321:1 481:1 1144:1 1218:1 1233:1 1243:1 1276:1 1284:1
-1 156:1 268:1 367:1 369:1 836:1 1144:1 1246:1 1276:1 1284:3
-1 137:1 263:1 268:2 1089:1 1144:1 1233:1 1242:1 1246:2 1276:1 1284:5
-1 137:1 176:1 263:1 321:1 345:1 409:1 469:1 481:1 482:1 512:1 1144:1 1218:1 1228:1 1233:1 1242:1 1243:1 1245:1 1247:1 1249:1 1276:1 1283:1 1284:4
-1 137:2 263:2 321:3 421:1 469:1 482:1 512:1 585:1 761:1 1144:6 1216:1 1218:3 1228:1 1233:2 1236:1 1242:2 1245:1 1261:1 1276:6 1283:1 1284:6
-1 137:2 263:2 321:2 421:1 469:1 481:1 482:1 512:1 761:1 1144:4 1218:2 1228:1 1233:2 1236:1 1242:2 1243:1 1245:1 1261:1 1276:4 1283:1 1284:6
-1 137:1 263:1 421:1 469:1 481:1 482:1 761:1 1144:1 1228:1 1233:1 1236:1 1242:1 1243:1 1245:1 1261:1 1276:1 1284:3
-1 137:2 263:2 321:1 421:1 469:1 482:1 1144:3 1218:1 1228:1 1233:2 1242:2 1245:1 1261:1 1276:3 1284:6
-1 158:1 1270:1 1284:3
-1 137:3 263:2 321:2 421:1 1144:4 1218:2 1233:2 1242:3 1261:1 1276:4 1284:4
-1 1144:1 1276:1 1284:2
-1 168:1 175:1 186:1 212:1 263:1 268:1 323:1 382:1 409:1 481:1 523:1 556:1 642:1 834:1 854:1 976:1 1086:1 1121:1 1144:1 1164:1 1233:1 1243:1 1246:1 1247:1 1276:1 1281:1 1284:3
-1 263:1 1144:1 1233:1 1276:1 1284:2
-1 134:1 137:1 263:1 268:1 421:1 481:1 482:1 693:1 1144:1 1233:1 1238:1 1242:1 1243:1 1245:1 1246:1 1251:1 1261:1 1276:1 1284:2 1286:1
-1 168:1 175:1 186:1 259:1 264:1 268:1 382:1 426:1 556:1 691:1 834:1 854:1 937:1 968:1 971:1 976:1 1121:1 1215:1 1241:1 1246:1 1248:1 1284:1
-1 137:1 263:1 421:1 469:1 481:1 482:1 761:1 1144:1 1228:1 1233:1 1236:1 1242:1 1243:1 1245:1 1261:1 1276:1 1284:2
-1 1144:1 1276:1 1284:3
-1 137:1 263:1 321:1 469:1 1144:1 1218:1 1228:1 1233:1 1242:1 1276:1 1284:1
-1 137:1 263:1 268:1 481:1 937:1 1021:1 1144:1 1215:1 1233:1 1242:1 1243:1 1246:1 1276:1 1284:2
-1 263:1 674:1 971:1 1144:1 1233:1 1248:1 1276:1 1284:2
-1 137:1 168:1 175:1 236:1 268:1 323:1 556:1 679:1 854:1 861:1 937:1 1121:1 1144:1 1215:1 1242:1 1246:1 1276:1 1284:3
-1 137:1 263:1 321:1 394:1 409:1 421:1 458:1 469:1 481:1 482:1 547:1 585:1 699:1 761:1 790:1 896:1 968:1 971:1 1089:1 1144:1 1216:1 1218:1 1221:1 1222:1 1228:1 1233:1 1236:1 1241:1 1242:1 1243:1 1244:1 1245:1 1247:1 1248:1 1261:1 1262:1 1276:1 1284:2
-1 137:1 263:1 268:2 481:1 1144:1 1233:1 1242:1 1243:1 1246:2 1276:1 1284:4 1286:7
-1 137:3 263:2 321:1 421:1 1144:4 1218:1 1233:2 1242:3 1261:1 1276:4 1284:4
-1 137:2 263:2 321:1 421:1 1144:2 1218:1 1233:2 1242:2 1261:1 1276:2 1284:7
-1 268:1 321:1 323:1 409:1 481:1 1144:1 1218:1 1243:1 1246:1 1247:1 1276:1 1284:2
-1 263:1 268:1 278:1 391:1 458:1 487:1 590:1 591:1 648:1 704:1 744:1 990:1 1144:1 1221:1 1233:1 1246:1 1276:1 1284:5
-1 137:3 263:2 321:1 421:1 1144:4 1218:1 1233:2 1242:3 1261:1 1276:4 1284:4
-1 137:2 263:2 321:1 421:1 1144:2 1218:1 1233:2 1242:2 1261:1 1276:2 1284:7
-1 1144:1 1276:1 1284:4
-1 137:1 263:1 268:1 409:1 481:1 687:1 937:1 1144:1 1215:1 1233:1 1242:1 1243:1 1246:1 1247:1 1276:1 1284:1
-1 137:3 263:2 321:2 421:1 1144:4 1218:2 1233:2 1242:3 1261:1 1276:4 1284:4
-1 1144:1 1276:1 1284:2
-1 137:1 263:1 268:1 344:1 373:1 421:1 469:1 481:1 482:1 512:1 517:1 659:1 971:1 1144:1 1191:1 1228:1 1233:1 1242:1 1243:1 1245:1 1246:1 1248:1 1261:1 1276:1 1283:1 1284:2
-1 137:1 263:1 321:1 409:1 421:1 469:1 481:1 482:1 512:1 885:1 968:1 971:1 1144:1 1218:1 1228:1 1233:1 1241:1 1242:1 1243:1 1245:1 1247:1 1248:1 1261:1 1276:1 1283:1 1284:1
-1 137:1 263:1 268:1 421:1 449:1 469:1 481:1 482:1 512:1 693:1 859:1 968:1 1144:1 1228:1 1233:1 1241:1 1242:1 1243:1 1245:1 1246:1 1251:1 1261:1 1275:1 1276:1 1280:1 1283:1 1284:4
-1 180:1 626:1 939:1 1144:1 1276:1 1284:1
-1 137:1 263:1 268:1 321:1 409:1 469:1 481:1 482:1 490:1 809:1 937:1 1075:1 1144:1 1215:1 1218:1 1228:1 1233:1 1242:1 1243:1 1245:1 1246:1 1247:1 1276:1 1284:3
-1 268:1 528:1 1144:1 1246:1 1276:1 1284:5
-1 257:1 268:1 1246:1 1284:4
-1 158:1 1270:1 1284:2
-1 137:1 263:1 421:1 469:1 481:1 482:1 761:1 1144:1 1228:1 1233:1 1236:1 1242:1 1243:1 1245:1 1261:1 1276:1 1284:3
-1 158:1 1270:1 1284:3
-1 137:2 263:2 321:3 421:1 469:1 481:1 482:1 512:1 859:1 1144:5 1218:3 1228:1 1233:2 1242:2 1243:1 1245:1 1261:1 1275:1 1276:5 1283:1 1284:6
-1 137:1 168:1 175:1 208:1 263:1 264:1 268:1 321:1 323:1 409:1 481:1 507:1 523:1 556:1 679:1 834:1 854:1 874:1 932:1 1121:1 1144:1 1218:1 1233:1 1242:1 1243:1 1246:1 1247:1 1276:1 1279:1 1284:3
-1 263:1 482:1 1144:1 1233:1 1245:1 1276:1 1284:3
-1 137:1 263:1 421:1 481:1 482:1 711:1 1144:1 1233:1 1242:1 1243:1 1245:1 1261:1 1276:1 1284:3
-1 158:1 1270:1 1284:3
-1 137:1 263:1 409:1 469:1 481:1 790:1 1144:1 1165:1 1224:1 1228:1 1233:1 1242:1 1243:1 1247:1 1276:1 1284:1
-1 191:1 1237:1 1284:1
-1 137:1 263:1 321:1 406:1 421:1 469:1 481:1 482:1 548:1 761:1 852:1 896:1 916:1 971:1 1053:1 1144:1 1218:1 1228:1 1233:1 1236:1 1242:1 1243:1 1244:1 1245:1 1248:1 1250:1 1256:1 1258:1 1261:1 1276:1 1284:1 1286:379
-1 137:1 263:1 321:1 407:1 409:1 421:1 469:1 481:1 482:1 761:1 992:1 1053:1 1144:1 1179:1 1218:1 1228:1 1233:1 1236:1 1242:1 1243:1 1245:1 1247:1 1250:1 1261:1 1276:1 1284:1
-1 137:1 263:1 321:1 407:1 409:1 421:1 469:1 481:1 482:1 761:1 992:1 1053:1 1144:1 1179:1 1218:1 1228:1 1233:1 1236:1 1242:1 1243:1 1245:1 1247:1 1250:1 1261:1 1276:1 1284:1
-1 137:1 548:1 971:1 1144:1 1202:1 1242:1 1248:1 1256:1 1276:1 1284:1
-1 137:2 263:2 321:2 421:1 424:1 482:1 761:1 1144:5 1218:2 1233:2 1236:1 1242:2 1245:1 1261:1 1276:5 1284:6
-1 158:1 424:1 451:1 1144:1 1270:1 1276:1 1284:2
-1 158:1 1270:1 1284:3
-1 158:1 1270:1 1284:3
-1 137:1 263:1 321:1 421:1 469:1 481:1 482:1 761:1 1144:1 1218:1 1228:1 1233:1 1236:1 1242:1 1243:1 1245:1 1261:1 1276:1 1284:5
-1 168:1 175:1 236:1 268:1 308:1 323:1 409:1 556:1 679:1 767:1 833:1 834:1 854:1 1121:1 1164:1 1246:1 1247:1 1284:2
-1 137:2 263:2 321:1 421:1 1144:2 1218:1 1233:2 1242:2 1261:1 1276:2 1284:7
-1 268:1 1144:1 1246:1 1276:1 1284:6
-1 268:1 1144:1 1246:1 1276:1 1284:6
-1 122:1 137:1 263:1 268:1 481:1 1144:1 1233:1 1242:1 1243:1 1246:1 1276:1 1284:5
-1 168:1 175:1 186:1 259:1 264:1 268:1 382:1 426:1 556:1 618:1 691:1 834:1 854:1 937:1 968:1 971:1 976:1 1121:1 1215:1 1241:1 1246:1 1248:1 1284:1
-1 263:1 397:1 481:1 482:1 896:1 963:1 1117:1 1144:1 1233:1 1243:1 1244:1 1245:1 1276:1 1284:1
-1 268:1 1144:1 1246:1 1276:1 1284:2
-1 137:2 263:2 321:2 421:1 482:1 761:1 1144:5 1218:2 1233:2 1236:1 1242:2 1245:1 1261:1 1276:5 1284:6
-1 1144:1 1276:1 1284:2 1286:21
-1 1144:1 1276:1 1284:2
-1 158:1 1270:1 1284:2
-1 125:1 137:1 168:1 175:1 212:1 263:1 426:1 524:1 556:1 558:1 618:1 854:1 913:1 976:1 1085:1 1121:1 1144:1 1208:1 1233:1 1242:1 1260:1 1276:1 1284:1
-1 168:1 175:1 212:1 236:1 268:1 308:1 323:1 382:1 556:1 679:1 691:1 833:1 834:1 854:1 888:1 937:1 976:1 1052:1 1121:1 1164:1 1215:1 1246:1 1284:1
-1 137:1 263:1 421:1 469:1 481:1 482:1 761:1 1144:1 1228:1 1233:1 1236:1 1242:1 1243:1 1245:1 1261:1 1276:1 1284:3
-1 137:1 139:1 156:1 162:1 219:1 246:1 255:1 268:2 350:1 367:1 369:1 481:1 661:1 670:1 712:1 836:1 1114:1 1129:1 1144:1 1204:1 1242:1 1243:1 1246:2 1276:1 1284:2 1286:299
-1 137:1 263:1 421:1 469:1 481:1 482:1 761:1 1144:1 1228:1 1233:1 1236:1 1242:1 1243:1 1245:1 1261:1 1276:1 1284:3
-1 268:1 1144:1 1246:1 1276:1 1284:2
-1 191:1 1237:1 1284:1
-1 158:1 1270:1 1284:3
-1 133:1 137:1 263:1 481:1 482:1 512:1 564:1 605:1 748:1 795:1 896:1 1144:1 1233:1 1234:1 1242:1 1243:1 1244:1 1245:1 1274:1 1276:1 1283:1 1284:1
-1 1004:1 1144:1 1276:1 1284:4 1286:3
-1 158:1 1270:1 1284:3
-1 137:1 263:1 421:1 469:1 481:1 482:1 761:1 1144:1 1228:1 1233:1 1236:1 1242:1 1243:1 1245:1 1261:1 1276:1 1284:2
-1 263:1 268:1 482:1 512:1 686:1 1144:1 1233:1 1245:1 1246:1 1276:1 1283:1 1284:2
-1 137:1 254:1 263:1 268:1 321:1 349:1 469:1 481:1 482:1 512:1 896:1 971:1 1144:1 1218:1 1223:1 1228:1 1233:1 1242:1 1243:1 1244:1 1245:1 1246:1 1248:1 1276:1 1283:1 1284:4
-1 294:1 1144:1 1276:1 1284:3
-1 137:1 263:1 1144:1 1233:1 1242:1 1276:1 1284:2
-1 137:2 263:2 321:2 421:1 482:1 512:1 761:1 1144:1 1218:2 1233:2 1236:1 1242:2 1245:1 1261:1 1276:1 1283:1 1284:11
-1 137:1 167:1 200:1 250:1 638:1 722:1 778:1 913:1 951:1 1123:1 1144:1 1219:1 1242:1 1252:1 1260:1 1269:1 1276:1 1277:1 1282:1 1284:4 1286:36
-1 263:1 482:1 1144:1 1151:1 1233:1 1245:1 1276:1 1284:1
-1 191:1 1237:1 1284:1
-1 1144:1 1276:1 1284:1
-1 137:1 263:1 421:1 469:1 482:1 992:1 1144:1 1228:1 1233:1 1242:1 1245:1 1261:1 1276:1 1284:2
-1 263:1 268:2 321:1 421:1 469:1 512:1 1144:1 1218:1 1228:1 1233:1 1246:2 1261:1 1276:1 1283:1 1284:3
-1 1144:1 1276:1 1284:1
-1 137:3 263:2 321:1 421:1 1144:4 1218:1 1233:2 1242:3 1261:1 1276:4 1284:5
-1 137:1 263:1 268:1 377:1 422:1 458:1 932:1 937:1 1144:1 1215:1 1221:1 1233:1 1242:1 1246:1 1276:1 1279:1 1284:1
-1 168:1 175:1 186:1 212:1 240:1 259:1 264:1 268:1 382:1 426:1 524:1 556:1 618:1 642:1 691:1 710:1 826:1 834:1 838:1 854:1 875:1 884:1 887:1 893:1 912:1 936:1 937:1 976:1 1019:1 1025:1 1055:1 1082:1 1115:1 1121:1 1164:1 1199:1 1208:1 1215:1 1246:1 1272:1 1284:2
-1 158:1 1270:1 1284:3
-1 158:1 1270:1 1284:3
-1 137:3 263:2 321:1 421:1 1144:4 1218:1 1233:2 1242:3 1261:1 1276:4 1284:4
-1 971:1 1144:1 1248:1 1276:1 1284:2
