1 184:1 679:1 905:1 1072:1 1224:1 1239:1 1249:1 1253:1 1256:3
1 196:1 232:1 679:1 686:1 744:1 762:1 771:1 905:1 948:1 975:1 1010:1 1072:1 1215:1 1218:1 1222:1 1224:1 1227:1 1238:1 1239:1 1247:1 1248:1 1249:1 1252:1 1254:1 1256:2
1 196:1 232:1 679:2 686:1 744:1 762:1 771:1 905:1 945:1 948:1 975:1 1010:1 1072:1 1215:1 1218:1 1222:1 1224:1 1227:1 1238:1 1239:1 1247:1 1248:1 1249:2 1251:1 1252:1 1254:1 1256:12 1258:1
1 196:1 232:1 679:1 686:1 744:1 762:1 771:1 905:1 945:1 948:1 975:1 1010:1 1072:1 1215:1 1218:1 1222:1 1224:1 1227:1 1238:1 1239:1 1247:1 1248:1 1249:1 1251:1 1252:1 1254:1 1256:9
1 184:1 209:1 679:1 699:1 905:1 948:1 969:1 1072:1 1220:1 1221:1 1223:1 1224:1 1239:1 1249:1 1253:1 1254:1 1256:2
1 679:1 1249:1 1256:8
1 196:1 232:1 679:3 686:1 744:1 762:1 771:1 905:2 948:1 975:1 1010:1 1072:1 1215:1 1218:1 1222:1 1224:2 1227:1 1238:1 1239:1 1247:1 1248:1 1249:3 1252:1 1254:1 1256:10
1 196:1 232:1 504:1 679:1 686:1 744:1 762:1 771:1 905:1 948:1 969:1 975:1 1010:1 1072:1 1215:1 1218:1 1222:1 1223:1 1224:1 1227:1 1230:1 1238:1 1239:1 1247:1 1248:1 1249:1 1252:1 1254:1 1256:9
1 679:1 948:1 1249:1 1254:1 1256:2
1 196:1 232:1 679:1 686:1 744:1 762:1 771:1 905:1 945:1 948:1 975:1 1010:1 1072:1 1215:1 1218:1 1222:1 1224:1 1227:1 1238:1 1239:1 1247:1 1248:1 1249:1 1251:1 1252:1 1254:1 1256:9
1 196:1 232:1 679:1 686:1 744:1 762:1 771:1 905:1 948:1 975:1 1010:1 1072:1 1215:1 1218:1 1222:1 1224:1 1227:1 1238:1 1239:1 1247:1 1248:1 1249:1 1252:1 1254:1 1256:2
1 184:1 209:1 679:1 699:1 905:1 948:1 969:1 1072:1 1220:1 1221:1 1223:1 1224:1 1239:1 1249:1 1253:1 1254:1 1256:2
1 679:1 1249:1 1256:7
1 196:1 232:1 679:1 686:1 744:1 762:1 771:1 905:1 948:1 975:1 1010:1 1072:1 1215:1 1218:1 1222:1 1224:1 1227:1 1238:1 1239:1 1247:1 1248:1 1249:1 1252:1 1254:1 1256:2
1 196:1 232:1 509:1 679:4 686:1 744:1 762:1 771:1 905:3 948:1 975:1 1010:1 1072:1 1215:1 1218:1 1222:1 1224:3 1227:1 1233:1 1238:1 1239:1 1247:1 1248:1 1249:4 1252:1 1254:1 1256:8
1 196:1 232:1 679:1 686:1 744:1 762:1 771:1 905:1 948:1 975:1 1010:1 1072:1 1215:1 1218:1 1222:1 1224:1 1227:1 1238:1 1239:1 1247:1 1248:1 1249:1 1252:1 1254:1 1256:2
1 184:1 209:1 679:1 699:1 905:1 948:1 969:1 1072:1 1220:1 1221:1 1223:1 1224:1 1239:1 1249:1 1253:1 1254:1 1256:2
1 196:1 232:1 679:1 686:1 744:1 762:1 771:1 905:1 948:1 975:1 1010:1 1072:1 1215:1 1218:1 1222:1 1224:1 1227:1 1238:1 1239:1 1247:1 1248:1 1249:1 1252:1 1254:1 1256:2
1 679:1 1072:1 1239:1 1249:1 1256:3
1 196:1 232:1 679:1 686:1 744:1 762:1 771:1 905:1 948:1 975:1 1010:1 1072:1 1215:1 1218:1 1222:1 1224:1 1227:1 1238:1 1239:1 1247:1 1248:1 1249:1 1252:1 1254:1 1256:2
1 196:1 232:1 679:1 686:1 744:1 762:1 771:1 905:1 945:1 948:1 975:1 1010:1 1072:1 1215:1 1218:1 1222:1 1224:1 1227:1 1238:1 1239:1 1247:1 1248:1 1249:1 1251:1 1252:1 1254:1 1256:9
1 196:1 232:1 679:1 686:1 744:1 762:1 771:1 905:1 948:1 975:1 1010:1 1072:1 1215:1 1218:1 1222:1 1224:1 1227:1 1238:1 1239:1 1247:1 1248:1 1249:1 1252:1 1254:1 1256:2
1 196:1 232:1 679:1 686:1 744:1 762:1 771:1 905:1 948:1 975:1 1010:1 1072:1 1215:1 1218:1 1222:1 1224:1 1227:1 1238:1 1239:1 1247:1 1248:1 1249:1 1252:1 1254:1 1256:2
1 512:1 679:1 686:1 771:1 905:1 948:1 1072:1 1087:1 1222:1 1224:1 1236:1 1239:1 1249:1 1252:1 1254:1 1255:1 1256:2
1 679:1 1249:1 1256:7
1 512:1 679:1 686:1 771:1 905:1 948:1 1072:1 1087:1 1222:1 1224:1 1236:1 1239:1 1249:1 1252:1 1254:1 1255:1 1256:2
1 196:1 232:1 679:1 686:1 744:1 762:1 771:1 905:1 948:1 975:1 1010:1 1072:1 1215:1 1218:1 1222:1 1224:1 1227:1 1238:1 1239:1 1247:1 1248:1 1249:1 1252:1 1254:1 1256:3
1 196:1 232:1 679:1 686:1 744:1 762:1 771:1 905:1 948:1 975:1 1010:1 1072:1 1215:1 1218:1 1222:1 1224:1 1227:1 1238:1 1239:1 1247:1 1248:1 1249:1 1252:1 1254:1 1256:2
1 448:1 1241:1 1256:4
1 196:1 232:1 504:1 679:1 686:1 744:1 762:1 771:1 905:1 948:1 969:1 975:1 1010:1 1072:1 1215:1 1218:1 1222:1 1223:1 1224:1 1227:1 1230:1 1238:1 1239:1 1247:1 1248:1 1249:1 1252:1 1254:1 1256:9
1 196:1 232:1 679:1 686:1 744:1 762:1 771:1 905:1 948:1 975:1 1010:1 1072:1 1215:1 1218:1 1222:1 1224:1 1227:1 1238:1 1239:1 1247:1 1248:1 1249:1 1252:1 1254:1 1256:2
1 679:1 1249:1 1256:8
1 196:1 232:1 679:1 686:1 744:1 762:1 771:1 905:1 948:1 975:1 1010:1 1072:1 1215:1 1218:1 1222:1 1224:1 1227:1 1238:1 1239:1 1247:1 1248:1 1249:1 1252:1 1254:1 1256:2
1 448:1 1241:1 1256:4
1 512:1 679:1 686:1 771:1 905:1 948:1 1072:1 1087:1 1222:1 1224:1 1236:1 1239:1 1249:1 1252:1 1254:1 1255:1 1256:2
1 679:1 1249:1 1256:8 1258:1
1 679:1 1249:1 1256:7
1 679:1 948:1 1249:1 1254:1 1256:2
1 679:1 1249:1 1256:7
1 196:1 232:1 679:1 686:1 744:1 762:1 771:1 905:1 948:1 975:1 1010:1 1072:1 1215:1 1218:1 1222:1 1224:1 1227:1 1238:1 1239:1 1247:1 1248:1 1249:1 1252:1 1254:1 1256:2
1 196:1 232:1 504:1 679:1 686:1 744:1 762:1 771:1 905:1 948:1 969:1 975:1 1010:1 1072:1 1215:1 1218:1 1222:1 1223:1 1224:1 1227:1 1230:1 1238:1 1239:1 1247:1 1248:1 1249:1 1252:1 1254:1 1256:9
1 184:1 679:1 1249:1 1253:1 1256:2
1 196:1 232:1 679:1 686:1 744:1 762:1 771:1 905:1 948:1 975:1 1010:1 1072:1 1215:1 1218:1 1222:1 1224:1 1227:1 1238:1 1239:1 1247:1 1248:1 1249:1 1252:1 1254:1 1256:2
1 679:1 699:1 1010:1 1220:1 1247:1 1249:1 1256:1
1 196:1 232:1 504:1 679:1 686:1 744:1 762:1 771:1 905:1 948:1 969:1 975:1 1010:1 1072:1 1215:1 1218:1 1222:1 1223:1 1224:1 1227:1 1230:1 1238:1 1239:1 1247:1 1248:1 1249:1 1252:1 1254:1 1256:9
1 196:1 232:1 504:1 679:1 686:1 744:1 762:1 771:1 905:1 945:1 948:1 969:1 975:1 1010:1 1072:1 1215:1 1218:1 1222:1 1223:1 1224:1 1227:1 1230:1 1238:1 1239:1 1247:1 1248:1 1249:1 1251:1 1252:1 1254:1 1256:9
1 196:1 232:1 509:1 679:4 686:1 744:1 762:1 771:1 905:3 948:1 975:1 1010:1 1072:1 1215:1 1218:1 1222:1 1224:3 1227:1 1233:1 1238:1 1239:1 1247:1 1248:1 1249:4 1252:1 1254:1 1256:9
1 679:1 1249:1 1256:5
1 448:1 1241:1 1256:4
1 184:1 679:1 1249:1 1253:1 1256:5
1 184:1 679:1 1249:1 1253:1 1256:5
1 196:1 232:1 679:1 686:1 744:1 762:1 771:1 905:1 948:1 975:1 1010:1 1072:1 1215:1 1218:1 1222:1 1224:1 1227:1 1238:1 1239:1 1247:1 1248:1 1249:1 1252:1 1254:1 1256:7
1 196:1 232:1 679:1 686:1 744:1 762:1 771:1 905:1 948:1 975:1 1010:1 1072:1 1215:1 1218:1 1222:1 1224:1 1227:1 1238:1 1239:1 1247:1 1248:1 1249:1 1252:1 1254:1 1256:2
1 196:1 232:1 504:1 679:1 686:1 744:1 762:1 771:1 905:1 948:1 969:1 975:1 1010:1 1072:1 1215:1 1218:1 1222:1 1223:1 1224:1 1227:1 1230:1 1238:1 1239:1 1247:1 1248:1 1249:1 1252:1 1254:1 1256:9
1 196:1 679:3 686:1 771:1 1072:1 1215:1 1222:1 1239:1 1249:3 1252:1 1256:7
1 679:1 1249:1 1256:4
1 196:1 232:1 679:1 686:1 744:1 762:1 771:1 905:1 948:1 975:1 1010:1 1072:1 1215:1 1218:1 1222:1 1224:1 1227:1 1238:1 1239:1 1247:1 1248:1 1249:1 1252:1 1254:1 1256:2
1 196:1 232:1 679:1 686:1 744:1 762:1 771:1 905:1 948:1 975:1 1010:1 1072:1 1215:1 1218:1 1222:1 1224:1 1227:1 1238:1 1239:1 1247:1 1248:1 1249:1 1252:1 1254:1 1256:8
1 196:1 232:1 679:2 686:1 744:1 762:1 771:1 905:1 948:1 975:1 1010:1 1072:1 1215:1 1218:1 1222:1 1224:1 1227:1 1238:1 1239:1 1247:1 1248:1 1249:2 1252:1 1254:1 1256:8
1 196:1 232:1 679:1 686:1 744:1 762:1 771:1 905:1 948:1 975:1 1010:1 1072:1 1215:1 1218:1 1222:1 1224:1 1227:1 1238:1 1239:1 1247:1 1248:1 1249:1 1252:1 1254:1 1256:2
1 184:1 209:1 679:1 699:1 905:1 948:1 969:1 1072:1 1220:1 1221:1 1223:1 1224:1 1239:1 1249:1 1253:1 1254:1 1256:2
1 448:1 1241:1 1256:4
1 196:1 509:1 679:3 686:1 771:1 905:2 1072:1 1215:1 1222:1 1224:2 1233:1 1239:1 1249:3 1252:1 1256:6
1 679:1 771:1 1072:1 1222:1 1239:1 1249:1 1256:4
1 679:1 1249:1 1256:7 1258:1
1 196:1 232:1 679:1 686:1 744:1 762:1 771:1 905:1 948:1 975:1 1010:1 1072:1 1215:1 1218:1 1222:1 1224:1 1227:1 1238:1 1239:1 1247:1 1248:1 1249:1 1252:1 1254:1 1256:2
1 196:1 232:1 679:1 686:1 744:1 762:1 771:1 905:1 948:1 975:1 1010:1 1072:1 1215:1 1218:1 1222:1 1224:1 1227:1 1238:1 1239:1 1247:1 1248:1 1249:1 1252:1 1254:1 1256:2
1 196:1 232:1 679:1 686:1 744:1 762:1 771:1 905:1 948:1 975:1 1010:1 1072:1 1215:1 1218:1 1222:1 1224:1 1227:1 1238:1 1239:1 1247:1 1248:1 1249:1 1252:1 1254:1 1256:2
1 679:1 905:1 1224:1 1249:1 1256:3
1 196:1 232:1 679:1 686:1 744:1 762:1 771:1 905:1 948:1 975:1 1010:1 1072:1 1215:1 1218:1 1222:1 1224:1 1227:1 1238:1 1239:1 1247:1 1248:1 1249:1 1252:1 1254:1 1256:2
1 196:1 232:1 504:1 679:1 686:1 744:1 762:1 771:1 905:1 948:1 969:1 975:1 1010:1 1072:1 1215:1 1218:1 1222:1 1223:1 1224:1 1227:1 1230:1 1238:1 1239:1 1247:1 1248:1 1249:1 1252:1 1254:1 1256:9
1 679:1 771:1 905:1 1072:1 1222:1 1224:1 1239:1 1249:1 1256:4 1258:1
1 512:1 679:1 686:1 771:1 905:1 948:1 1072:1 1087:1 1222:1 1224:1 1236:1 1239:1 1249:1 1252:1 1254:1 1255:1 1256:2
1 196:1 232:1 679:1 686:1 744:1 762:1 771:1 905:1 948:1 975:1 1010:1 1072:1 1215:1 1218:1 1222:1 1224:1 1227:1 1238:1 1239:1 1247:1 1248:1 1249:1 1252:1 1254:1 1256:2
1 184:1 679:1 1249:1 1253:1 1256:5
1 679:1 1249:1 1256:5 1258:1
1 196:1 232:1 679:2 686:1 744:1 762:1 771:1 905:1 948:1 975:1 1010:1 1072:1 1215:1 1218:1 1222:1 1224:1 1227:1 1238:1 1239:1 1247:1 1248:1 1249:2 1252:1 1254:1 1256:6
1 184:1 209:1 679:1 699:1 905:1 948:1 969:1 1072:1 1220:1 1221:1 1223:1 1224:1 1239:1 1249:1 1253:1 1254:1 1256:2
1 196:1 232:1 679:2 686:1 744:1 762:1 771:1 905:1 948:1 975:1 1010:1 1072:1 1215:1 1218:1 1222:1 1224:1 1227:1 1238:1 1239:1 1247:1 1248:1 1249:2 1252:1 1254:1 1256:14
1 184:1 209:1 679:1 699:1 905:1 948:1 969:1 1072:1 1220:1 1221:1 1223:1 1224:1 1239:1 1249:1 1253:1 1254:1 1256:2
1 679:1 1249:1 1256:4
1 196:1 232:1 504:1 679:1 686:1 744:1 762:1 771:1 905:1 945:1 948:1 969:1 975:1 1010:1 1072:1 1215:1 1218:1 1222:1 1223:1 1224:1 1227:1 1230:1 1238:1 1239:1 1247:1 1248:1 1249:1 1251:1 1252:1 1254:1 1256:9
1 196:1 232:1 679:1 686:1 744:1 762:1 771:1 905:1 948:1 975:1 1010:1 1072:1 1215:1 1218:1 1222:1 1224:1 1227:1 1238:1 1239:1 1247:1 1248:1 1249:1 1252:1 1254:1 1256:2
1 196:1 232:1 504:1 679:1 686:1 744:1 762:1 771:1 905:1 948:1 969:1 975:1 1010:1 1072:1 1215:1 1218:1 1222:1 1223:1 1224:1 1227:1 1230:1 1238:1 1239:1 1247:1 1248:1 1249:1 1252:1 1254:1 1256:9
1 196:1 232:1 504:1 679:1 686:1 744:1 762:1 771:1 905:1 948:1 969:1 975:1 1010:1 1072:1 1215:1 1218:1 1222:1 1223:1 1224:1 1227:1 1230:1 1238:1 1239:1 1247:1 1248:1 1249:1 1252:1 1254:1 1256:8
1 679:1 1249:1 1256:5
1 196:1 232:1 679:1 686:1 744:1 762:1 771:1 905:1 948:1 975:1 1010:1 1072:1 1215:1 1218:1 1222:1 1224:1 1227:1 1238:1 1239:1 1247:1 1248:1 1249:1 1252:1 1254:1 1256:2
1 184:1 679:1 1249:1 1253:1 1256:5
1 196:1 232:1 679:1 686:1 744:1 762:1 771:1 905:1 948:1 975:1 1010:1 1072:1 1215:1 1218:1 1222:1 1224:1 1227:1 1238:1 1239:1 1247:1 1248:1 1249:1 1252:1 1254:1 1256:2
1 168:1 196:1 679:1 686:1 771:1 1072:1 1215:1 1222:1 1239:1 1240:1 1249:1 1252:1 1256:8
1 196:1 232:1 679:1 686:1 744:1 762:1 771:1 905:1 948:1 975:1 1010:1 1072:1 1215:1 1218:1 1222:1 1224:1 1227:1 1238:1 1239:1 1247:1 1248:1 1249:1 1252:1 1254:1 1256:2
1 196:1 232:1 679:2 686:1 744:1 762:1 771:1 905:1 945:1 948:1 975:1 1010:1 1072:1 1215:1 1218:1 1222:1 1224:1 1227:1 1238:1 1239:1 1247:1 1248:1 1249:2 1251:1 1252:1 1254:1 1256:12 1258:1
1 512:1 679:1 686:1 771:1 905:1 948:1 1072:1 1087:1 1222:1 1224:1 1236:1 1239:1 1249:1 1252:1 1254:1 1255:1 1256:2
1 196:1 232:1 679:1 686:1 744:1 762:1 771:1 905:1 948:1 975:1 1010:1 1072:1 1215:1 1218:1 1222:1 1224:1 1227:1 1238:1 1239:1 1247:1 1248:1 1249:1 1252:1 1254:1 1256:2
1 679:1 1072:1 1239:1 1249:1 1256:3
1 679:1 1249:1 1256:7
1 184:1 679:1 1249:1 1253:1 1256:4
1 448:1 1241:1 1256:4
1 196:1 232:1 679:2 686:1 744:1 762:1 771:1 905:1 948:1 975:1 1010:1 1072:1 1215:1 1218:1 1222:1 1224:1 1227:1 1238:1 1239:1 1247:1 1248:1 1249:2 1252:1 1254:1 1256:8
1 679:1 1249:1 1256:8
1 679:1 1249:1 1256:7 1258:1
1 196:1 232:1 509:1 679:3 686:1 744:1 762:1 771:1 905:3 945:1 948:1 975:1 1010:1 1072:1 1215:1 1218:1 1222:1 1224:3 1227:1 1233:1 1238:1 1239:1 1247:1 1248:1 1249:3 1251:1 1252:1 1254:1 1256:7
1 196:1 232:1 504:1 679:1 686:1 744:1 762:1 771:1 905:1 948:1 969:1 975:1 1010:1 1072:1 1215:1 1218:1 1222:1 1223:1 1224:1 1227:1 1230:1 1238:1 1239:1 1247:1 1248:1 1249:1 1252:1 1254:1 1256:9
1 679:1 905:1 948:1 1072:1 1224:1 1239:1 1249:1 1254:1 1256:2
1 196:1 232:1 679:1 686:1 744:1 762:1 771:1 905:1 948:1 975:1 1010:1 1072:1 1215:1 1218:1 1222:1 1224:1 1227:1 1238:1 1239:1 1247:1 1248:1 1249:1 1252:1 1254:1 1256:2
1 196:1 232:1 679:1 686:1 744:1 762:1 771:1 905:1 948:1 975:1 1010:1 1072:1 1215:1 1218:1 1222:1 1224:1 1227:1 1238:1 1239:1 1247:1 1248:1 1249:1 1252:1 1254:1 1256:2
1 679:1 905:1 1224:1 1249:1 1256:3 1258:1
1 196:1 232:1 679:1 686:1 744:1 762:1 771:1 905:1 948:1 975:1 1010:1 1072:1 1215:1 1218:1 1222:1 1224:1 1227:1 1238:1 1239:1 1247:1 1248:1 1249:1 1252:1 1254:1 1256:2
1 196:1 232:1 504:1 679:1 686:1 744:1 762:1 771:1 905:1 948:1 969:1 975:1 1010:1 1072:1 1215:1 1218:1 1222:1 1223:1 1224:1 1227:1 1230:1 1238:1 1239:1 1247:1 1248:1 1249:1 1252:1 1254:1 1256:9
1 196:1 232:1 679:1 686:1 744:1 762:1 771:1 905:1 948:1 975:1 1010:1 1072:1 1215:1 1218:1 1222:1 1224:1 1227:1 1238:1 1239:1 1247:1 1248:1 1249:1 1252:1 1254:1 1256:8
1 196:1 232:1 679:3 686:1 744:1 762:1 771:1 905:1 948:1 975:1 1010:1 1072:1 1215:1 1218:1 1222:1 1224:1 1227:1 1238:1 1239:1 1247:1 1248:1 1249:3 1252:1 1254:1 1256:8
1 196:1 232:1 679:4 686:1 744:1 762:1 771:1 905:2 945:1 948:1 975:1 1010:1 1072:1 1215:1 1218:1 1222:1 1224:2 1227:1 1238:1 1239:1 1247:1 1248:1 1249:4 1251:1 1252:1 1254:1 1256:9 1258:1
1 184:1 209:1 679:1 699:1 905:1 948:1 969:1 1072:1 1220:1 1221:1 1223:1 1224:1 1239:1 1249:1 1253:1 1254:1 1256:2
1 196:1 232:1 679:1 686:1 744:1 762:1 771:1 905:1 948:1 975:1 1010:1 1072:1 1215:1 1218:1 1222:1 1224:1 1227:1 1238:1 1239:1 1247:1 1248:1 1249:1 1252:1 1254:1 1256:2
1 196:1 232:1 679:1 686:1 744:1 762:1 771:1 905:1 948:1 975:1 1010:1 1072:1 1215:1 1218:1 1222:1 1224:1 1227:1 1238:1 1239:1 1247:1 1248:1 1249:1 1252:1 1254:1 1256:2
1 196:1 232:1 679:3 686:1 744:1 762:1 771:1 905:2 948:1 975:1 1010:1 1072:1 1215:1 1218:1 1222:1 1224:2 1227:1 1238:1 1239:1 1247:1 1248:1 1249:3 1252:1 1254:1 1256:10
1 196:1 232:1 679:3 686:1 744:1 762:1 771:1 905:2 948:1 975:1 1010:1 1072:1 1215:1 1218:1 1222:1 1224:2 1227:1 1238:1 1239:1 1247:1 1248:1 1249:3 1252:1 1254:1 1256:10
1 448:1 1241:1 1256:4
1 184:1 209:1 679:1 699:1 905:1 948:1 969:1 1072:1 1220:1 1221:1 1223:1 1224:1 1239:1 1249:1 1253:1 1254:1 1256:2
1 196:1 232:1 679:1 686:1 744:1 762:1 771:1 905:1 948:1 975:1 1010:1 1072:1 1215:1 1218:1 1222:1 1224:1 1227:1 1238:1 1239:1 1247:1 1248:1 1249:1 1252:1 1254:1 1256:2
1 679:1 1072:1 1239:1 1249:1 1256:3
1 196:1 232:1 679:1 686:1 744:1 762:1 771:1 905:1 948:1 975:1 1010:1 1072:1 1215:1 1218:1 1222:1 1224:1 1227:1 1238:1 1239:1 1247:1 1248:1 1249:1 1252:1 1254:1 1256:2
1 196:1 232:1 504:1 679:1 686:1 744:1 762:1 771:1 905:1 948:1 969:1 975:1 1010:1 1072:1 1215:1 1218:1 1222:1 1223:1 1224:1 1227:1 1230:1 1238:1 1239:1 1247:1 1248:1 1249:1 1252:1 1254:1 1256:8
1 196:1 232:1 679:2 686:1 744:1 762:1 771:1 905:2 945:1 948:1 975:1 1010:1 1072:1 1215:1 1218:1 1222:1 1224:2 1227:1 1238:1 1239:1 1247:1 1248:1 1249:2 1251:1 1252:1 1254:1 1256:6
1 196:1 232:1 679:1 686:1 744:1 762:1 771:1 905:1 948:1 975:1 1010:1 1072:1 1215:1 1218:1 1222:1 1224:1 1227:1 1238:1 1239:1 1247:1 1248:1 1249:1 1252:1 1254:1 1256:2
1 196:1 232:1 679:1 686:1 744:1 762:1 771:1 905:1 945:1 948:1 975:1 1010:1 1072:1 1215:1 1218:1 1222:1 1224:1 1227:1 1238:1 1239:1 1247:1 1248:1 1249:1 1251:1 1252:1 1254:1 1256:9
1 679:1 1249:1 1256:8
1 679:1 771:1 1072:1 1222:1 1239:1 1249:1 1256:4
1 184:1 209:1 679:1 699:1 905:1 948:1 969:1 1072:1 1220:1 1221:1 1223:1 1224:1 1239:1 1249:1 1253:1 1254:1 1256:2
1 196:1 232:1 504:1 679:1 686:1 744:1 762:1 771:1 905:1 948:1 969:1 975:1 1010:1 1072:1 1215:1 1218:1 1222:1 1223:1 1224:1 1227:1 1230:1 1238:1 1239:1 1247:1 1248:1 1249:1 1252:1 1254:1 1256:9
1 679:1 1249:1 1256:8
1 196:1 232:1 679:1 686:1 744:1 762:1 771:1 905:1 948:1 975:1 1010:1 1072:1 1215:1 1218:1 1222:1 1224:1 1227:1 1238:1 1239:1 1247:1 1248:1 1249:1 1252:1 1254:1 1256:2
1 196:1 232:1 679:1 686:1 744:1 762:1 771:1 905:1 948:1 975:1 1010:1 1072:1 1215:1 1218:1 1222:1 1224:1 1227:1 1238:1 1239:1 1247:1 1248:1 1249:1 1252:1 1254:1 1256:2
1 448:1 1241:1 1256:4
1 679:1 1249:1 1256:8
1 196:1 232:1 679:3 686:1 744:1 762:1 771:1 905:2 948:1 975:1 1010:1 1072:1 1215:1 1218:1 1222:1 1224:2 1227:1 1238:1 1239:1 1247:1 1248:1 1249:3 1252:1 1254:1 1256:8
1 184:1 679:1 1249:1 1253:1 1256:5 1258:1
1 196:1 232:1 504:1 679:1 686:1 744:1 762:1 771:1 905:1 948:1 969:1 975:1 1010:1 1072:1 1215:1 1218:1 1222:1 1223:1 1224:1 1227:1 1230:1 1238:1 1239:1 1247:1 1248:1 1249:1 1252:1 1254:1 1256:9
1 679:1 1249:1 1256:7
1 184:1 679:1 905:1 1072:1 1224:1 1239:1 1249:1 1253:1 1256:3
1 679:1 1249:1 1256:4
1 184:1 209:1 679:1 699:1 905:1 948:1 969:1 1072:1 1220:1 1221:1 1223:1 1224:1 1239:1 1249:1 1253:1 1254:1 1256:2
1 196:1 232:1 679:1 686:1 744:1 762:1 771:1 905:1 948:1 975:1 1010:1 1072:1 1215:1 1218:1 1222:1 1224:1 1227:1 1238:1 1239:1 1247:1 1248:1 1249:1 1252:1 1254:1 1256:2
1 184:1 679:1 1249:1 1253:1 1256:5
1 679:1 1249:1 1256:5
1 196:1 232:1 679:1 686:1 744:1 762:1 771:1 905:1 948:1 975:1 1010:1 1072:1 1215:1 1218:1 1222:1 1224:1 1227:1 1238:1 1239:1 1247:1 1248:1 1249:1 1252:1 1254:1 1256:2
1 679:1 1249:1 1256:6
1 196:1 232:1 504:1 679:1 686:1 744:1 762:1 771:1 905:1 948:1 969:1 975:1 1010:1 1072:1 1215:1 1218:1 1222:1 1223:1 1224:1 1227:1 1230:1 1238:1 1239:1 1247:1 1248:1 1249:1 1252:1 1254:1 1256:9
1 196:1 232:1 679:1 686:1 744:1 762:1 771:1 905:1 945:1 948:1 975:1 1010:1 1072:1 1215:1 1218:1 1222:1 1224:1 1227:1 1238:1 1239:1 1247:1 1248:1 1249:1 1251:1 1252:1 1254:1 1256:9
1 196:1 232:1 504:1 679:1 686:1 744:1 762:1 771:1 905:1 948:1 969:1 975:1 1010:1 1072:1 1215:1 1218:1 1222:1 1223:1 1224:1 1227:1 1230:1 1238:1 1239:1 1247:1 1248:1 1249:1 1252:1 1254:1 1256:9
1 196:1 232:1 679:1 686:1 744:1 762:1 771:1 905:1 948:1 975:1 1010:1 1072:1 1215:1 1218:1 1222:1 1224:1 1227:1 1238:1 1239:1 1247:1 1248:1 1249:1 1252:1 1254:1 1256:2
1 196:1 232:1 504:1 679:1 686:1 744:1 762:1 771:1 905:1 945:1 948:1 969:1 975:1 1010:1 1072:1 1215:1 1218:1 1222:1 1223:1 1224:1 1227:1 1230:1 1238:1 1239:1 1247:1 1248:1 1249:1 1251:1 1252:1 1254:1 1256:9
1 184:1 209:1 679:1 699:1 905:1 948:1 969:1 1072:1 1220:1 1221:1 1223:1 1224:1 1239:1 1249:1 1253:1 1254:1 1256:2
1 196:1 232:1 679:3 686:1 744:1 762:1 771:1 905:1 948:1 975:1 1010:1 1072:1 1215:1 1218:1 1222:1 1224:1 1227:1 1238:1 1239:1 1247:1 1248:1 1249:3 1252:1 1254:1 1256:7
1 184:1 209:1 679:1 699:1 905:1 948:1 969:1 1072:1 1220:1 1221:1 1223:1 1224:1 1239:1 1249:1 1253:1 1254:1 1256:2
1 196:1 232:1 679:1 686:1 744:1 762:1 771:1 905:1 948:1 975:1 1010:1 1072:1 1215:1 1218:1 1222:1 1224:1 1227:1 1238:1 1239:1 1247:1 1248:1 1249:1 1252:1 1254:1 1256:2
1 196:1 232:1 679:3 686:1 744:1 762:1 771:1 905:1 948:1 975:1 1010:1 1072:1 1215:1 1218:1 1222:1 1224:1 1227:1 1238:1 1239:1 1247:1 1248:1 1249:3 1252:1 1254:1 1256:8
1 196:1 232:1 679:1 686:1 744:1 762:1 771:1 905:1 948:1 975:1 1010:1 1072:1 1215:1 1218:1 1222:1 1224:1 1227:1 1238:1 1239:1 1247:1 1248:1 1249:1 1252:1 1254:1 1256:2
1 679:1 905:1 948:1 1224:1 1249:1 1254:1 1256:2
1 196:1 232:1 679:1 686:1 744:1 762:1 771:1 905:1 948:1 975:1 1010:1 1072:1 1215:1 1218:1 1222:1 1224:1 1227:1 1238:1 1239:1 1247:1 1248:1 1249:1 1252:1 1254:1 1256:2
1 196:1 232:1 504:1 679:1 686:1 744:1 762:1 771:1 905:1 948:1 969:1 975:1 1010:1 1072:1 1215:1 1218:1 1222:1 1223:1 1224:1 1227:1 1230:1 1238:1 1239:1 1247:1 1248:1 1249:1 1252:1 1254:1 1256:8
1 184:1 209:1 679:1 699:1 905:1 948:1 969:1 1072:1 1220:1 1221:1 1223:1 1224:1 1239:1 1249:1 1253:1 1254:1 1256:2
1 679:1 1249:1 1256:8
1 196:1 232:1 679:1 686:1 744:1 762:1 771:1 905:1 945:1 948:1 975:1 1010:1 1072:1 1215:1 1218:1 1222:1 1224:1 1227:1 1238:1 1239:1 1247:1 1248:1 1249:1 1251:1 1252:1 1254:1 1256:9
1 196:1 232:1 679:1 686:1 744:1 762:1 771:1 905:1 948:1 975:1 1010:1 1072:1 1215:1 1218:1 1222:1 1224:1 1227:1 1238:1 1239:1 1247:1 1248:1 1249:1 1252:1 1254:1 1256:2
1 196:1 232:1 679:1 686:1 744:1 762:1 771:1 905:1 948:1 975:1 1010:1 1072:1 1215:1 1218:1 1222:1 1224:1 1227:1 1238:1 1239:1 1247:1 1248:1 1249:1 1252:1 1254:1 1256:2
1 196:1 232:1 679:3 686:1 744:1 762:1 771:1 905:2 948:1 975:1 1010:1 1072:1 1215:1 1218:1 1222:1 1224:2 1227:1 1238:1 1239:1 1247:1 1248:1 1249:3 1252:1 1254:1 1256:9
1 196:1 232:1 679:4 686:1 744:1 762:1 771:1 905:1 948:1 975:1 1010:1 1072:1 1215:1 1218:1 1222:1 1224:1 1227:1 1238:1 1239:1 1247:1 1248:1 1249:4 1252:1 1254:1 1256:9
1 448:1 1241:1 1256:4
1 184:1 504:1 679:1 686:1 771:1 905:1 948:1 1222:1 1224:1 1230:1 1249:1 1252:1 1253:1 1254:1 1256:2
1 196:1 232:1 679:1 686:1 744:1 762:1 771:1 905:1 948:1 975:1 1010:1 1072:1 1215:1 1218:1 1222:1 1224:1 1227:1 1238:1 1239:1 1247:1 1248:1 1249:1 1252:1 1254:1 1256:2
1 196:1 232:1 679:1 686:1 744:1 762:1 771:1 905:1 948:1 975:1 1010:1 1072:1 1215:1 1218:1 1222:1 1224:1 1227:1 1238:1 1239:1 1247:1 1248:1 1249:1 1252:1 1254:1 1256:2
1 679:1 1249:1 1256:3
1 196:1 232:1 504:1 679:1 686:1 744:1 762:1 771:1 905:1 945:1 948:1 969:1 975:1 1010:1 1072:1 1215:1 1218:1 1222:1 1223:1 1224:1 1227:1 1230:1 1238:1 1239:1 1247:1 1248:1 1249:1 1251:1 1252:1 1254:1 1256:9
1 679:1 1249:1 1256:7
1 196:1 232:1 679:1 686:1 744:1 762:1 771:1 905:1 948:1 975:1 1010:1 1072:1 1215:1 1218:1 1222:1 1224:1 1227:1 1238:1 1239:1 1247:1 1248:1 1249:1 1252:1 1254:1 1256:2
1 196:1 232:1 679:1 686:1 744:1 762:1 771:1 905:1 948:1 975:1 1010:1 1072:1 1215:1 1218:1 1222:1 1224:1 1227:1 1238:1 1239:1 1247:1 1248:1 1249:1 1252:1 1254:1 1256:2
1 512:1 679:1 686:1 771:1 905:1 948:1 1072:1 1087:1 1222:1 1224:1 1236:1 1239:1 1249:1 1252:1 1254:1 1255:1 1256:2
1 679:1 1249:1 1256:6 1258:1
1 679:1 1249:1 1256:7 1258:1
1 196:1 232:1 679:1 686:1 744:1 762:1 771:1 905:1 948:1 975:1 1010:1 1072:1 1215:1 1218:1 1222:1 1224:1 1227:1 1238:1 1239:1 1247:1 1248:1 1249:1 1252:1 1254:1 1256:2
1 196:1 232:1 679:1 686:1 744:1 762:1 771:1 905:1 948:1 975:1 1010:1 1072:1 1215:1 1218:1 1222:1 1224:1 1227:1 1238:1 1239:1 1247:1 1248:1 1249:1 1252:1 1254:1 1256:2
1 679:1 1249:1 1256:7
1 196:1 232:1 679:1 686:1 744:1 762:1 771:1 905:1 948:1 975:1 1010:1 1072:1 1215:1 1218:1 1222:1 1224:1 1227:1 1238:1 1239:1 1247:1 1248:1 1249:1 1252:1 1254:1 1256:2
1 448:1 1241:1 1256:4
1 679:1 1249:1 1256:8
1 196:1 232:1 679:1 686:1 744:1 762:1 771:1 905:1 948:1 975:1 1010:1 1072:1 1215:1 1218:1 1222:1 1224:1 1227:1 1238:1 1239:1 1247:1 1248:1 1249:1 1252:1 1254:1 1256:2
1 184:1 209:1 679:1 699:1 905:1 948:1 969:1 1072:1 1220:1 1221:1 1223:1 1224:1 1239:1 1249:1 1253:1 1254:1 1256:2
1 184:1 679:1 1249:1 1253:1 1256:2
1 679:1 948:1 1249:1 1254:1 1256:2
1 184:1 679:1 686:1 771:1 905:1 948:1 969:1 1072:1 1222:1 1223:1 1224:1 1239:1 1249:1 1252:1 1253:1 1254:1 1256:3
1 196:1 232:1 679:1 686:1 744:1 762:1 771:1 905:1 948:1 975:1 1010:1 1072:1 1215:1 1218:1 1222:1 1224:1 1227:1 1238:1 1239:1 1247:1 1248:1 1249:1 1252:1 1254:1 1256:2
1 448:1 1241:1 1256:3
1 196:1 232:1 504:1 679:1 686:1 744:1 762:1 771:1 905:1 948:1 969:1 975:1 1010:1 1072:1 1215:1 1218:1 1222:1 1223:1 1224:1 1227:1 1230:1 1238:1 1239:1 1247:1 1248:1 1249:1 1252:1 1254:1 1256:9
1 448:1 1241:1 1256:6
1 196:1 232:1 679:1 686:1 744:1 762:1 771:1 905:1 948:1 975:1 1010:1 1072:1 1215:1 1218:1 1222:1 1224:1 1227:1 1238:1 1239:1 1247:1 1248:1 1249:1 1252:1 1254:1 1256:2
1 184:1 679:1 1249:1 1253:1 1256:5 1258:1
1 196:1 232:1 679:3 686:1 744:1 762:1 771:1 905:2 948:1 975:1 1010:1 1072:1 1215:1 1218:1 1222:1 1224:2 1227:1 1238:1 1239:1 1247:1 1248:1 1249:3 1252:1 1254:1 1256:7
1 196:1 232:1 679:1 686:1 744:1 762:1 771:1 905:1 948:1 975:1 1010:1 1072:1 1215:1 1218:1 1222:1 1224:1 1227:1 1238:1 1239:1 1247:1 1248:1 1249:1 1252:1 1254:1 1256:2
1 679:1 1072:1 1239:1 1249:1 1256:3
1 196:1 232:1 679:1 686:1 744:1 762:1 771:1 905:1 948:1 975:1 1010:1 1072:1 1215:1 1218:1 1222:1 1224:1 1227:1 1238:1 1239:1 1247:1 1248:1 1249:1 1252:1 1254:1 1256:2
1 184:1 679:1 1249:1 1253:1 1256:4
1 184:1 679:1 1249:1 1253:1 1256:5
1 196:1 232:1 679:2 686:1 744:1 762:1 771:1 905:1 948:1 975:1 1010:1 1072:1 1215:1 1218:1 1222:1 1224:1 1227:1 1238:1 1239:1 1247:1 1248:1 1249:2 1252:1 1254:1 1256:7
1 679:1 1249:1 1256:8
1 679:1 1249:1 1256:7
1 196:1 232:1 679:1 686:1 744:1 762:1 771:1 905:1 948:1 975:1 1010:1 1072:1 1215:1 1218:1 1222:1 1224:1 1227:1 1238:1 1239:1 1247:1 1248:1 1249:1 1252:1 1254:1 1256:2
1 196:1 232:1 679:1 686:1 744:1 762:1 771:1 905:1 948:1 975:1 1010:1 1072:1 1215:1 1218:1 1222:1 1224:1 1227:1 1238:1 1239:1 1247:1 1248:1 1249:1 1252:1 1254:1 1256:2
1 184:1 679:1 1249:1 1253:1 1256:3 1258:1
1 196:1 232:1 679:1 686:1 744:1 762:1 771:1 905:1 945:1 948:1 975:1 1010:1 1072:1 1215:1 1218:1 1222:1 1224:1 1227:1 1238:1 1239:1 1247:1 1248:1 1249:1 1251:1 1252:1 1254:1 1256:9
1 679:1 1072:1 1239:1 1249:1 1256:2
1 448:1 1241:1 1256:4
1 196:1 232:1 509:1 679:4 686:1 744:1 762:1 771:1 905:3 948:1 975:1 1010:1 1072:1 1215:1 1218:1 1222:1 1224:3 1227:1 1233:1 1238:1 1239:1 1247:1 1248:1 1249:4 1252:1 1254:1 1256:8
1 184:1 209:1 679:1 699:1 905:1 948:1 969:1 1072:1 1220:1 1221:1 1223:1 1224:1 1239:1 1249:1 1253:1 1254:1 1256:2
1 196:1 232:1 679:1 686:1 744:1 762:1 771:1 905:1 945:1 948:1 975:1 1010:1 1072:1 1215:1 1218:1 1222:1 1224:1 1227:1 1238:1 1239:1 1247:1 1248:1 1249:1 1251:1 1252:1 1254:1 1256:9
1 196:1 232:1 679:1 686:1 744:1 762:1 771:1 905:1 948:1 975:1 1010:1 1072:1 1215:1 1218:1 1222:1 1224:1 1227:1 1238:1 1239:1 1247:1 1248:1 1249:1 1252:1 1254:1 1256:2
1 184:1 209:1 679:1 699:1 905:1 948:1 969:1 1072:1 1220:1 1221:1 1223:1 1224:1 1239:1 1249:1 1253:1 1254:1 1256:2
1 184:1 209:1 679:1 699:1 905:1 948:1 969:1 1072:1 1220:1 1221:1 1223:1 1224:1 1239:1 1249:1 1253:1 1254:1 1256:2
1 196:1 232:1 509:1 679:4 686:1 744:1 762:1 771:1 905:3 948:1 975:1 1010:1 1072:1 1215:1 1218:1 1222:1 1224:3 1227:1 1233:1 1238:1 1239:1 1247:1 1248:1 1249:4 1252:1 1254:1 1256:8
1 196:1 232:1 679:1 686:1 744:1 762:1 771:1 905:1 948:1 975:1 1010:1 1072:1 1215:1 1218:1 1222:1 1224:1 1227:1 1238:1 1239:1 1247:1 1248:1 1249:1 1252:1 1254:1 1256:2
1 196:1 232:1 679:1 686:1 744:1 762:1 771:1 905:1 948:1 975:1 1010:1 1072:1 1215:1 1218:1 1222:1 1224:1 1227:1 1238:1 1239:1 1247:1 1248:1 1249:1 1252:1 1254:1 1256:2
1 679:1 771:1 905:1 1072:1 1222:1 1224:1 1239:1 1249:1 1256:2
1 196:1 232:1 679:1 686:1 744:1 762:1 771:1 905:1 948:1 975:1 1010:1 1072:1 1215:1 1218:1 1222:1 1224:1 1227:1 1238:1 1239:1 1247:1 1248:1 1249:1 1252:1 1254:1 1256:2
1 196:1 232:1 679:3 686:1 744:1 762:1 771:1 905:1 948:1 975:1 1010:1 1072:1 1215:1 1218:1 1222:1 1224:1 1227:1 1238:1 1239:1 1247:1 1248:1 1249:3 1252:1 1254:1 1256:7
1 196:1 232:1 679:1 686:1 744:1 762:1 771:1 905:1 948:1 975:1 1010:1 1072:1 1215:1 1218:1 1222:1 1224:1 1227:1 1238:1 1239:1 1247:1 1248:1 1249:1 1252:1 1254:1 1256:2
1 184:1 679:1 1249:1 1253:1 1256:4 1258:1
1 448:1 1241:1 1256:4
1 196:1 232:1 679:1 686:1 744:1 762:1 771:1 905:1 948:1 975:1 1010:1 1072:1 1215:1 1218:1 1222:1 1224:1 1227:1 1238:1 1239:1 1247:1 1248:1 1249:1 1252:1 1254:1 1256:2
1 184:1 209:1 679:1 699:1 905:1 948:1 969:1 1072:1 1220:1 1221:1 1223:1 1224:1 1239:1 1249:1 1253:1 1254:1 1256:2
1 196:1 232:1 679:1 686:1 744:1 762:1 771:1 905:1 948:1 975:1 1010:1 1072:1 1215:1 1218:1 1222:1 1224:1 1227:1 1238:1 1239:1 1247:1 1248:1 1249:1 1252:1 1254:1 1256:2
1 184:1 302:1 504:1 604:1 621:1 642:1 652:1 666:1 679:1 686:1 771:1 905:1 948:1 1185:1 1219:1 1222:1 1224:1 1229:1 1230:1 1231:1 1234:1 1237:1 1242:1 1249:1 1250:1 1252:1 1253:1 1254:1 1256:3
1 196:1 232:1 679:1 686:1 744:1 762:1 771:1 905:1 948:1 975:1 1010:1 1072:1 1215:1 1218:1 1222:1 1224:1 1227:1 1238:1 1239:1 1247:1 1248:1 1249:1 1252:1 1254:1 1256:2
1 184:1 679:1 1249:1 1253:1 1256:5 1258:1
1 196:1 232:1 509:1 679:3 686:1 744:1 762:1 771:1 905:3 948:1 975:1 1010:1 1072:1 1215:1 1218:1 1222:1 1224:3 1227:1 1233:1 1238:1 1239:1 1247:1 1248:1 1249:3 1252:1 1254:1 1256:6
1 184:1 679:1 1249:1 1253:1 1256:5
1 196:1 232:1 504:1 679:1 686:1 744:1 762:1 771:1 905:1 948:1 969:1 975:1 1010:1 1072:1 1215:1 1218:1 1222:1 1223:1 1224:1 1227:1 1230:1 1238:1 1239:1 1247:1 1248:1 1249:1 1252:1 1254:1 1256:9
1 196:1 232:1 504:1 679:1 686:1 744:1 762:1 771:1 905:1 948:1 969:1 975:1 1010:1 1072:1 1215:1 1218:1 1222:1 1223:1 1224:1 1227:1 1230:1 1238:1 1239:1 1247:1 1248:1 1249:1 1252:1 1254:1 1256:9
1 679:1 1249:1 1256:7
1 196:1 232:1 679:1 686:1 744:1 762:1 771:1 905:1 948:1 975:1 1010:1 1072:1 1215:1 1218:1 1222:1 1224:1 1227:1 1238:1 1239:1 1247:1 1248:1 1249:1 1252:1 1254:1 1256:2
1 196:1 232:1 504:1 679:1 686:1 744:1 762:1 771:1 905:1 948:1 969:1 975:1 1010:1 1072:1 1215:1 1218:1 1222:1 1223:1 1224:1 1227:1 1230:1 1238:1 1239:1 1247:1 1248:1 1249:1 1252:1 1254:1 1256:8
1 196:1 232:1 679:1 686:1 744:1 762:1 771:1 905:1 948:1 975:1 1010:1 1072:1 1215:1 1218:1 1222:1 1224:1 1227:1 1238:1 1239:1 1247:1 1248:1 1249:1 1252:1 1254:1 1256:2
1 184:1 679:1 905:1 1072:1 1224:1 1239:1 1249:1 1253:1 1256:3
1 679:1 1072:1 1239:1 1249:1 1256:3
1 196:1 232:1 679:1 686:1 744:1 762:1 771:1 905:1 948:1 975:1 1010:1 1072:1 1215:1 1218:1 1222:1 1224:1 1227:1 1238:1 1239:1 1247:1 1248:1 1249:1 1252:1 1254:1 1256:2
1 196:1 232:1 679:2 686:1 744:1 762:1 771:1 905:1 945:1 948:1 975:1 1010:1 1072:1 1215:1 1218:1 1222:1 1224:1 1227:1 1238:1 1239:1 1247:1 1248:1 1249:2 1251:1 1252:1 1254:1 1256:8
1 448:1 1241:1 1256:5
1 679:1 1249:1 1256:3
1 196:1 232:1 679:3 686:1 744:1 762:1 771:1 905:1 948:1 975:1 1010:1 1072:1 1215:1 1218:1 1222:1 1224:1 1227:1 1238:1 1239:1 1247:1 1248:1 1249:3 1252:1 1254:1 1256:7
1 196:1 232:1 504:1 679:1 686:1 744:1 762:1 771:1 905:1 945:1 948:1 969:1 975:1 1010:1 1072:1 1215:1 1218:1 1222:1 1223:1 1224:1 1227:1 1230:1 1238:1 1239:1 1247:1 1248:1 1249:1 1251:1 1252:1 1254:1 1256:9
1 679:1 1249:1 1256:5 1258:1
1 679:1 771:1 905:1 1222:1 1224:1 1249:1 1256:3
1 196:1 232:1 504:1 679:1 686:1 744:1 762:1 771:1 905:1 945:1 948:1 969:1 975:1 1010:1 1072:1 1215:1 1218:1 1222:1 1223:1 1224:1 1227:1 1230:1 1238:1 1239:1 1247:1 1248:1 1249:1 1251:1 1252:1 1254:1 1256:9
1 196:1 232:1 504:1 679:1 686:1 744:1 762:1 771:1 905:1 948:1 969:1 975:1 1010:1 1072:1 1215:1 1218:1 1222:1 1223:1 1224:1 1227:1 1230:1 1238:1 1239:1 1247:1 1248:1 1249:1 1252:1 1254:1 1256:9
1 679:1 1249:1 1256:5
1 184:1 209:1 679:1 699:1 905:1 948:1 969:1 1072:1 1220:1 1221:1 1223:1 1224:1 1239:1 1249:1 1253:1 1254:1 1256:2
1 196:1 232:1 679:1 686:1 744:1 762:1 771:1 905:1 948:1 975:1 1010:1 1072:1 1215:1 1218:1 1222:1 1224:1 1227:1 1238:1 1239:1 1247:1 1248:1 1249:1 1252:1 1254:1 1256:2
1 196:1 232:1 679:1 686:1 744:1 762:1 771:1 905:1 948:1 975:1 1010:1 1072:1 1215:1 1218:1 1222:1 1224:1 1227:1 1238:1 1239:1 1247:1 1248:1 1249:1 1252:1 1254:1 1256:2
1 196:1 232:1 679:1 686:1 744:1 762:1 771:1 905:1 948:1 975:1 1010:1 1072:1 1215:1 1218:1 1222:1 1224:1 1227:1 1238:1 1239:1 1247:1 1248:1 1249:1 1252:1 1254:1 1256:2
1 679:1 1249:1 1256:4
1 196:1 232:1 679:1 686:1 744:1 762:1 771:1 905:1 948:1 975:1 1010:1 1072:1 1215:1 1218:1 1222:1 1224:1 1227:1 1238:1 1239:1 1247:1 1248:1 1249:1 1252:1 1254:1 1256:2
1 196:1 232:1 679:1 686:1 744:1 762:1 771:1 905:1 948:1 975:1 1010:1 1072:1 1215:1 1218:1 1222:1 1224:1 1227:1 1238:1 1239:1 1247:1 1248:1 1249:1 1252:1 1254:1 1256:2
1 679:1 1249:1 1256:4
1 196:1 232:1 679:1 686:1 744:1 762:1 771:1 905:1 948:1 975:1 1010:1 1072:1 1215:1 1218:1 1222:1 1224:1 1227:1 1238:1 1239:1 1247:1 1248:1 1249:1 1252:1 1254:1 1256:2
1 196:1 232:1 679:1 686:1 744:1 762:1 771:1 905:1 948:1 975:1 1010:1 1072:1 1215:1 1218:1 1222:1 1224:1 1227:1 1238:1 1239:1 1247:1 1248:1 1249:1 1252:1 1254:1 1256:2
1 196:1 232:1 679:1 686:1 744:1 762:1 771:1 905:1 948:1 975:1 1010:1 1072:1 1215:1 1218:1 1222:1 1224:1 1227:1 1238:1 1239:1 1247:1 1248:1 1249:1 1252:1 1254:1 1256:2
1 196:1 232:1 679:1 686:1 744:1 762:1 771:1 905:1 948:1 975:1 1010:1 1072:1 1215:1 1218:1 1222:1 1224:1 1227:1 1238:1 1239:1 1247:1 1248:1 1249:1 1252:1 1254:1 1256:2
1 184:1 209:1 679:1 699:1 905:1 948:1 969:1 1072:1 1220:1 1221:1 1223:1 1224:1 1239:1 1249:1 1253:1 1254:1 1256:2
1 196:1 232:1 679:1 686:1 744:1 762:1 771:1 905:1 948:1 975:1 1010:1 1072:1 1215:1 1218:1 1222:1 1224:1 1227:1 1238:1 1239:1 1247:1 1248:1 1249:1 1252:1 1254:1 1256:2
1 196:1 232:1 679:1 686:1 744:1 762:1 771:1 905:1 948:1 975:1 1010:1 1072:1 1215:1 1218:1 1222:1 1224:1 1227:1 1238:1 1239:1 1247:1 1248:1 1249:1 1252:1 1254:1 1256:2
1 196:1 232:1 679:1 686:1 744:1 762:1 771:1 905:1 948:1 975:1 1010:1 1072:1 1215:1 1218:1 1222:1 1224:1 1227:1 1238:1 1239:1 1247:1 1248:1 1249:1 1252:1 1254:1 1256:2
1 196:1 232:1 679:1 686:1 744:1 762:1 771:1 905:1 945:1 948:1 975:1 1010:1 1072:1 1215:1 1218:1 1222:1 1224:1 1227:1 1238:1 1239:1 1247:1 1248:1 1249:1 1251:1 1252:1 1254:1 1256:9
1 448:1 1241:1 1256:5
1 679:1 771:1 1072:1 1222:1 1239:1 1249:1 1256:4
1 679:1 1249:1 1256:8
1 679:1 1072:1 1239:1 1249:1 1256:3
1 679:1 1249:1 1256:7 1258:1
1 196:1 232:1 679:3 686:1 744:1 762:1 771:1 905:1 945:1 948:1 975:1 1010:1 1072:1 1215:1 1218:1 1222:1 1224:1 1227:1 1238:1 1239:1 1247:1 1248:1 1249:3 1251:1 1252:1 1254:1 1256:7
1 196:1 232:1 504:1 679:1 686:1 744:1 762:1 771:1 905:1 948:1 969:1 975:1 1010:1 1072:1 1215:1 1218:1 1222:1 1223:1 1224:1 1227:1 1230:1 1238:1 1239:1 1247:1 1248:1 1249:1 1252:1 1254:1 1256:9
1 184:1 679:1 1249:1 1253:1 1256:4
1 196:1 232:1 679:1 686:1 744:1 762:1 771:1 905:1 948:1 975:1 1010:1 1072:1 1215:1 1218:1 1222:1 1224:1 1227:1 1238:1 1239:1 1247:1 1248:1 1249:1 1252:1 1254:1 1256:2
1 196:1 232:1 679:1 686:1 744:1 762:1 771:1 905:1 948:1 975:1 1010:1 1072:1 1215:1 1218:1 1222:1 1224:1 1227:1 1238:1 1239:1 1247:1 1248:1 1249:1 1252:1 1254:1 1256:2
1 448:1 1241:1 1256:4
1 679:1 948:1 1249:1 1254:1 1256:2
1 196:1 232:1 679:1 686:1 744:1 762:1 771:1 905:1 948:1 975:1 1010:1 1072:1 1215:1 1218:1 1222:1 1224:1 1227:1 1238:1 1239:1 1247:1 1248:1 1249:1 1252:1 1254:1 1256:2
1 196:1 232:1 504:1 679:1 686:1 744:1 762:1 771:1 905:1 948:1 969:1 975:1 1010:1 1072:1 1215:1 1218:1 1222:1 1223:1 1224:1 1227:1 1230:1 1238:1 1239:1 1247:1 1248:1 1249:1 1252:1 1254:1 1256:9
1 196:1 232:1 679:1 686:1 744:1 762:1 771:1 905:1 948:1 975:1 1010:1 1072:1 1215:1 1218:1 1222:1 1224:1 1227:1 1238:1 1239:1 1247:1 1248:1 1249:1 1252:1 1254:1 1256:2
1 196:1 232:1 679:3 686:1 744:1 762:1 771:1 905:2 948:1 975:1 1010:1 1072:1 1215:1 1218:1 1222:1 1224:2 1227:1 1238:1 1239:1 1247:1 1248:1 1249:3 1252:1 1254:1 1256:9
1 196:1 232:1 504:1 679:1 686:1 744:1 762:1 771:1 905:1 948:1 969:1 975:1 1010:1 1072:1 1215:1 1218:1 1222:1 1223:1 1224:1 1227:1 1230:1 1238:1 1239:1 1247:1 1248:1 1249:1 1252:1 1254:1 1256:9
1 196:1 232:1 679:1 686:1 744:1 762:1 771:1 905:1 948:1 975:1 1010:1 1072:1 1215:1 1218:1 1222:1 1224:1 1227:1 1238:1 1239:1 1247:1 1248:1 1249:1 1252:1 1254:1 1256:2
1 679:1 1249:1 1256:5 1258:1
1 196:1 232:1 679:1 686:1 744:1 762:1 771:1 905:1 945:1 948:1 975:1 1010:1 1072:1 1215:1 1218:1 1222:1 1224:1 1227:1 1238:1 1239:1 1247:1 1248:1 1249:1 1251:1 1252:1 1254:1 1256:9
1 196:1 232:1 679:1 686:1 744:1 762:1 771:1 905:1 948:1 975:1 1010:1 1072:1 1215:1 1218:1 1222:1 1224:1 1227:1 1238:1 1239:1 1247:1 1248:1 1249:1 1252:1 1254:1 1256:2
1 184:1 209:1 679:1 699:1 905:1 948:1 969:1 1072:1 1220:1 1221:1 1223:1 1224:1 1239:1 1249:1 1253:1 1254:1 1256:2
1 196:1 232:1 679:1 686:1 744:1 762:1 771:1 905:1 948:1 975:1 1010:1 1072:1 1215:1 1218:1 1222:1 1224:1 1227:1 1238:1 1239:1 1247:1 1248:1 1249:1 1252:1 1254:1 1256:2
1 196:1 232:1 679:2 686:1 744:1 762:1 771:1 905:1 948:1 975:1 1010:1 1072:1 1215:1 1218:1 1222:1 1224:1 1227:1 1238:1 1239:1 1247:1 1248:1 1249:2 1252:1 1254:1 1256:13
1 184:1 679:1 1249:1 1253:1 1256:5
1 196:1 232:1 679:1 686:1 744:1 762:1 771:1 905:1 948:1 975:1 1010:1 1072:1 1215:1 1218:1 1222:1 1224:1 1227:1 1238:1 1239:1 1247:1 1248:1 1249:1 1252:1 1254:1 1256:2
1 196:1 232:1 679:2 686:1 744:1 762:1 771:1 905:1 948:1 975:1 1010:1 1072:1 1215:1 1218:1 1222:1 1224:1 1227:1 1238:1 1239:1 1247:1 1248:1 1249:2 1252:1 1254:1 1256:7
1 184:1 679:1 1249:1 1253:1 1256:5
1 184:1 209:1 679:1 699:1 905:1 948:1 969:1 1072:1 1220:1 1221:1 1223:1 1224:1 1239:1 1249:1 1253:1 1254:1 1256:2
1 196:1 232:1 679:2 686:1 744:1 762:1 771:1 905:1 948:1 975:1 1010:1 1072:1 1215:1 1218:1 1222:1 1224:1 1227:1 1238:1 1239:1 1247:1 1248:1 1249:2 1252:1 1254:1 1256:7
1 184:1 209:1 679:1 699:1 905:1 948:1 969:1 1072:1 1220:1 1221:1 1223:1 1224:1 1239:1 1249:1 1253:1 1254:1 1256:2
1 168:1 196:1 504:1 679:1 686:1 771:1 905:1 948:1 969:1 1072:1 1215:1 1222:1 1223:1 1224:1 1230:1 1239:1 1240:1 1249:1 1252:1 1254:1 1256:9
1 679:3 686:1 771:1 905:1 1072:1 1222:1 1224:1 1239:1 1249:3 1252:1 1256:7
1 196:1 232:1 679:1 686:1 744:1 762:1 771:1 905:1 948:1 975:1 1010:1 1072:1 1215:1 1218:1 1222:1 1224:1 1227:1 1238:1 1239:1 1247:1 1248:1 1249:1 1252:1 1254:1 1256:2
1 196:1 232:1 679:1 686:1 744:1 762:1 771:1 905:1 948:1 975:1 1010:1 1072:1 1215:1 1218:1 1222:1 1224:1 1227:1 1238:1 1239:1 1247:1 1248:1 1249:1 1252:1 1254:1 1256:2
1 196:1 232:1 679:1 686:1 744:1 762:1 771:1 905:1 948:1 975:1 1010:1 1072:1 1215:1 1218:1 1222:1 1224:1 1227:1 1238:1 1239:1 1247:1 1248:1 1249:1 1252:1 1254:1 1256:2
1 196:1 232:1 679:1 686:1 744:1 762:1 771:1 905:1 948:1 975:1 1010:1 1072:1 1215:1 1218:1 1222:1 1224:1 1227:1 1238:1 1239:1 1247:1 1248:1 1249:1 1252:1 1254:1 1256:2
1 184:1 209:1 679:1 699:1 905:1 948:1 969:1 1072:1 1220:1 1221:1 1223:1 1224:1 1239:1 1249:1 1253:1 1254:1 1256:2
1 679:1 1249:1 1256:7
1 196:1 232:1 679:1 686:1 744:1 762:1 771:1 905:1 948:1 975:1 1010:1 1072:1 1215:1 1218:1 1222:1 1224:1 1227:1 1238:1 1239:1 1247:1 1248:1 1249:1 1252:1 1254:1 1256:2
1 679:1 1072:1 1239:1 1249:1 1256:3
1 196:1 232:1 679:1 686:1 744:1 762:1 771:1 905:1 948:1 975:1 1010:1 1072:1 1215:1 1218:1 1222:1 1224:1 1227:1 1238:1 1239:1 1247:1 1248:1 1249:1 1252:1 1254:1 1256:2
1 679:1 1072:1 1239:1 1249:1 1256:2
1 196:1 232:1 679:1 686:1 744:1 762:1 771:1 905:1 948:1 975:1 1010:1 1072:1 1215:1 1218:1 1222:1 1224:1 1227:1 1238:1 1239:1 1247:1 1248:1 1249:1 1252:1 1254:1 1256:2
1 196:1 232:1 679:1 686:1 744:1 762:1 771:1 905:1 948:1 975:1 1010:1 1072:1 1215:1 1218:1 1222:1 1224:1 1227:1 1238:1 1239:1 1247:1 1248:1 1249:1 1252:1 1254:1 1256:2
1 196:1 679:2 686:1 771:1 1072:1 1215:1 1222:1 1239:1 1249:2 1252:1 1256:7
1 448:1 1241:1 1256:4
1 679:1 948:1 1249:1 1254:1 1256:2
1 196:1 232:1 504:1 679:1 686:1 744:1 762:1 771:1 905:1 948:1 969:1 975:1 1010:1 1072:1 1215:1 1218:1 1222:1 1223:1 1224:1 1227:1 1230:1 1238:1 1239:1 1247:1 1248:1 1249:1 1252:1 1254:1 1256:8
1 679:1 1249:1 1256:7
1 448:1 1241:1 1256:4
1 679:1 1249:1 1256:7
1 196:1 232:1 679:1 686:1 744:1 762:1 771:1 905:1 948:1 975:1 1010:1 1072:1 1215:1 1218:1 1222:1 1224:1 1227:1 1238:1 1239:1 1247:1 1248:1 1249:1 1252:1 1254:1 1256:2
1 512:1 679:1 905:1 948:1 1224:1 1236:1 1249:1 1254:1 1256:2
1 679:1 1249:1 1256:6 1258:1
1 196:1 232:1 679:3 686:1 744:1 762:1 771:1 905:1 945:1 948:1 975:1 1010:1 1072:1 1215:1 1218:1 1222:1 1224:1 1227:1 1238:1 1239:1 1247:1 1248:1 1249:3 1251:1 1252:1 1254:1 1256:7 1258:1
1 679:1 699:1 905:1 1220:1 1224:1 1249:1 1256:4
1 184:1 679:1 1249:1 1253:1 1256:5
1 448:1 1241:1 1256:5
1 679:1 1072:1 1239:1 1249:1 1256:3
1 448:1 1241:1 1256:5
1 196:1 232:1 679:2 686:1 744:1 762:1 771:1 905:1 945:1 948:1 975:1 1010:1 1072:1 1215:1 1218:1 1222:1 1224:1 1227:1 1238:1 1239:1 1247:1 1248:1 1249:2 1251:1 1252:1 1254:1 1256:7
1 679:1 1249:1 1256:6 1258:1
1 679:1 1249:1 1256:5 1258:1
1 679:1 1249:1 1256:7
1 196:1 232:1 679:1 686:1 744:1 762:1 771:1 905:1 948:1 975:1 1010:1 1072:1 1215:1 1218:1 1222:1 1224:1 1227:1 1238:1 1239:1 1247:1 1248:1 1249:1 1252:1 1254:1 1256:2
1 679:1 1249:1 1256:8
1 196:1 232:1 679:1 686:1 744:1 762:1 771:1 905:1 948:1 975:1 1010:1 1072:1 1215:1 1218:1 1222:1 1224:1 1227:1 1238:1 1239:1 1247:1 1248:1 1249:1 1252:1 1254:1 1256:2
1 512:1 679:1 686:1 771:1 905:1 948:1 1072:1 1087:1 1222:1 1224:1 1236:1 1239:1 1249:1 1252:1 1254:1 1255:1 1256:3
1 679:1 1072:1 1239:1 1249:1 1256:3
1 196:1 232:1 679:1 686:1 744:1 762:1 771:1 905:1 948:1 975:1 1010:1 1072:1 1215:1 1218:1 1222:1 1224:1 1227:1 1238:1 1239:1 1247:1 1248:1 1249:1 1252:1 1254:1 1256:2
1 196:1 232:1 679:1 686:1 744:1 762:1 771:1 905:1 948:1 975:1 1010:1 1072:1 1215:1 1218:1 1222:1 1224:1 1227:1 1238:1 1239:1 1247:1 1248:1 1249:1 1252:1 1254:1 1256:2
1 196:1 232:1 679:3 686:1 744:1 762:1 771:1 905:1 948:1 975:1 1010:1 1072:1 1215:1 1218:1 1222:1 1224:1 1227:1 1238:1 1239:1 1247:1 1248:1 1249:3 1252:1 1254:1 1256:7
1 184:1 209:1 679:1 699:1 905:1 948:1 969:1 1072:1 1220:1 1221:1 1223:1 1224:1 1239:1 1249:1 1253:1 1254:1 1256:2
1 448:1 1241:1 1256:4
1 196:1 232:1 679:1 686:1 744:1 762:1 771:1 905:1 948:1 975:1 1010:1 1072:1 1215:1 1218:1 1222:1 1224:1 1227:1 1238:1 1239:1 1247:1 1248:1 1249:1 1252:1 1254:1 1256:2
1 184:1 679:1 1249:1 1253:1 1256:5
1 196:1 232:1 679:4 686:1 744:1 762:1 771:1 905:2 945:1 948:1 975:1 1010:1 1072:1 1215:1 1218:1 1222:1 1224:2 1227:1 1238:1 1239:1 1247:1 1248:1 1249:4 1251:1 1252:1 1254:1 1256:9
1 448:1 1241:1 1256:4
1 448:1 1241:1 1256:4
1 184:1 209:1 679:1 699:1 905:1 948:1 969:1 1072:1 1220:1 1221:1 1223:1 1224:1 1239:1 1249:1 1253:1 1254:1 1256:2
1 679:1 1249:1 1256:8
1 184:1 679:1 686:1 771:1 905:1 948:1 1072:1 1222:1 1224:1 1239:1 1249:1 1252:1 1253:1 1254:1 1256:3
1 184:1 679:1 1249:1 1253:1 1256:5
1 196:1 232:1 679:2 686:1 744:1 762:1 771:1 905:1 948:1 975:1 1010:1 1072:1 1215:1 1218:1 1222:1 1224:1 1227:1 1238:1 1239:1 1247:1 1248:1 1249:2 1252:1 1254:1 1256:7
1 448:1 1241:1 1256:4
1 184:1 209:1 679:1 699:1 905:1 948:1 969:1 1072:1 1220:1 1221:1 1223:1 1224:1 1239:1 1249:1 1253:1 1254:1 1256:2
1 196:1 232:1 679:1 686:1 744:1 762:1 771:1 905:1 948:1 975:1 1010:1 1072:1 1215:1 1218:1 1222:1 1224:1 1227:1 1238:1 1239:1 1247:1 1248:1 1249:1 1252:1 1254:1 1256:2
1 196:1 232:1 679:1 686:1 744:1 762:1 771:1 905:1 948:1 975:1 1010:1 1072:1 1215:1 1218:1 1222:1 1224:1 1227:1 1238:1 1239:1 1247:1 1248:1 1249:1 1252:1 1254:1 1256:2
1 679:1 1249:1 1256:7 1258:1
1 196:1 232:1 504:1 679:1 686:1 744:1 762:1 771:1 905:1 948:1 969:1 975:1 1010:1 1072:1 1215:1 1218:1 1222:1 1223:1 1224:1 1227:1 1230:1 1238:1 1239:1 1247:1 1248:1 1249:1 1252:1 1254:1 1256:9
1 196:1 232:1 679:1 686:1 744:1 762:1 771:1 905:1 948:1 975:1 1010:1 1072:1 1215:1 1218:1 1222:1 1224:1 1227:1 1238:1 1239:1 1247:1 1248:1 1249:1 1252:1 1254:1 1256:2
1 196:1 232:1 504:1 679:1 686:1 744:1 762:1 771:1 905:1 948:1 969:1 975:1 1010:1 1072:1 1215:1 1218:1 1222:1 1223:1 1224:1 1227:1 1230:1 1238:1 1239:1 1247:1 1248:1 1249:1 1252:1 1254:1 1256:9
1 184:1 679:1 1249:1 1253:1 1256:5 1258:1
1 196:1 232:1 504:1 679:1 686:1 744:1 762:1 771:1 905:1 948:1 969:1 975:1 1010:1 1072:1 1215:1 1218:1 1222:1 1223:1 1224:1 1227:1 1230:1 1238:1 1239:1 1247:1 1248:1 1249:1 1252:1 1254:1 1256:9
1 184:1 679:1 1249:1 1253:1 1256:5
1 196:1 232:1 679:1 686:1 744:1 762:1 771:1 905:1 948:1 975:1 1010:1 1072:1 1215:1 1218:1 1222:1 1224:1 1227:1 1238:1 1239:1 1247:1 1248:1 1249:1 1252:1 1254:1 1256:2
1 679:1 1249:1 1256:7 1258:1
1 196:1 232:1 679:1 686:1 744:1 762:1 771:1 905:1 948:1 975:1 1010:1 1072:1 1215:1 1218:1 1222:1 1224:1 1227:1 1238:1 1239:1 1247:1 1248:1 1249:1 1252:1 1254:1 1256:2
1 184:1 209:1 679:1 699:1 905:1 948:1 969:1 1072:1 1220:1 1221:1 1223:1 1224:1 1239:1 1249:1 1253:1 1254:1 1256:2
1 196:1 232:1 679:1 686:1 744:1 762:1 771:1 905:1 948:1 975:1 1010:1 1072:1 1215:1 1218:1 1222:1 1224:1 1227:1 1238:1 1239:1 1247:1 1248:1 1249:1 1252:1 1254:1 1256:2
1 679:1 699:1 1220:1 1249:1 1256:6
1 196:1 232:1 679:1 686:1 744:1 762:1 771:1 905:1 948:1 975:1 1010:1 1072:1 1215:1 1218:1 1222:1 1224:1 1227:1 1238:1 1239:1 1247:1 1248:1 1249:1 1252:1 1254:1 1256:2
1 679:1 771:1 905:1 948:1 1072:1 1222:1 1224:1 1239:1 1249:1 1254:1 1256:2
1 196:1 232:1 509:1 679:3 686:1 744:1 762:1 771:1 905:3 948:1 975:1 1010:1 1072:1 1215:1 1218:1 1222:1 1224:3 1227:1 1233:1 1238:1 1239:1 1247:1 1248:1 1249:3 1252:1 1254:1 1256:6
1 196:1 232:1 679:4 686:1 744:1 762:1 771:1 905:2 945:1 948:1 975:1 1010:1 1072:1 1215:1 1218:1 1222:1 1224:2 1227:1 1238:1 1239:1 1247:1 1248:1 1249:4 1251:1 1252:1 1254:1 1256:9 1258:1
1 196:1 232:1 679:1 686:1 744:1 762:1 771:1 905:1 948:1 975:1 1010:1 1072:1 1215:1 1218:1 1222:1 1224:1 1227:1 1238:1 1239:1 1247:1 1248:1 1249:1 1252:1 1254:1 1256:2
1 196:1 232:1 679:1 686:1 744:1 762:1 771:1 905:1 948:1 975:1 1010:1 1072:1 1215:1 1218:1 1222:1 1224:1 1227:1 1238:1 1239:1 1247:1 1248:1 1249:1 1252:1 1254:1 1256:2
1 196:1 232:1 679:1 686:1 744:1 762:1 771:1 905:1 948:1 975:1 1010:1 1072:1 1215:1 1218:1 1222:1 1224:1 1227:1 1238:1 1239:1 1247:1 1248:1 1249:1 1252:1 1254:1 1256:2
1 196:1 232:1 679:1 686:1 744:1 762:1 771:1 905:1 948:1 975:1 1010:1 1072:1 1215:1 1218:1 1222:1 1224:1 1227:1 1238:1 1239:1 1247:1 1248:1 1249:1 1252:1 1254:1 1256:2
1 196:1 232:1 509:1 679:4 686:1 744:1 762:1 771:1 905:3 948:1 975:1 1010:1 1072:1 1215:1 1218:1 1222:1 1224:3 1227:1 1233:1 1238:1 1239:1 1247:1 1248:1 1249:4 1252:1 1254:1 1256:8
1 448:1 1241:1 1256:5
1 196:1 232:1 679:1 686:1 744:1 762:1 771:1 905:1 945:1 948:1 975:1 1010:1 1072:1 1215:1 1218:1 1222:1 1224:1 1227:1 1238:1 1239:1 1247:1 1248:1 1249:1 1251:1 1252:1 1254:1 1256:9
1 196:1 232:1 679:3 686:1 744:1 762:1 771:1 905:1 948:1 975:1 1010:1 1072:1 1215:1 1218:1 1222:1 1224:1 1227:1 1238:1 1239:1 1247:1 1248:1 1249:3 1252:1 1254:1 1256:8
1 679:1 1249:1 1256:8
1 196:1 232:1 504:1 679:1 686:1 744:1 762:1 771:1 905:1 948:1 969:1 975:1 1010:1 1072:1 1215:1 1218:1 1222:1 1223:1 1224:1 1227:1 1230:1 1238:1 1239:1 1247:1 1248:1 1249:1 1252:1 1254:1 1256:8
1 168:1 184:1 268:1 283:1 383:1 504:1 592:1 679:1 686:1 771:1 869:1 905:1 907:1 948:1 969:1 987:1 1072:1 1102:1 1216:1 1217:1 1222:1 1223:1 1224:1 1225:1 1228:1 1230:1 1235:1 1239:1 1240:1 1243:1 1244:1 1246:1 1249:1 1252:1 1253:1 1254:1 1256:2
1 196:1 232:1 679:1 686:1 744:1 762:1 771:1 905:1 948:1 975:1 1010:1 1072:1 1215:1 1218:1 1222:1 1224:1 1227:1 1238:1 1239:1 1247:1 1248:1 1249:1 1252:1 1254:1 1256:2
1 679:1 1249:1 1256:7
1 184:1 679:1 1249:1 1253:1 1256:5
1 196:1 232:1 679:1 686:1 744:1 762:1 771:1 905:1 948:1 975:1 1010:1 1072:1 1215:1 1218:1 1222:1 1224:1 1227:1 1238:1 1239:1 1247:1 1248:1 1249:1 1252:1 1254:1 1256:2
1 196:1 232:1 679:1 686:1 744:1 762:1 771:1 905:1 948:1 975:1 1010:1 1072:1 1215:1 1218:1 1222:1 1224:1 1227:1 1238:1 1239:1 1247:1 1248:1 1249:1 1252:1 1254:1 1256:2
1 184:1 209:1 679:1 699:1 905:1 948:1 969:1 1072:1 1220:1 1221:1 1223:1 1224:1 1239:1 1249:1 1253:1 1254:1 1256:2
1 448:1 1241:1 1256:4
1 184:1 209:1 679:1 699:1 905:1 948:1 969:1 1072:1 1220:1 1221:1 1223:1 1224:1 1239:1 1249:1 1253:1 1254:1 1256:2
1 679:1 1249:1 1256:6 1258:1
1 196:1 232:1 679:3 686:1 744:1 762:1 771:1 905:1 948:1 975:1 1010:1 1072:1 1215:1 1218:1 1222:1 1224:1 1227:1 1238:1 1239:1 1247:1 1248:1 1249:3 1252:1 1254:1 1256:7
1 679:1 1249:1 1256:6 1258:1
1 184:1 679:1 1249:1 1253:1 1256:4
1 196:1 232:1 679:1 686:1 744:1 762:1 771:1 905:1 948:1 975:1 1010:1 1072:1 1215:1 1218:1 1222:1 1224:1 1227:1 1238:1 1239:1 1247:1 1248:1 1249:1 1252:1 1254:1 1256:2
1 196:1 232:1 679:1 686:1 744:1 762:1 771:1 905:1 948:1 975:1 1010:1 1072:1 1215:1 1218:1 1222:1 1224:1 1227:1 1238:1 1239:1 1247:1 1248:1 1249:1 1252:1 1254:1 1256:2
1 196:1 232:1 679:1 686:1 744:1 762:1 771:1 905:1 948:1 975:1 1010:1 1072:1 1215:1 1218:1 1222:1 1224:1 1227:1 1238:1 1239:1 1247:1 1248:1 1249:1 1252:1 1254:1 1256:2
1 184:1 209:1 679:1 699:1 905:1 948:1 969:1 1072:1 1220:1 1221:1 1223:1 1224:1 1239:1 1249:1 1253:1 1254:1 1256:2
1 448:1 1241:1 1256:5
1 196:1 232:1 679:1 686:1 744:1 762:1 771:1 905:1 948:1 975:1 1010:1 1072:1 1215:1 1218:1 1222:1 1224:1 1227:1 1238:1 1239:1 1247:1 1248:1 1249:1 1252:1 1254:1 1256:2
1 679:1 948:1 1249:1 1254:1 1256:2
1 196:1 232:1 679:1 686:1 744:1 762:1 771:1 905:1 948:1 975:1 1010:1 1072:1 1215:1 1218:1 1222:1 1224:1 1227:1 1238:1 1239:1 1247:1 1248:1 1249:1 1252:1 1254:1 1256:2
1 184:1 209:1 679:1 699:1 905:1 948:1 969:1 1072:1 1220:1 1221:1 1223:1 1224:1 1239:1 1249:1 1253:1 1254:1 1256:2
1 196:1 232:1 504:1 679:1 686:1 744:1 762:1 771:1 905:1 948:1 969:1 975:1 1010:1 1072:1 1215:1 1218:1 1222:1 1223:1 1224:1 1227:1 1230:1 1238:1 1239:1 1247:1 1248:1 1249:1 1252:1 1254:1 1256:9
1 184:1 679:1 1249:1 1253:1 1256:5
1 196:1 232:1 679:1 686:1 744:1 762:1 771:1 905:1 948:1 975:1 1010:1 1072:1 1215:1 1218:1 1222:1 1224:1 1227:1 1238:1 1239:1 1247:1 1248:1 1249:1 1252:1 1254:1 1256:2
1 196:1 232:1 679:1 686:1 744:1 762:1 771:1 905:1 948:1 975:1 1010:1 1072:1 1215:1 1218:1 1222:1 1224:1 1227:1 1238:1 1239:1 1247:1 1248:1 1249:1 1252:1 1254:1 1256:2
1 184:1 679:1 1249:1 1253:1 1256:7
1 184:1 209:1 679:1 699:1 905:1 948:1 969:1 1072:1 1220:1 1221:1 1223:1 1224:1 1239:1 1249:1 1253:1 1254:1 1256:2
1 679:1 1249:1 1256:7
1 196:1 232:1 679:1 686:1 744:1 762:1 771:1 905:1 948:1 975:1 1010:1 1072:1 1215:1 1218:1 1222:1 1224:1 1227:1 1238:1 1239:1 1247:1 1248:1 1249:1 1252:1 1254:1 1256:2
1 196:1 232:1 679:1 686:1 744:1 762:1 771:1 905:1 948:1 975:1 1010:1 1072:1 1215:1 1218:1 1222:1 1224:1 1227:1 1238:1 1239:1 1247:1 1248:1 1249:1 1252:1 1254:1 1256:2
1 196:1 232:1 679:1 686:1 744:1 762:1 771:1 905:1 948:1 975:1 1010:1 1072:1 1215:1 1218:1 1222:1 1224:1 1227:1 1238:1 1239:1 1247:1 1248:1 1249:1 1252:1 1254:1 1256:2
1 196:1 232:1 679:1 686:1 744:1 762:1 771:1 905:1 948:1 975:1 1010:1 1072:1 1215:1 1218:1 1222:1 1224:1 1227:1 1238:1 1239:1 1247:1 1248:1 1249:1 1252:1 1254:1 1256:2
1 512:1 679:1 771:1 905:1 948:1 1222:1 1224:1 1236:1 1249:1 1254:1 1256:2
1 512:1 679:1 686:1 771:1 905:1 948:1 1072:1 1087:1 1222:1 1224:1 1236:1 1239:1 1249:1 1252:1 1254:1 1255:1 1256:2
1 196:1 232:1 679:1 686:1 744:1 762:1 771:1 905:1 948:1 975:1 1010:1 1072:1 1215:1 1218:1 1222:1 1224:1 1227:1 1238:1 1239:1 1247:1 1248:1 1249:1 1252:1 1254:1 1256:2
1 196:1 232:1 679:1 686:1 744:1 762:1 771:1 905:1 948:1 975:1 1010:1 1072:1 1215:1 1218:1 1222:1 1224:1 1227:1 1238:1 1239:1 1247:1 1248:1 1249:1 1252:1 1254:1 1256:2
1 196:1 232:1 679:1 686:1 744:1 762:1 771:1 905:1 945:1 948:1 975:1 1010:1 1072:1 1215:1 1218:1 1222:1 1224:1 1227:1 1238:1 1239:1 1247:1 1248:1 1249:1 1251:1 1252:1 1254:1 1256:9
1 679:1 1072:1 1239:1 1249:1 1256:3
1 448:1 1241:1 1256:3
1 184:1 209:1 679:1 699:1 905:1 948:1 969:1 1072:1 1220:1 1221:1 1223:1 1224:1 1239:1 1249:1 1253:1 1254:1 1256:2
1 196:1 232:1 504:1 679:1 686:1 744:1 762:1 771:1 905:1 948:1 969:1 975:1 1010:1 1072:1 1215:1 1218:1 1222:1 1223:1 1224:1 1227:1 1230:1 1238:1 1239:1 1247:1 1248:1 1249:1 1252:1 1254:1 1256:9
1 679:1 771:1 905:1 948:1 1072:1 1222:1 1224:1 1239:1 1249:1 1254:1 1256:2
1 196:1 232:1 679:1 686:1 744:1 762:1 771:1 905:1 948:1 975:1 1010:1 1072:1 1215:1 1218:1 1222:1 1224:1 1227:1 1238:1 1239:1 1247:1 1248:1 1249:1 1252:1 1254:1 1256:7
1 196:1 232:1 504:1 679:1 686:1 744:1 762:1 771:1 905:1 948:1 969:1 975:1 1010:1 1072:1 1215:1 1218:1 1222:1 1223:1 1224:1 1227:1 1230:1 1238:1 1239:1 1247:1 1248:1 1249:1 1252:1 1254:1 1256:9
1 184:1 679:1 1249:1 1253:1 1256:5
1 196:1 232:1 679:1 686:1 744:1 762:1 771:1 905:1 948:1 975:1 1010:1 1072:1 1215:1 1218:1 1222:1 1224:1 1227:1 1238:1 1239:1 1247:1 1248:1 1249:1 1252:1 1254:1 1256:2
1 196:1 232:1 679:1 686:1 744:1 762:1 771:1 905:1 948:1 975:1 1010:1 1072:1 1215:1 1218:1 1222:1 1224:1 1227:1 1238:1 1239:1 1247:1 1248:1 1249:1 1252:1 1254:1 1256:2
1 196:1 232:1 504:1 679:1 686:1 744:1 762:1 771:1 905:1 945:1 948:1 969:1 975:1 1010:1 1072:1 1215:1 1218:1 1222:1 1223:1 1224:1 1227:1 1230:1 1238:1 1239:1 1247:1 1248:1 1249:1 1251:1 1252:1 1254:1 1256:9
1 679:1 771:1 905:1 948:1 1072:1 1222:1 1224:1 1239:1 1249:1 1254:1 1256:2
1 196:1 232:1 679:1 686:1 744:1 762:1 771:1 905:1 948:1 975:1 1010:1 1072:1 1215:1 1218:1 1222:1 1224:1 1227:1 1238:1 1239:1 1247:1 1248:1 1249:1 1252:1 1254:1 1256:2
1 184:1 504:2 679:5 905:2 948:1 969:1 1072:2 1102:1 1216:1 1223:1 1224:2 1230:2 1239:2 1249:5 1253:1 1254:1 1256:7
1 184:1 679:1 1249:1 1253:1 1256:5
1 196:1 232:1 679:1 686:1 744:1 762:1 771:1 905:1 948:1 975:1 1010:1 1072:1 1215:1 1218:1 1222:1 1224:1 1227:1 1238:1 1239:1 1247:1 1248:1 1249:1 1252:1 1254:1 1256:2
1 679:1 1249:1 1256:7 1258:1
1 184:1 679:1 1249:1 1253:1 1256:5
1 196:1 232:1 679:1 686:1 744:1 762:1 771:1 905:1 945:1 948:1 975:1 1010:1 1072:1 1215:1 1218:1 1222:1 1224:1 1227:1 1238:1 1239:1 1247:1 1248:1 1249:1 1251:1 1252:1 1254:1 1256:9
1 184:1 209:1 679:1 699:1 905:1 948:1 969:1 1072:1 1220:1 1221:1 1223:1 1224:1 1239:1 1249:1 1253:1 1254:1 1256:2
1 679:1 1249:1 1256:5
1 196:1 232:1 679:3 686:1 744:1 762:1 771:1 905:1 945:1 948:1 975:1 1010:1 1072:1 1215:1 1218:1 1222:1 1224:1 1227:1 1238:1 1239:1 1247:1 1248:1 1249:3 1251:1 1252:1 1254:1 1256:7 1258:1
1 679:1 1249:1 1256:7
1 196:1 232:1 679:1 686:1 744:1 762:1 771:1 905:1 948:1 975:1 1010:1 1072:1 1215:1 1218:1 1222:1 1224:1 1227:1 1238:1 1239:1 1247:1 1248:1 1249:1 1252:1 1254:1 1256:2
1 679:1 1249:1 1256:7
1 184:1 209:1 679:1 699:1 905:1 948:1 969:1 1072:1 1220:1 1221:1 1223:1 1224:1 1239:1 1249:1 1253:1 1254:1 1256:2
1 679:1 1072:1 1239:1 1249:1 1256:3
1 184:1 679:1 1249:1 1253:1 1256:5 1258:1
1 679:1 1249:1 1256:7
1 196:1 232:1 679:1 686:1 744:1 762:1 771:1 905:1 948:1 975:1 1010:1 1072:1 1215:1 1218:1 1222:1 1224:1 1227:1 1238:1 1239:1 1247:1 1248:1 1249:1 1252:1 1254:1 1256:2
1 196:1 232:1 504:1 679:1 686:1 744:1 762:1 771:1 905:1 948:1 969:1 975:1 1010:1 1072:1 1215:1 1218:1 1222:1 1223:1 1224:1 1227:1 1230:1 1238:1 1239:1 1247:1 1248:1 1249:1 1252:1 1254:1 1256:9
1 184:1 679:1 905:1 1072:1 1224:1 1239:1 1249:1 1253:1 1256:3
1 448:1 504:1 679:1 686:1 905:1 948:1 969:1 1072:1 1223:1 1224:1 1230:1 1239:1 1241:1 1249:1 1252:1 1254:1 1256:7
1 679:1 1072:1 1239:1 1249:1 1256:3
1 196:1 232:1 679:1 686:1 744:1 762:1 771:1 905:1 948:1 975:1 1010:1 1072:1 1215:1 1218:1 1222:1 1224:1 1227:1 1238:1 1239:1 1247:1 1248:1 1249:1 1252:1 1254:1 1256:2
1 196:1 232:1 679:1 686:1 744:1 762:1 771:1 905:1 948:1 975:1 1010:1 1072:1 1215:1 1218:1 1222:1 1224:1 1227:1 1238:1 1239:1 1247:1 1248:1 1249:1 1252:1 1254:1 1256:2
1 196:1 232:1 679:1 686:1 744:1 762:1 771:1 905:1 948:1 975:1 1010:1 1072:1 1215:1 1218:1 1222:1 1224:1 1227:1 1238:1 1239:1 1247:1 1248:1 1249:1 1252:1 1254:1 1256:2
1 196:1 232:1 504:1 679:1 686:1 744:1 762:1 771:1 905:1 945:1 948:1 969:1 975:1 1010:1 1072:1 1215:1 1218:1 1222:1 1223:1 1224:1 1227:1 1230:1 1238:1 1239:1 1247:1 1248:1 1249:1 1251:1 1252:1 1254:1 1256:9
1 679:1 905:1 948:1 1072:1 1224:1 1239:1 1249:1 1254:1 1256:2
1 184:1 679:1 686:1 771:1 905:1 948:1 969:1 1072:1 1222:1 1223:1 1224:1 1239:1 1249:1 1252:1 1253:1 1254:1 1256:4
1 679:1 1249:1 1256:8
1 196:1 232:1 679:1 686:1 744:1 762:1 771:1 905:1 948:1 975:1 1010:1 1072:1 1215:1 1218:1 1222:1 1224:1 1227:1 1238:1 1239:1 1247:1 1248:1 1249:1 1252:1 1254:1 1256:2
1 679:1 905:1 1072:1 1224:1 1239:1 1249:1 1256:4
1 679:1 686:1 771:1 905:1 948:1 1072:1 1222:1 1224:1 1239:1 1249:1 1252:1 1254:1 1256:1
1 184:1 209:1 679:1 699:1 905:1 948:1 969:1 1072:1 1220:1 1221:1 1223:1 1224:1 1239:1 1249:1 1253:1 1254:1 1256:2
1 196:1 232:1 679:1 686:1 744:1 762:1 771:1 905:1 948:1 975:1 1010:1 1072:1 1215:1 1218:1 1222:1 1224:1 1227:1 1238:1 1239:1 1247:1 1248:1 1249:1 1252:1 1254:1 1256:2
1 679:1 1249:1 1256:5 1258:1
1 679:1 1249:1 1256:7 1258:1
1 184:1 679:1 1249:1 1253:1 1256:4
1 196:1 232:1 679:1 686:1 744:1 762:1 771:1 905:1 948:1 975:1 1010:1 1072:1 1215:1 1218:1 1222:1 1224:1 1227:1 1238:1 1239:1 1247:1 1248:1 1249:1 1252:1 1254:1 1256:2
1 196:1 232:1 504:1 679:1 686:1 744:1 762:1 771:1 905:1 948:1 969:1 975:1 1010:1 1072:1 1215:1 1218:1 1222:1 1223:1 1224:1 1227:1 1230:1 1238:1 1239:1 1247:1 1248:1 1249:1 1252:1 1254:1 1256:8
1 196:1 232:1 504:1 679:1 686:1 744:1 762:1 771:1 905:1 948:1 969:1 975:1 1010:1 1072:1 1215:1 1218:1 1222:1 1223:1 1224:1 1227:1 1230:1 1238:1 1239:1 1247:1 1248:1 1249:1 1252:1 1254:1 1256:9
1 196:1 232:1 504:1 679:1 686:1 744:1 762:1 771:1 905:1 948:1 969:1 975:1 1010:1 1072:1 1215:1 1218:1 1222:1 1223:1 1224:1 1227:1 1230:1 1238:1 1239:1 1247:1 1248:1 1249:1 1252:1 1254:1 1256:9
1 196:1 232:1 504:1 679:1 686:1 744:1 762:1 771:1 905:1 948:1 969:1 975:1 1010:1 1072:1 1215:1 1218:1 1222:1 1223:1 1224:1 1227:1 1230:1 1238:1 1239:1 1247:1 1248:1 1249:1 1252:1 1254:1 1256:9
1 184:1 679:1 905:1 1072:1 1224:1 1239:1 1249:1 1253:1 1256:3
1 196:1 232:1 679:2 686:1 744:1 762:1 771:1 905:1 948:1 975:1 1010:1 1072:1 1215:1 1218:1 1222:1 1224:1 1227:1 1238:1 1239:1 1247:1 1248:1 1249:2 1252:1 1254:1 1256:11
1 196:1 232:1 679:1 686:1 744:1 762:1 771:1 905:1 945:1 948:1 975:1 1010:1 1072:1 1215:1 1218:1 1222:1 1224:1 1227:1 1238:1 1239:1 1247:1 1248:1 1249:1 1251:1 1252:1 1254:1 1256:9
1 184:1 209:1 679:1 699:1 905:1 948:1 969:1 1072:1 1220:1 1221:1 1223:1 1224:1 1239:1 1249:1 1253:1 1254:1 1256:2
1 196:1 232:1 679:1 686:1 744:1 762:1 771:1 905:1 948:1 975:1 1010:1 1072:1 1215:1 1218:1 1222:1 1224:1 1227:1 1238:1 1239:1 1247:1 1248:1 1249:1 1252:1 1254:1 1256:2
1 196:1 232:1 504:1 679:1 686:1 744:1 762:1 771:1 905:1 948:1 969:1 975:1 1010:1 1072:1 1215:1 1218:1 1222:1 1223:1 1224:1 1227:1 1230:1 1238:1 1239:1 1247:1 1248:1 1249:1 1252:1 1254:1 1256:9
1 196:1 232:1 679:1 686:1 744:1 762:1 771:1 905:1 948:1 975:1 1010:1 1072:1 1215:1 1218:1 1222:1 1224:1 1227:1 1238:1 1239:1 1247:1 1248:1 1249:1 1252:1 1254:1 1256:2
1 196:1 232:1 679:2 686:1 744:1 762:1 771:1 905:1 945:1 948:1 975:1 1010:1 1072:1 1215:1 1218:1 1222:1 1224:1 1227:1 1238:1 1239:1 1247:1 1248:1 1249:2 1251:1 1252:1 1254:1 1256:6 1258:1
1 504:1 679:1 771:1 1222:1 1230:1 1249:1 1256:3
1 679:1 1249:1 1256:7 1258:1
1 679:1 1249:1 1256:7
1 196:1 232:1 504:1 679:1 686:1 744:1 762:1 771:1 905:1 948:1 969:1 975:1 1010:1 1072:1 1215:1 1218:1 1222:1 1223:1 1224:1 1227:1 1230:1 1238:1 1239:1 1247:1 1248:1 1249:1 1252:1 1254:1 1256:9
1 196:1 232:1 679:1 686:1 744:1 762:1 771:1 905:1 948:1 975:1 1010:1 1072:1 1215:1 1218:1 1222:1 1224:1 1227:1 1238:1 1239:1 1247:1 1248:1 1249:1 1252:1 1254:1 1256:2
1 196:1 232:1 679:1 686:1 744:1 762:1 771:1 905:1 948:1 975:1 1010:1 1072:1 1215:1 1218:1 1222:1 1224:1 1227:1 1238:1 1239:1 1247:1 1248:1 1249:1 1252:1 1254:1 1256:2
1 196:1 232:1 679:1 686:1 744:1 762:1 771:1 905:1 948:1 975:1 1010:1 1072:1 1215:1 1218:1 1222:1 1224:1 1227:1 1238:1 1239:1 1247:1 1248:1 1249:1 1252:1 1254:1 1256:2
1 196:1 232:1 679:1 686:1 744:1 762:1 771:1 905:1 948:1 975:1 1010:1 1072:1 1215:1 1218:1 1222:1 1224:1 1227:1 1238:1 1239:1 1247:1 1248:1 1249:1 1252:1 1254:1 1256:2
1 196:1 232:1 679:1 686:1 744:1 762:1 771:1 905:1 948:1 975:1 1010:1 1072:1 1215:1 1218:1 1222:1 1224:1 1227:1 1238:1 1239:1 1247:1 1248:1 1249:1 1252:1 1254:1 1256:2
1 679:1 1072:1 1239:1 1249:1 1256:3 1258:1
1 448:1 1241:1 1256:4
1 679:1 1249:1 1256:7 1258:1
1 184:1 209:1 679:1 699:1 905:1 948:1 969:1 1072:1 1220:1 1221:1 1223:1 1224:1 1239:1 1249:1 1253:1 1254:1 1256:2
1 679:2 686:1 771:1 905:1 1072:1 1222:1 1224:1 1239:1 1249:2 1252:1 1256:6
1 184:1 209:1 679:1 699:1 905:1 948:1 969:1 1072:1 1220:1 1221:1 1223:1 1224:1 1239:1 1249:1 1253:1 1254:1 1256:2
1 196:1 232:1 679:1 686:1 744:1 762:1 771:1 905:1 948:1 975:1 1010:1 1072:1 1215:1 1218:1 1222:1 1224:1 1227:1 1238:1 1239:1 1247:1 1248:1 1249:1 1252:1 1254:1 1256:2
1 679:1 1249:1 1256:7 1258:1
1 448:1 1241:1 1256:4
1 679:1 1249:1 1256:8
1 512:1 679:1 686:1 771:1 905:1 948:1 1072:1 1087:1 1222:1 1224:1 1236:1 1239:1 1249:1 1252:1 1254:1 1255:1 1256:2
1 196:1 232:1 679:3 686:1 744:1 762:1 771:1 905:2 948:1 975:1 1010:1 1072:1 1215:1 1218:1 1222:1 1224:2 1227:1 1238:1 1239:1 1247:1 1248:1 1249:3 1252:1 1254:1 1256:9
1 679:1 905:1 948:1 1072:1 1224:1 1239:1 1249:1 1254:1 1256:2
1 196:1 232:1 679:1 686:1 744:1 762:1 771:1 905:1 945:1 948:1 975:1 1010:1 1072:1 1215:1 1218:1 1222:1 1224:1 1227:1 1238:1 1239:1 1247:1 1248:1 1249:1 1251:1 1252:1 1254:1 1256:2
1 448:1 1241:1 1256:3
1 196:1 679:3 686:1 771:1 1072:1 1215:1 1222:1 1239:1 1249:3 1252:1 1256:7
1 196:1 232:1 679:1 686:1 744:1 762:1 771:1 905:1 948:1 975:1 1010:1 1072:1 1215:1 1218:1 1222:1 1224:1 1227:1 1238:1 1239:1 1247:1 1248:1 1249:1 1252:1 1254:1 1256:2
1 679:1 1249:1 1256:5 1258:1
1 184:1 209:1 679:1 699:1 905:1 948:1 969:1 1072:1 1220:1 1221:1 1223:1 1224:1 1239:1 1249:1 1253:1 1254:1 1256:2
1 184:1 209:1 679:1 699:1 905:1 948:1 969:1 1072:1 1220:1 1221:1 1223:1 1224:1 1239:1 1249:1 1253:1 1254:1 1256:2
1 196:1 232:1 509:1 679:3 686:1 744:1 762:1 771:1 905:3 948:1 975:1 1010:1 1072:1 1215:1 1218:1 1222:1 1224:3 1227:1 1233:1 1238:1 1239:1 1247:1 1248:1 1249:3 1252:1 1254:1 1256:6
1 448:1 679:1 1241:1 1249:1 1256:6
1 196:1 232:1 679:1 686:1 744:1 762:1 771:1 905:1 948:1 975:1 1010:1 1072:1 1215:1 1218:1 1222:1 1224:1 1227:1 1238:1 1239:1 1247:1 1248:1 1249:1 1252:1 1254:1 1256:2
1 184:1 209:1 679:1 699:1 905:1 948:1 969:1 1072:1 1220:1 1221:1 1223:1 1224:1 1239:1 1249:1 1253:1 1254:1 1256:2
1 679:1 699:1 1220:1 1249:1 1256:5 1258:1
1 679:1 948:1 1249:1 1254:1 1256:2
1 196:1 232:1 679:1 686:1 744:1 762:1 771:1 905:1 948:1 975:1 1010:1 1072:1 1215:1 1218:1 1222:1 1224:1 1227:1 1238:1 1239:1 1247:1 1248:1 1249:1 1252:1 1254:1 1256:2
1 184:1 209:1 679:1 699:1 905:1 948:1 969:1 1072:1 1220:1 1221:1 1223:1 1224:1 1239:1 1249:1 1253:1 1254:1 1256:2
1 196:1 232:1 679:1 686:1 744:1 762:1 771:1 905:1 948:1 975:1 1010:1 1072:1 1215:1 1218:1 1222:1 1224:1 1227:1 1238:1 1239:1 1247:1 1248:1 1249:1 1252:1 1254:1 1256:2
1 196:1 232:1 504:1 679:1 686:1 744:1 762:1 771:1 905:1 948:1 969:1 975:1 1010:1 1072:1 1215:1 1218:1 1222:1 1223:1 1224:1 1227:1 1230:1 1238:1 1239:1 1247:1 1248:1 1249:1 1252:1 1254:1 1256:8
1 196:1 232:1 679:2 686:1 744:1 762:1 771:1 905:1 948:1 975:1 1010:1 1072:1 1215:1 1218:1 1222:1 1224:1 1227:1 1238:1 1239:1 1247:1 1248:1 1249:2 1252:1 1254:1 1256:6
1 679:1 905:1 1224:1 1249:1 1256:3
1 184:1 209:1 679:1 699:1 905:1 948:1 969:1 1072:1 1220:1 1221:1 1223:1 1224:1 1239:1 1249:1 1253:1 1254:1 1256:2
1 196:1 232:1 679:1 686:1 744:1 762:1 771:1 905:1 948:1 975:1 1010:1 1072:1 1215:1 1218:1 1222:1 1224:1 1227:1 1238:1 1239:1 1247:1 1248:1 1249:1 1252:1 1254:1 1256:2
1 184:1 679:1 1249:1 1253:1 1256:5
1 196:1 232:1 679:1 686:1 744:1 762:1 771:1 905:1 948:1 975:1 1010:1 1072:1 1215:1 1218:1 1222:1 1224:1 1227:1 1238:1 1239:1 1247:1 1248:1 1249:1 1252:1 1254:1 1256:2
1 196:1 232:1 679:1 686:1 744:1 762:1 771:1 905:1 945:1 948:1 975:1 1010:1 1072:1 1215:1 1218:1 1222:1 1224:1 1227:1 1238:1 1239:1 1247:1 1248:1 1249:1 1251:1 1252:1 1254:1 1256:10 1258:1
1 196:1 232:1 679:1 686:1 744:1 762:1 771:1 905:1 948:1 975:1 1010:1 1072:1 1215:1 1218:1 1222:1 1224:1 1227:1 1238:1 1239:1 1247:1 1248:1 1249:1 1252:1 1254:1 1256:2
1 184:1 679:1 1249:1 1253:1 1256:5
1 196:1 232:1 679:1 686:1 744:1 762:1 771:1 905:1 945:1 948:1 975:1 1010:1 1072:1 1215:1 1218:1 1222:1 1224:1 1227:1 1238:1 1239:1 1247:1 1248:1 1249:1 1251:1 1252:1 1254:1 1256:10 1258:1
1 184:1 209:1 679:1 699:1 905:1 948:1 969:1 1072:1 1220:1 1221:1 1223:1 1224:1 1239:1 1249:1 1253:1 1254:1 1256:2
1 196:1 232:1 679:1 686:1 744:1 762:1 771:1 905:1 948:1 975:1 1010:1 1072:1 1215:1 1218:1 1222:1 1224:1 1227:1 1238:1 1239:1 1247:1 1248:1 1249:1 1252:1 1254:1 1256:2
1 184:1 209:1 679:1 699:1 905:1 948:1 969:1 1072:1 1220:1 1221:1 1223:1 1224:1 1239:1 1249:1 1253:1 1254:1 1256:2
1 679:1 1249:1 1256:8
1 184:1 679:1 1249:1 1253:1 1256:4
1 196:1 232:1 679:1 686:1 744:1 762:1 771:1 905:1 948:1 975:1 1010:1 1072:1 1215:1 1218:1 1222:1 1224:1 1227:1 1238:1 1239:1 1247:1 1248:1 1249:1 1252:1 1254:1 1256:2
1 679:1 1249:1 1256:4
1 679:1 1249:1 1256:5 1258:1
1 184:1 679:1 905:1 1072:1 1224:1 1239:1 1249:1 1253:1 1256:3
1 512:1 679:1 686:1 771:1 905:1 948:1 1072:1 1087:1 1222:1 1224:1 1236:1 1239:1 1249:1 1252:1 1254:1 1255:1 1256:2
1 196:1 232:1 679:1 686:1 744:1 762:1 771:1 905:1 948:1 975:1 1010:1 1072:1 1215:1 1218:1 1222:1 1224:1 1227:1 1238:1 1239:1 1247:1 1248:1 1249:1 1252:1 1254:1 1256:8
1 196:1 232:1 679:1 686:1 744:1 762:1 771:1 905:1 948:1 975:1 1010:1 1072:1 1215:1 1218:1 1222:1 1224:1 1227:1 1238:1 1239:1 1247:1 1248:1 1249:1 1252:1 1254:1 1256:2
1 184:1 209:1 679:1 699:1 905:1 948:1 969:1 1072:1 1220:1 1221:1 1223:1 1224:1 1239:1 1249:1 1253:1 1254:1 1256:2
1 196:1 232:1 679:1 686:1 744:1 762:1 771:1 905:1 948:1 975:1 1010:1 1072:1 1215:1 1218:1 1222:1 1224:1 1227:1 1238:1 1239:1 1247:1 1248:1 1249:1 1252:1 1254:1 1256:2
1 184:1 679:1 686:1 771:1 905:1 948:1 969:1 1072:1 1222:1 1223:1 1224:1 1239:1 1249:1 1252:1 1253:1 1254:1 1256:4
1 196:1 232:1 679:1 686:1 744:1 762:1 771:1 905:1 948:1 975:1 1010:1 1072:1 1215:1 1218:1 1222:1 1224:1 1227:1 1238:1 1239:1 1247:1 1248:1 1249:1 1252:1 1254:1 1256:2
1 679:3 686:1 771:1 905:2 1072:1 1222:1 1224:2 1239:1 1249:3 1252:1 1256:9
1 196:1 232:1 509:1 679:4 686:1 744:1 762:1 771:1 905:3 945:1 948:1 975:1 1010:1 1072:1 1215:1 1218:1 1222:1 1224:3 1227:1 1233:1 1238:1 1239:1 1247:1 1248:1 1249:4 1251:1 1252:1 1254:1 1256:9
1 512:1 679:1 948:1 1236:1 1249:1 1254:1 1256:2
1 679:1 1249:1 1256:7
1 196:1 232:1 679:1 686:1 744:1 762:1 771:1 905:1 948:1 975:1 1010:1 1072:1 1215:1 1218:1 1222:1 1224:1 1227:1 1238:1 1239:1 1247:1 1248:1 1249:1 1252:1 1254:1 1256:2
1 196:1 232:1 679:1 686:1 744:1 762:1 771:1 905:1 945:1 948:1 975:1 1010:1 1072:1 1215:1 1218:1 1222:1 1224:1 1227:1 1238:1 1239:1 1247:1 1248:1 1249:1 1251:1 1252:1 1254:1 1256:10 1258:1
1 196:1 509:1 679:3 686:1 771:1 905:2 1072:1 1215:1 1222:1 1224:2 1233:1 1239:1 1249:3 1252:1 1256:6
1 196:1 232:1 679:2 686:1 744:1 762:1 771:1 905:1 948:1 975:1 1010:1 1072:1 1215:1 1218:1 1222:1 1224:1 1227:1 1238:1 1239:1 1247:1 1248:1 1249:2 1252:1 1254:1 1256:7
1 679:1 1249:1 1256:6
1 679:1 1249:1 1256:5 1258:1
1 196:1 232:1 679:1 686:1 744:1 762:1 771:1 905:1 948:1 975:1 1010:1 1072:1 1215:1 1218:1 1222:1 1224:1 1227:1 1238:1 1239:1 1247:1 1248:1 1249:1 1252:1 1254:1 1256:2
1 679:1 905:1 1072:1 1224:1 1239:1 1249:1 1256:2
1 679:1 1249:1 1256:5 1258:1
1 196:1 232:1 504:1 679:1 686:1 744:1 762:1 771:1 905:1 948:1 969:1 975:1 1010:1 1072:1 1215:1 1218:1 1222:1 1223:1 1224:1 1227:1 1230:1 1238:1 1239:1 1247:1 1248:1 1249:1 1252:1 1254:1 1256:9
1 448:1 1241:1 1256:3
1 196:1 232:1 679:2 686:1 744:1 762:1 771:1 905:1 948:1 975:1 1010:1 1072:1 1215:1 1218:1 1222:1 1224:1 1227:1 1238:1 1239:1 1247:1 1248:1 1249:2 1252:1 1254:1 1256:7
1 196:1 232:1 679:3 686:1 744:1 762:1 771:1 905:2 945:1 948:1 975:1 1010:1 1072:1 1215:1 1218:1 1222:1 1224:2 1227:1 1238:1 1239:1 1247:1 1248:1 1249:3 1251:1 1252:1 1254:1 1256:8 1258:1
1 196:1 232:1 679:1 686:1 744:1 762:1 771:1 905:1 948:1 975:1 1010:1 1072:1 1215:1 1218:1 1222:1 1224:1 1227:1 1238:1 1239:1 1247:1 1248:1 1249:1 1252:1 1254:1 1256:2
1 196:1 232:1 679:1 686:1 744:1 762:1 771:1 905:1 948:1 975:1 1010:1 1072:1 1215:1 1218:1 1222:1 1224:1 1227:1 1238:1 1239:1 1247:1 1248:1 1249:1 1252:1 1254:1 1256:2
1 196:1 232:1 679:1 686:1 744:1 762:1 771:1 905:1 948:1 975:1 1010:1 1072:1 1215:1 1218:1 1222:1 1224:1 1227:1 1238:1 1239:1 1247:1 1248:1 1249:1 1252:1 1254:1 1256:2
1 679:1 1249:1 1256:6
1 196:1 232:1 679:1 686:1 744:1 762:1 771:1 905:1 948:1 975:1 1010:1 1072:1 1215:1 1218:1 1222:1 1224:1 1227:1 1238:1 1239:1 1247:1 1248:1 1249:1 1252:1 1254:1 1256:2
1 184:1 209:1 679:1 699:1 905:1 948:1 969:1 1072:1 1220:1 1221:1 1223:1 1224:1 1239:1 1249:1 1253:1 1254:1 1256:2
1 196:1 232:1 504:1 679:1 686:1 744:1 762:1 771:1 905:1 948:1 969:1 975:1 1010:1 1072:1 1215:1 1218:1 1222:1 1223:1 1224:1 1227:1 1230:1 1238:1 1239:1 1247:1 1248:1 1249:1 1252:1 1254:1 1256:9
1 184:1 679:1 905:1 1072:1 1224:1 1239:1 1249:1 1253:1 1256:3
1 448:1 1241:1 1256:4
1 679:1 699:1 1220:1 1249:1 1256:5 1258:1
1 679:1 1249:1 1256:8
1 184:1 209:1 679:1 699:1 905:1 948:1 969:1 1072:1 1220:1 1221:1 1223:1 1224:1 1239:1 1249:1 1253:1 1254:1 1256:2
1 196:1 232:1 679:4 686:1 744:1 762:1 771:1 905:2 945:1 948:1 975:1 1010:1 1072:1 1215:1 1218:1 1222:1 1224:2 1227:1 1238:1 1239:1 1247:1 1248:1 1249:4 1251:1 1252:1 1254:1 1256:9 1258:1
1 679:1 948:1 1249:1 1254:1 1256:2
1 196:1 232:1 679:1 686:1 744:1 762:1 771:1 905:1 945:1 948:1 975:1 1010:1 1072:1 1215:1 1218:1 1222:1 1224:1 1227:1 1238:1 1239:1 1247:1 1248:1 1249:1 1251:1 1252:1 1254:1 1256:2 1258:1
1 679:1 771:1 905:1 1072:1 1222:1 1224:1 1239:1 1249:1 1256:4 1258:1
1 679:1 1249:1 1256:3
1 184:1 209:1 679:1 699:1 905:1 948:1 969:1 1072:1 1220:1 1221:1 1223:1 1224:1 1239:1 1249:1 1253:1 1254:1 1256:2
1 196:1 232:1 509:1 679:3 686:1 744:1 762:1 771:1 905:3 945:1 948:1 975:1 1010:1 1072:1 1215:1 1218:1 1222:1 1224:3 1227:1 1233:1 1238:1 1239:1 1247:1 1248:1 1249:3 1251:1 1252:1 1254:1 1256:6 1258:1
1 679:1 1249:1 1256:5 1258:1
1 196:1 232:1 679:1 686:1 744:1 762:1 771:1 905:1 948:1 975:1 1010:1 1072:1 1215:1 1218:1 1222:1 1224:1 1227:1 1238:1 1239:1 1247:1 1248:1 1249:1 1252:1 1254:1 1256:2
1 184:1 679:1 905:1 1072:1 1224:1 1239:1 1249:1 1253:1 1256:4
1 196:1 232:1 679:1 686:1 744:1 762:1 771:1 905:1 948:1 975:1 1010:1 1072:1 1215:1 1218:1 1222:1 1224:1 1227:1 1238:1 1239:1 1247:1 1248:1 1249:1 1252:1 1254:1 1256:2
1 196:1 232:1 504:1 679:1 686:1 744:1 762:1 771:1 905:1 948:1 969:1 975:1 1010:1 1072:1 1215:1 1218:1 1222:1 1223:1 1224:1 1227:1 1230:1 1238:1 1239:1 1247:1 1248:1 1249:1 1252:1 1254:1 1256:9
1 196:1 232:1 679:1 686:1 744:1 762:1 771:1 905:1 948:1 975:1 1010:1 1072:1 1215:1 1218:1 1222:1 1224:1 1227:1 1238:1 1239:1 1247:1 1248:1 1249:1 1252:1 1254:1 1256:2
1 196:1 232:1 679:1 686:1 744:1 762:1 771:1 905:1 948:1 975:1 1010:1 1072:1 1215:1 1218:1 1222:1 1224:1 1227:1 1238:1 1239:1 1247:1 1248:1 1249:1 1252:1 1254:1 1256:2
1 196:1 232:1 504:1 679:1 686:1 744:1 762:1 771:1 905:1 948:1 969:1 975:1 1010:1 1072:1 1215:1 1218:1 1222:1 1223:1 1224:1 1227:1 1230:1 1238:1 1239:1 1247:1 1248:1 1249:1 1252:1 1254:1 1256:9
1 196:1 232:1 679:3 686:1 744:1 762:1 771:1 905:1 948:1 975:1 1010:1 1072:1 1215:1 1218:1 1222:1 1224:1 1227:1 1238:1 1239:1 1247:1 1248:1 1249:3 1252:1 1254:1 1256:7
1 196:1 232:1 679:1 686:1 744:1 762:1 771:1 905:1 948:1 975:1 1010:1 1072:1 1215:1 1218:1 1222:1 1224:1 1227:1 1238:1 1239:1 1247:1 1248:1 1249:1 1252:1 1254:1 1256:2
1 196:1 232:1 679:1 686:1 744:1 762:1 771:1 905:1 948:1 975:1 1010:1 1072:1 1215:1 1218:1 1222:1 1224:1 1227:1 1238:1 1239:1 1247:1 1248:1 1249:1 1252:1 1254:1 1256:2
1 448:1 504:1 679:1 686:1 905:1 948:1 969:1 1072:1 1223:1 1224:1 1230:1 1239:1 1241:1 1249:1 1252:1 1254:1 1256:7
1 679:3 686:1 771:1 905:2 1072:1 1222:1 1224:2 1239:1 1249:3 1252:1 1256:9
1 679:1 1249:1 1256:8
1 679:1 1249:1 1256:7
1 512:1 679:1 686:1 771:1 905:1 948:1 1072:1 1087:1 1222:1 1224:1 1236:1 1239:1 1249:1 1252:1 1254:1 1255:1 1256:2
1 448:1 1241:1 1256:4
1 196:1 232:1 679:2 686:1 744:1 762:1 771:1 905:1 948:1 975:1 1010:1 1072:1 1215:1 1218:1 1222:1 1224:1 1227:1 1238:1 1239:1 1247:1 1248:1 1249:2 1252:1 1254:1 1256:6
1 448:1 1241:1 1256:3
1 184:1 679:1 1249:1 1253:1 1256:5 1258:1
1 196:1 232:1 679:3 686:1 744:1 762:1 771:1 905:2 945:1 948:1 975:1 1010:1 1072:1 1215:1 1218:1 1222:1 1224:2 1227:1 1238:1 1239:1 1247:1 1248:1 1249:3 1251:1 1252:1 1254:1 1256:8 1258:1
1 196:1 232:1 504:1 679:1 686:1 744:1 762:1 771:1 905:1 948:1 969:1 975:1 1010:1 1072:1 1215:1 1218:1 1222:1 1223:1 1224:1 1227:1 1230:1 1238:1 1239:1 1247:1 1248:1 1249:1 1252:1 1254:1 1256:8
1 184:1 209:1 679:1 699:1 905:1 948:1 969:1 1072:1 1220:1 1221:1 1223:1 1224:1 1239:1 1249:1 1253:1 1254:1 1256:2
1 196:1 232:1 504:1 679:1 686:1 744:1 762:1 771:1 905:1 948:1 969:1 975:1 1010:1 1072:1 1215:1 1218:1 1222:1 1223:1 1224:1 1227:1 1230:1 1238:1 1239:1 1247:1 1248:1 1249:1 1252:1 1254:1 1256:9
1 196:1 232:1 679:1 686:1 744:1 762:1 771:1 905:1 948:1 975:1 1010:1 1072:1 1215:1 1218:1 1222:1 1224:1 1227:1 1238:1 1239:1 1247:1 1248:1 1249:1 1252:1 1254:1 1256:2
1 196:1 232:1 679:1 686:1 744:1 762:1 771:1 905:1 948:1 975:1 1010:1 1072:1 1215:1 1218:1 1222:1 1224:1 1227:1 1238:1 1239:1 1247:1 1248:1 1249:1 1252:1 1254:1 1256:2
1 196:1 232:1 679:3 686:1 744:1 762:1 771:1 905:2 948:1 975:1 1010:1 1072:1 1215:1 1218:1 1222:1 1224:2 1227:1 1238:1 1239:1 1247:1 1248:1 1249:3 1252:1 1254:1 1256:9
1 679:1 1249:1 1256:5
1 196:1 232:1 504:1 679:1 686:1 744:1 762:1 771:1 905:1 948:1 969:1 975:1 1010:1 1072:1 1215:1 1218:1 1222:1 1223:1 1224:1 1227:1 1230:1 1238:1 1239:1 1247:1 1248:1 1249:1 1252:1 1254:1 1256:9
1 196:1 232:1 679:1 686:1 744:1 762:1 771:1 905:1 948:1 975:1 1010:1 1072:1 1215:1 1218:1 1222:1 1224:1 1227:1 1238:1 1239:1 1247:1 1248:1 1249:1 1252:1 1254:1 1256:2
1 679:1 948:1 1249:1 1254:1 1256:2
1 196:1 232:1 679:3 686:1 744:1 762:1 771:1 905:1 948:1 975:1 1010:1 1072:1 1215:1 1218:1 1222:1 1224:1 1227:1 1238:1 1239:1 1247:1 1248:1 1249:3 1252:1 1254:1 1256:7
1 196:1 232:1 679:1 686:1 744:1 762:1 771:1 905:1 948:1 975:1 1010:1 1072:1 1215:1 1218:1 1222:1 1224:1 1227:1 1238:1 1239:1 1247:1 1248:1 1249:1 1252:1 1254:1 1256:2
1 448:1 1241:1 1256:4
1 679:1 1249:1 1256:7
1 679:1 1072:1 1239:1 1249:1 1256:3
1 196:1 232:1 679:1 686:1 744:1 762:1 771:1 905:1 948:1 975:1 1010:1 1072:1 1215:1 1218:1 1222:1 1224:1 1227:1 1238:1 1239:1 1247:1 1248:1 1249:1 1252:1 1254:1 1256:2
1 196:1 232:1 679:1 686:1 744:1 762:1 771:1 905:1 948:1 975:1 1010:1 1072:1 1215:1 1218:1 1222:1 1224:1 1227:1 1238:1 1239:1 1247:1 1248:1 1249:1 1252:1 1254:1 1256:2
1 196:1 232:1 509:1 679:4 686:1 744:1 762:1 771:1 905:3 945:1 948:1 975:1 1010:1 1072:1 1215:1 1218:1 1222:1 1224:3 1227:1 1233:1 1238:1 1239:1 1247:1 1248:1 1249:4 1251:1 1252:1 1254:1 1256:9
1 679:1 1249:1 1256:8
1 184:1 209:1 679:1 699:1 905:1 948:1 969:1 1072:1 1220:1 1221:1 1223:1 1224:1 1239:1 1249:1 1253:1 1254:1 1256:2
1 196:1 232:1 679:1 686:1 744:1 762:1 771:1 905:1 945:1 948:1 975:1 1010:1 1072:1 1215:1 1218:1 1222:1 1224:1 1227:1 1238:1 1239:1 1247:1 1248:1 1249:1 1251:1 1252:1 1254:1 1256:9
1 196:1 232:1 679:1 686:1 744:1 762:1 771:1 905:1 948:1 975:1 1010:1 1072:1 1215:1 1218:1 1222:1 1224:1 1227:1 1238:1 1239:1 1247:1 1248:1 1249:1 1252:1 1254:1 1256:2
1 196:1 232:1 679:1 686:1 744:1 762:1 771:1 905:1 948:1 975:1 1010:1 1072:1 1215:1 1218:1 1222:1 1224:1 1227:1 1238:1 1239:1 1247:1 1248:1 1249:1 1252:1 1254:1 1256:2
1 196:1 232:1 679:1 686:1 744:1 762:1 771:1 905:1 948:1 975:1 1010:1 1072:1 1215:1 1218:1 1222:1 1224:1 1227:1 1238:1 1239:1 1247:1 1248:1 1249:1 1252:1 1254:1 1256:2
1 679:1 905:1 948:1 1224:1 1249:1 1254:1 1256:3
1 196:1 232:1 679:3 686:1 744:1 762:1 771:1 905:1 948:1 975:1 1010:1 1072:1 1215:1 1218:1 1222:1 1224:1 1227:1 1238:1 1239:1 1247:1 1248:1 1249:3 1252:1 1254:1 1256:8
1 184:1 679:1 905:1 1072:1 1224:1 1239:1 1249:1 1253:1 1256:3
1 196:1 232:1 679:1 686:1 744:1 762:1 771:1 905:1 948:1 975:1 1010:1 1072:1 1215:1 1218:1 1222:1 1224:1 1227:1 1238:1 1239:1 1247:1 1248:1 1249:1 1252:1 1254:1 1256:2
1 196:1 232:1 679:1 686:1 744:1 762:1 771:1 905:1 948:1 975:1 1010:1 1072:1 1215:1 1218:1 1222:1 1224:1 1227:1 1238:1 1239:1 1247:1 1248:1 1249:1 1252:1 1254:1 1256:2
1 196:1 232:1 679:1 686:1 744:1 762:1 771:1 905:1 948:1 975:1 1010:1 1072:1 1215:1 1218:1 1222:1 1224:1 1227:1 1238:1 1239:1 1247:1 1248:1 1249:1 1252:1 1254:1 1256:2
1 184:1 679:1 1249:1 1253:1 1256:5
1 196:1 232:1 679:1 686:1 744:1 762:1 771:1 905:1 948:1 975:1 1010:1 1072:1 1215:1 1218:1 1222:1 1224:1 1227:1 1238:1 1239:1 1247:1 1248:1 1249:1 1252:1 1254:1 1256:2
1 679:1 1249:1 1256:7
1 196:1 232:1 679:1 686:1 744:1 762:1 771:1 905:1 948:1 975:1 1010:1 1072:1 1215:1 1218:1 1222:1 1224:1 1227:1 1238:1 1239:1 1247:1 1248:1 1249:1 1252:1 1254:1 1256:2
1 184:1 209:1 679:1 699:1 905:1 948:1 969:1 1072:1 1220:1 1221:1 1223:1 1224:1 1239:1 1249:1 1253:1 1254:1 1256:2
1 196:1 232:1 504:1 679:1 686:1 744:1 762:1 771:1 905:1 948:1 969:1 975:1 1010:1 1072:1 1215:1 1218:1 1222:1 1223:1 1224:1 1227:1 1230:1 1238:1 1239:1 1247:1 1248:1 1249:1 1252:1 1254:1 1256:9
1 679:1 1249:1 1256:4
1 184:1 209:1 679:1 699:1 905:1 948:1 969:1 1072:1 1220:1 1221:1 1223:1 1224:1 1239:1 1249:1 1253:1 1254:1 1256:2
1 196:1 232:1 679:1 686:1 744:1 762:1 771:1 905:1 948:1 975:1 1010:1 1072:1 1215:1 1218:1 1222:1 1224:1 1227:1 1238:1 1239:1 1247:1 1248:1 1249:1 1252:1 1254:1 1256:2
1 679:1 905:1 1072:1 1224:1 1239:1 1249:1 1256:4
1 196:1 232:1 509:1 679:4 686:1 744:1 762:1 771:1 905:3 948:1 975:1 1010:1 1072:1 1215:1 1218:1 1222:1 1224:3 1227:1 1233:1 1238:1 1239:1 1247:1 1248:1 1249:4 1252:1 1254:1 1256:9
1 196:1 232:1 679:1 686:1 744:1 762:1 771:1 905:1 948:1 975:1 1010:1 1072:1 1215:1 1218:1 1222:1 1224:1 1227:1 1238:1 1239:1 1247:1 1248:1 1249:1 1252:1 1254:1 1256:2
1 196:1 232:1 679:1 686:1 744:1 762:1 771:1 905:1 948:1 975:1 1010:1 1072:1 1215:1 1218:1 1222:1 1224:1 1227:1 1238:1 1239:1 1247:1 1248:1 1249:1 1252:1 1254:1 1256:2
1 196:1 232:1 679:3 686:1 744:1 762:1 771:1 905:1 945:1 948:1 975:1 1010:1 1072:1 1215:1 1218:1 1222:1 1224:1 1227:1 1238:1 1239:1 1247:1 1248:1 1249:3 1251:1 1252:1 1254:1 1256:7 1258:1
1 196:1 232:1 504:1 679:1 686:1 744:1 762:1 771:1 905:1 948:1 969:1 975:1 1010:1 1072:1 1215:1 1218:1 1222:1 1223:1 1224:1 1227:1 1230:1 1238:1 1239:1 1247:1 1248:1 1249:1 1252:1 1254:1 1256:9
1 196:1 232:1 679:1 686:1 744:1 762:1 771:1 905:1 948:1 975:1 1010:1 1072:1 1215:1 1218:1 1222:1 1224:1 1227:1 1238:1 1239:1 1247:1 1248:1 1249:1 1252:1 1254:1 1256:2
1 679:1 1249:1 1256:7 1258:1
1 679:1 1249:1 1256:7
1 184:1 679:1 1249:1 1253:1 1256:5 1258:1
1 196:1 232:1 679:1 686:1 744:1 762:1 771:1 905:1 948:1 975:1 1010:1 1072:1 1215:1 1218:1 1222:1 1224:1 1227:1 1238:1 1239:1 1247:1 1248:1 1249:1 1252:1 1254:1 1256:2
1 196:1 232:1 504:1 679:1 686:1 744:1 762:1 771:1 905:1 945:1 948:1 969:1 975:1 1010:1 1072:1 1215:1 1218:1 1222:1 1223:1 1224:1 1227:1 1230:1 1238:1 1239:1 1247:1 1248:1 1249:1 1251:1 1252:1 1254:1 1256:9
1 679:1 1249:1 1256:8
1 679:1 1249:1 1256:5
1 196:1 232:1 679:1 686:1 744:1 762:1 771:1 905:1 948:1 975:1 1010:1 1072:1 1215:1 1218:1 1222:1 1224:1 1227:1 1238:1 1239:1 1247:1 1248:1 1249:1 1252:1 1254:1 1256:2
1 196:1 232:1 679:1 686:1 744:1 762:1 771:1 905:1 948:1 975:1 1010:1 1072:1 1215:1 1218:1 1222:1 1224:1 1227:1 1238:1 1239:1 1247:1 1248:1 1249:1 1252:1 1254:1 1256:2
1 196:1 232:1 679:1 686:1 744:1 762:1 771:1 905:1 948:1 975:1 1010:1 1072:1 1215:1 1218:1 1222:1 1224:1 1227:1 1238:1 1239:1 1247:1 1248:1 1249:1 1252:1 1254:1 1256:2
1 504:1 679:1 771:1 1222:1 1230:1 1249:1 1256:3
1 196:1 232:1 679:1 686:1 744:1 762:1 771:1 905:1 948:1 975:1 1010:1 1072:1 1215:1 1218:1 1222:1 1224:1 1227:1 1238:1 1239:1 1247:1 1248:1 1249:1 1252:1 1254:1 1256:2
1 184:1 209:1 679:1 699:1 905:1 948:1 969:1 1072:1 1220:1 1221:1 1223:1 1224:1 1239:1 1249:1 1253:1 1254:1 1256:2
1 196:1 232:1 509:1 679:4 686:1 744:1 762:1 771:1 905:3 948:1 975:1 1010:1 1072:1 1215:1 1218:1 1222:1 1224:3 1227:1 1233:1 1238:1 1239:1 1247:1 1248:1 1249:4 1252:1 1254:1 1256:8
1 196:1 232:1 679:1 686:1 744:1 762:1 771:1 905:1 948:1 975:1 1010:1 1072:1 1215:1 1218:1 1222:1 1224:1 1227:1 1238:1 1239:1 1247:1 1248:1 1249:1 1252:1 1254:1 1256:2
1 679:1 1249:1 1256:7 1258:1
1 448:1 1241:1 1256:5
1 196:1 232:1 504:1 679:1 686:1 744:1 762:1 771:1 905:1 948:1 969:1 975:1 1010:1 1072:1 1215:1 1218:1 1222:1 1223:1 1224:1 1227:1 1230:1 1238:1 1239:1 1247:1 1248:1 1249:1 1252:1 1254:1 1256:9
1 196:1 232:1 679:1 686:1 744:1 762:1 771:1 905:1 948:1 975:1 1010:1 1072:1 1215:1 1218:1 1222:1 1224:1 1227:1 1238:1 1239:1 1247:1 1248:1 1249:1 1252:1 1254:1 1256:2
1 196:1 232:1 504:1 679:1 686:1 744:1 762:1 771:1 905:1 945:1 948:1 969:1 975:1 1010:1 1072:1 1215:1 1218:1 1222:1 1223:1 1224:1 1227:1 1230:1 1238:1 1239:1 1247:1 1248:1 1249:1 1251:1 1252:1 1254:1 1256:9
1 196:1 232:1 504:1 679:1 686:1 744:1 762:1 771:1 905:1 948:1 969:1 975:1 1010:1 1072:1 1215:1 1218:1 1222:1 1223:1 1224:1 1227:1 1230:1 1238:1 1239:1 1247:1 1248:1 1249:1 1252:1 1254:1 1256:9
1 196:1 232:1 679:1 686:1 744:1 762:1 771:1 905:1 948:1 975:1 1010:1 1072:1 1215:1 1218:1 1222:1 1224:1 1227:1 1238:1 1239:1 1247:1 1248:1 1249:1 1252:1 1254:1 1256:2
1 679:1 1249:1 1256:7 1258:1
1 196:1 232:1 679:3 686:1 744:1 762:1 771:1 905:2 948:1 975:1 1010:1 1072:1 1215:1 1218:1 1222:1 1224:2 1227:1 1238:1 1239:1 1247:1 1248:1 1249:3 1252:1 1254:1 1256:8
1 196:1 232:1 679:1 686:1 744:1 762:1 771:1 905:1 948:1 975:1 1010:1 1072:1 1215:1 1218:1 1222:1 1224:1 1227:1 1238:1 1239:1 1247:1 1248:1 1249:1 1252:1 1254:1 1256:2
1 184:1 209:1 679:1 699:1 905:1 948:1 969:1 1072:1 1220:1 1221:1 1223:1 1224:1 1239:1 1249:1 1253:1 1254:1 1256:2
1 679:1 1249:1 1256:7 1258:1
1 196:1 232:1 679:1 686:1 744:1 762:1 771:1 905:1 948:1 975:1 1010:1 1072:1 1215:1 1218:1 1222:1 1224:1 1227:1 1238:1 1239:1 1247:1 1248:1 1249:1 1252:1 1254:1 1256:2
1 512:1 679:1 686:1 771:1 905:1 948:1 1072:1 1087:1 1222:1 1224:1 1236:1 1239:1 1249:1 1252:1 1254:1 1255:1 1256:2
1 196:1 232:1 504:1 679:1 686:1 744:1 762:1 771:1 905:1 948:1 969:1 975:1 1010:1 1072:1 1215:1 1218:1 1222:1 1223:1 1224:1 1227:1 1230:1 1238:1 1239:1 1247:1 1248:1 1249:1 1252:1 1254:1 1256:9
1 196:1 232:1 504:1 679:1 686:1 744:1 762:1 771:1 905:1 945:1 948:1 969:1 975:1 1010:1 1072:1 1215:1 1218:1 1222:1 1223:1 1224:1 1227:1 1230:1 1238:1 1239:1 1247:1 1248:1 1249:1 1251:1 1252:1 1254:1 1256:9
1 196:1 232:1 679:3 686:1 744:1 762:1 771:1 905:1 945:1 948:1 975:1 1010:1 1072:1 1215:1 1218:1 1222:1 1224:1 1227:1 1238:1 1239:1 1247:1 1248:1 1249:3 1251:1 1252:1 1254:1 1256:7 1258:1
1 679:1 1249:1 1256:8
1 196:1 232:1 679:1 686:1 744:1 762:1 771:1 905:1 945:1 948:1 975:1 1010:1 1072:1 1215:1 1218:1 1222:1 1224:1 1227:1 1238:1 1239:1 1247:1 1248:1 1249:1 1251:1 1252:1 1254:1 1256:8
1 196:1 232:1 679:1 686:1 744:1 762:1 771:1 905:1 948:1 975:1 1010:1 1072:1 1215:1 1218:1 1222:1 1224:1 1227:1 1238:1 1239:1 1247:1 1248:1 1249:1 1252:1 1254:1 1256:2
1 196:1 232:1 679:1 686:1 744:1 762:1 771:1 905:1 948:1 975:1 1010:1 1072:1 1215:1 1218:1 1222:1 1224:1 1227:1 1238:1 1239:1 1247:1 1248:1 1249:1 1252:1 1254:1 1256:2
1 196:1 232:1 679:1 686:1 744:1 762:1 771:1 905:1 945:1 948:1 975:1 1010:1 1072:1 1215:1 1218:1 1222:1 1224:1 1227:1 1238:1 1239:1 1247:1 1248:1 1249:1 1251:1 1252:1 1254:1 1256:9
1 196:1 232:1 679:1 686:1 744:1 762:1 771:1 905:1 948:1 975:1 1010:1 1072:1 1215:1 1218:1 1222:1 1224:1 1227:1 1238:1 1239:1 1247:1 1248:1 1249:1 1252:1 1254:1 1256:2
1 679:1 1249:1 1256:8
1 196:1 232:1 504:1 679:1 686:1 744:1 762:1 771:1 905:1 948:1 969:1 975:1 1010:1 1072:1 1215:1 1218:1 1222:1 1223:1 1224:1 1227:1 1230:1 1238:1 1239:1 1247:1 1248:1 1249:1 1252:1 1254:1 1256:9
1 184:1 679:1 1249:1 1253:1 1256:5
1 679:1 771:1 1072:1 1222:1 1239:1 1249:1 1256:4
1 504:1 679:1 686:1 905:1 948:1 969:1 1072:1 1223:1 1224:1 1230:1 1239:1 1249:1 1252:1 1254:1 1256:6
1 196:1 232:1 679:1 686:1 744:1 762:1 771:1 905:1 948:1 975:1 1010:1 1072:1 1215:1 1218:1 1222:1 1224:1 1227:1 1238:1 1239:1 1247:1 1248:1 1249:1 1252:1 1254:1 1256:2
1 196:1 232:1 679:2 686:1 744:1 762:1 771:1 905:1 945:1 948:1 975:1 1010:1 1072:1 1215:1 1218:1 1222:1 1224:1 1227:1 1238:1 1239:1 1247:1 1248:1 1249:2 1251:1 1252:1 1254:1 1256:8
1 196:1 232:1 679:1 686:1 744:1 762:1 771:1 905:1 948:1 975:1 1010:1 1072:1 1215:1 1218:1 1222:1 1224:1 1227:1 1238:1 1239:1 1247:1 1248:1 1249:1 1252:1 1254:1 1256:2
1 679:1 1249:1 1256:7
1 196:1 232:1 504:1 679:1 686:1 744:1 762:1 771:1 905:1 948:1 969:1 975:1 1010:1 1072:1 1215:1 1218:1 1222:1 1223:1 1224:1 1227:1 1230:1 1238:1 1239:1 1247:1 1248:1 1249:1 1252:1 1254:1 1256:9
1 679:1 1072:1 1239:1 1249:1 1256:3
1 184:1 209:1 679:1 699:1 905:1 948:1 969:1 1072:1 1220:1 1221:1 1223:1 1224:1 1239:1 1249:1 1253:1 1254:1 1256:2
1 196:1 232:1 679:3 686:1 744:1 762:1 771:1 905:1 948:1 975:1 1010:1 1072:1 1215:1 1218:1 1222:1 1224:1 1227:1 1238:1 1239:1 1247:1 1248:1 1249:3 1252:1 1254:1 1256:7
1 196:1 232:1 679:2 686:1 744:1 762:1 771:1 905:1 948:1 1072:1 1215:1 1218:1 1222:1 1224:1 1238:1 1239:1 1248:1 1249:2 1252:1 1254:1 1256:7
1 196:1 232:1 679:2 686:1 744:1 762:1 771:1 905:1 945:1 948:1 975:1 1010:1 1072:1 1215:1 1218:1 1222:1 1224:1 1227:1 1238:1 1239:1 1247:1 1248:1 1249:2 1251:1 1252:1 1254:1 1256:7
1 196:1 232:1 679:1 686:1 744:1 762:1 771:1 905:1 948:1 975:1 1010:1 1072:1 1215:1 1218:1 1222:1 1224:1 1227:1 1238:1 1239:1 1247:1 1248:1 1249:1 1252:1 1254:1 1256:2
1 604:1 621:1 642:1 652:1 666:1 679:1 771:1 905:1 1063:1 1072:1 1185:1 1219:1 1222:1 1224:1 1229:1 1231:1 1232:1 1234:1 1239:1 1242:1 1249:1 1250:1 1256:3 1258:1
1 679:1 1072:1 1239:1 1249:1 1256:3
1 196:1 232:1 679:3 686:1 744:1 762:1 771:1 905:1 945:1 948:1 975:1 1010:1 1072:1 1215:1 1218:1 1222:1 1224:1 1227:1 1238:1 1239:1 1247:1 1248:1 1249:3 1251:1 1252:1 1254:1 1256:7
1 679:1 1249:1 1256:8
1 679:1 1249:1 1256:3
1 196:1 232:1 679:1 686:1 744:1 762:1 771:1 905:1 948:1 975:1 1010:1 1072:1 1215:1 1218:1 1222:1 1224:1 1227:1 1238:1 1239:1 1247:1 1248:1 1249:1 1252:1 1254:1 1256:2
1 196:1 232:1 679:1 686:1 744:1 762:1 771:1 905:1 948:1 975:1 1010:1 1072:1 1215:1 1218:1 1222:1 1224:1 1227:1 1238:1 1239:1 1247:1 1248:1 1249:1 1252:1 1254:1 1256:2
1 512:1 679:1 686:1 771:1 905:1 948:1 1072:1 1087:1 1222:1 1224:1 1236:1 1239:1 1249:1 1252:1 1254:1 1255:1 1256:2
1 184:1 679:1 1249:1 1253:1 1256:5 1258:1
1 196:1 232:1 679:1 686:1 744:1 762:1 771:1 905:1 948:1 975:1 1010:1 1072:1 1215:1 1218:1 1222:1 1224:1 1227:1 1238:1 1239:1 1247:1 1248:1 1249:1 1252:1 1254:1 1256:2
1 196:1 232:1 679:1 686:1 744:1 762:1 771:1 905:1 948:1 975:1 1010:1 1072:1 1215:1 1218:1 1222:1 1224:1 1227:1 1238:1 1239:1 1247:1 1248:1 1249:1 1252:1 1254:1 1256:2
1 679:1 771:1 1072:1 1222:1 1239:1 1249:1 1256:4
1 196:1 232:1 679:2 686:1 744:1 762:1 771:1 905:1 945:1 948:1 975:1 1010:1 1072:1 1215:1 1218:1 1222:1 1224:1 1227:1 1238:1 1239:1 1247:1 1248:1 1249:2 1251:1 1252:1 1254:1 1256:7 1258:1
1 679:1 771:1 905:1 948:1 1072:1 1222:1 1224:1 1239:1 1249:1 1254:1 1256:2
1 196:1 232:1 679:1 686:1 744:1 762:1 771:1 905:1 948:1 975:1 1010:1 1072:1 1215:1 1218:1 1222:1 1224:1 1227:1 1238:1 1239:1 1247:1 1248:1 1249:1 1252:1 1254:1 1256:2
1 679:1 1249:1 1256:7 1258:1
1 679:1 1249:1 1256:7
1 679:1 1249:1 1256:7 1258:1
1 679:1 1249:1 1256:6 1258:1
1 184:1 209:1 679:1 699:1 905:1 948:1 969:1 1072:1 1220:1 1221:1 1223:1 1224:1 1239:1 1249:1 1253:1 1254:1 1256:2
1 196:1 232:1 679:1 686:1 744:1 762:1 771:1 905:1 948:1 975:1 1010:1 1072:1 1215:1 1218:1 1222:1 1224:1 1227:1 1238:1 1239:1 1247:1 1248:1 1249:1 1252:1 1254:1 1256:2
1 184:1 679:1 1249:1 1253:1 1256:4
1 196:1 232:1 679:1 686:1 744:1 762:1 771:1 905:1 945:1 948:1 975:1 1010:1 1072:1 1215:1 1218:1 1222:1 1224:1 1227:1 1238:1 1239:1 1247:1 1248:1 1249:1 1251:1 1252:1 1254:1 1256:10 1258:1
1 679:1 1249:1 1256:7
1 196:1 232:1 679:3 686:1 744:1 762:1 771:1 905:1 948:1 975:1 1010:1 1072:1 1215:1 1218:1 1222:1 1224:1 1227:1 1238:1 1239:1 1247:1 1248:1 1249:3 1252:1 1254:1 1256:7
1 448:1 1241:1 1256:4
1 448:1 1241:1 1256:4
1 184:1 679:1 1249:1 1253:1 1256:5
1 679:1 1249:1 1256:5 1258:1
1 196:1 232:1 679:1 686:1 744:1 762:1 771:1 905:1 948:1 975:1 1010:1 1072:1 1215:1 1218:1 1222:1 1224:1 1227:1 1238:1 1239:1 1247:1 1248:1 1249:1 1252:1 1254:1 1256:2
1 512:1 679:1 686:1 771:1 905:1 948:1 1072:1 1087:1 1222:1 1224:1 1236:1 1239:1 1249:1 1252:1 1254:1 1255:1 1256:2
1 196:1 232:1 504:1 679:1 686:1 744:1 762:1 771:1 905:1 948:1 969:1 975:1 1010:1 1072:1 1215:1 1218:1 1222:1 1223:1 1224:1 1227:1 1230:1 1238:1 1239:1 1247:1 1248:1 1249:1 1252:1 1254:1 1256:8
1 679:1 905:1 948:1 1072:1 1224:1 1239:1 1249:1 1254:1 1256:2
1 196:1 232:1 504:1 679:1 686:1 744:1 762:1 771:1 905:1 945:1 948:1 969:1 975:1 1010:1 1072:1 1215:1 1218:1 1222:1 1223:1 1224:1 1227:1 1230:1 1238:1 1239:1 1247:1 1248:1 1249:1 1251:1 1252:1 1254:1 1256:9
1 196:1 232:1 679:1 686:1 744:1 762:1 771:1 905:1 948:1 975:1 1010:1 1072:1 1215:1 1218:1 1222:1 1224:1 1227:1 1238:1 1239:1 1247:1 1248:1 1249:1 1252:1 1254:1 1256:2
1 184:1 679:1 1249:1 1253:1 1256:2
1 679:1 1249:1 1256:4
1 196:1 232:1 679:1 686:1 744:1 762:1 771:1 905:1 948:1 975:1 1010:1 1072:1 1215:1 1218:1 1222:1 1224:1 1227:1 1238:1 1239:1 1247:1 1248:1 1249:1 1252:1 1254:1 1256:2
1 679:1 1072:1 1239:1 1249:1 1256:2
1 196:1 232:1 679:3 686:1 744:1 762:1 771:1 905:2 948:1 975:1 1010:1 1072:1 1215:1 1218:1 1222:1 1224:2 1227:1 1238:1 1239:1 1247:1 1248:1 1249:3 1252:1 1254:1 1256:8
1 196:1 232:1 679:3 686:1 744:1 762:1 771:1 905:2 945:1 948:1 975:1 1010:1 1072:1 1215:1 1218:1 1222:1 1224:2 1227:1 1238:1 1239:1 1247:1 1248:1 1249:3 1251:1 1252:1 1254:1 1256:8 1258:1
1 448:1 1241:1 1256:4
1 512:1 679:1 686:1 771:1 905:1 948:1 1072:1 1087:1 1222:1 1224:1 1236:1 1239:1 1249:1 1252:1 1254:1 1255:1 1256:2
1 184:1 679:1 1249:1 1253:1 1256:4 1258:1
1 196:1 232:1 679:2 686:1 744:1 762:1 771:1 905:1 948:1 975:1 1010:1 1072:1 1215:1 1218:1 1222:1 1224:1 1227:1 1238:1 1239:1 1247:1 1248:1 1249:2 1252:1 1254:1 1256:13
1 196:1 232:1 679:1 686:1 744:1 762:1 771:1 905:1 945:1 948:1 975:1 1010:1 1072:1 1215:1 1218:1 1222:1 1224:1 1227:1 1238:1 1239:1 1247:1 1248:1 1249:1 1251:1 1252:1 1254:1 1256:9
1 196:1 232:1 679:1 686:1 744:1 762:1 771:1 905:1 948:1 975:1 1010:1 1072:1 1215:1 1218:1 1222:1 1224:1 1227:1 1238:1 1239:1 1247:1 1248:1 1249:1 1252:1 1254:1 1256:2
1 196:1 232:1 679:3 686:1 744:1 762:1 771:1 905:2 948:1 975:1 1010:1 1072:1 1215:1 1218:1 1222:1 1224:2 1227:1 1238:1 1239:1 1247:1 1248:1 1249:3 1252:1 1254:1 1256:8
1 196:1 232:1 679:1 686:1 744:1 762:1 771:1 905:1 948:1 975:1 1010:1 1072:1 1215:1 1218:1 1222:1 1224:1 1227:1 1238:1 1239:1 1247:1 1248:1 1249:1 1252:1 1254:1 1256:2
1 196:1 232:1 679:1 686:1 744:1 762:1 771:1 905:1 948:1 975:1 1010:1 1072:1 1215:1 1218:1 1222:1 1224:1 1227:1 1238:1 1239:1 1247:1 1248:1 1249:1 1252:1 1254:1 1256:2
1 196:1 232:1 504:1 679:1 686:1 744:1 762:1 771:1 905:1 945:1 948:1 969:1 975:1 1010:1 1072:1 1215:1 1218:1 1222:1 1223:1 1224:1 1227:1 1230:1 1238:1 1239:1 1247:1 1248:1 1249:1 1251:1 1252:1 1254:1 1256:9
1 168:1 196:1 504:1 679:1 686:1 905:1 948:1 969:1 1072:1 1215:1 1223:1 1224:1 1230:1 1239:1 1240:1 1249:1 1252:1 1254:1 1256:9
1 184:1 209:1 679:1 699:1 905:1 948:1 969:1 1072:1 1220:1 1221:1 1223:1 1224:1 1239:1 1249:1 1253:1 1254:1 1256:2
1 184:1 679:1 1249:1 1253:1 1256:5 1258:1
1 196:1 232:1 679:1 686:1 744:1 762:1 771:1 905:1 948:1 975:1 1010:1 1072:1 1215:1 1218:1 1222:1 1224:1 1227:1 1238:1 1239:1 1247:1 1248:1 1249:1 1252:1 1254:1 1256:2
1 196:1 232:1 679:1 686:1 744:1 762:1 771:1 905:1 948:1 975:1 1010:1 1072:1 1215:1 1218:1 1222:1 1224:1 1227:1 1238:1 1239:1 1247:1 1248:1 1249:1 1252:1 1254:1 1256:2
1 448:1 1241:1 1256:4
1 196:1 232:1 679:1 686:1 744:1 762:1 771:1 905:1 948:1 975:1 1010:1 1072:1 1215:1 1218:1 1222:1 1224:1 1227:1 1238:1 1239:1 1247:1 1248:1 1249:1 1252:1 1254:1 1256:2
1 448:1 1241:1 1256:3
1 196:1 232:1 504:1 679:1 686:1 744:1 762:1 771:1 905:1 948:1 969:1 975:1 1010:1 1072:1 1215:1 1218:1 1222:1 1223:1 1224:1 1227:1 1230:1 1238:1 1239:1 1247:1 1248:1 1249:1 1252:1 1254:1 1256:8
1 196:1 232:1 504:1 679:1 686:1 744:1 762:1 771:1 905:1 945:1 948:1 969:1 975:1 1010:1 1072:1 1215:1 1218:1 1222:1 1223:1 1224:1 1227:1 1230:1 1238:1 1239:1 1247:1 1248:1 1249:1 1251:1 1252:1 1254:1 1256:9
1 196:1 232:1 679:4 686:1 744:1 762:1 771:1 905:2 945:1 948:1 975:1 1010:1 1072:1 1215:1 1218:1 1222:1 1224:2 1227:1 1238:1 1239:1 1247:1 1248:1 1249:4 1251:1 1252:1 1254:1 1256:9 1258:1
1 184:1 209:1 679:1 699:1 905:1 948:1 969:1 1072:1 1220:1 1221:1 1223:1 1224:1 1239:1 1249:1 1253:1 1254:1 1256:2
1 196:1 232:1 679:1 686:1 744:1 762:1 771:1 905:1 948:1 975:1 1010:1 1072:1 1215:1 1218:1 1222:1 1224:1 1227:1 1238:1 1239:1 1247:1 1248:1 1249:1 1252:1 1254:1 1256:2
1 448:1 504:1 679:1 686:1 905:1 948:1 969:1 1072:1 1223:1 1224:1 1230:1 1239:1 1241:1 1249:1 1252:1 1254:1 1256:7
1 196:1 232:1 679:1 686:1 744:1 762:1 771:1 905:1 948:1 975:1 1010:1 1072:1 1215:1 1218:1 1222:1 1224:1 1227:1 1238:1 1239:1 1247:1 1248:1 1249:1 1252:1 1254:1 1256:2
1 196:1 232:1 679:1 686:1 744:1 762:1 771:1 905:1 948:1 975:1 1010:1 1072:1 1215:1 1218:1 1222:1 1224:1 1227:1 1238:1 1239:1 1247:1 1248:1 1249:1 1252:1 1254:1 1256:2
1 679:1 699:1 1220:1 1249:1 1256:5
1 196:1 232:1 679:2 686:1 744:1 762:1 771:1 905:1 948:1 975:1 1010:1 1072:1 1215:1 1218:1 1222:1 1224:1 1227:1 1238:1 1239:1 1247:1 1248:1 1249:2 1252:1 1254:1 1256:7
1 196:1 232:1 679:1 686:1 744:1 762:1 771:1 905:1 948:1 975:1 1010:1 1072:1 1215:1 1218:1 1222:1 1224:1 1227:1 1238:1 1239:1 1247:1 1248:1 1249:1 1252:1 1254:1 1256:4
1 196:1 232:1 679:1 686:1 744:1 762:1 771:1 905:1 948:1 975:1 1010:1 1072:1 1215:1 1218:1 1222:1 1224:1 1227:1 1238:1 1239:1 1247:1 1248:1 1249:1 1252:1 1254:1 1256:2
1 196:1 232:1 679:1 686:1 744:1 762:1 771:1 905:1 948:1 975:1 1010:1 1072:1 1215:1 1218:1 1222:1 1224:1 1227:1 1238:1 1239:1 1247:1 1248:1 1249:1 1252:1 1254:1 1256:2
1 679:1 1249:1 1256:8
1 196:1 232:1 679:1 686:1 744:1 762:1 771:1 905:1 948:1 975:1 1010:1 1072:1 1215:1 1218:1 1222:1 1224:1 1227:1 1238:1 1239:1 1247:1 1248:1 1249:1 1252:1 1254:1 1256:2
1 184:1 679:1 1249:1 1253:1 1256:2
1 184:1 209:1 679:1 699:1 905:1 948:1 969:1 1072:1 1220:1 1221:1 1223:1 1224:1 1239:1 1249:1 1253:1 1254:1 1256:2
1 679:1 1072:1 1239:1 1249:1 1256:3
1 196:1 232:1 504:1 679:1 686:1 744:1 762:1 771:1 905:1 948:1 969:1 975:1 1010:1 1072:1 1215:1 1218:1 1222:1 1223:1 1224:1 1227:1 1230:1 1238:1 1239:1 1247:1 1248:1 1249:1 1252:1 1254:1 1256:9
1 679:1 1249:1 1256:7 1258:1
1 679:1 771:1 905:1 1072:1 1222:1 1224:1 1239:1 1249:1 1256:2
1 196:1 232:1 679:1 686:1 744:1 762:1 771:1 905:1 945:1 948:1 975:1 1010:1 1072:1 1215:1 1218:1 1222:1 1224:1 1227:1 1238:1 1239:1 1247:1 1248:1 1249:1 1251:1 1252:1 1254:1 1256:9
1 196:1 232:1 679:1 686:1 744:1 762:1 771:1 905:1 948:1 975:1 1010:1 1072:1 1215:1 1218:1 1222:1 1224:1 1227:1 1238:1 1239:1 1247:1 1248:1 1249:1 1252:1 1254:1 1256:2
1 679:1 1249:1 1256:8
1 196:1 232:1 679:1 686:1 744:1 762:1 771:1 905:1 948:1 975:1 1010:1 1072:1 1215:1 1218:1 1222:1 1224:1 1227:1 1238:1 1239:1 1247:1 1248:1 1249:1 1252:1 1254:1 1256:2
1 679:1 1249:1 1256:7
1 679:1 1249:1 1256:3
1 196:1 232:1 679:4 686:1 744:1 762:1 771:1 905:2 945:1 948:1 975:1 1010:1 1072:1 1215:1 1218:1 1222:1 1224:2 1227:1 1238:1 1239:1 1247:1 1248:1 1249:4 1251:1 1252:1 1254:1 1256:9 1258:1
1 679:1 1249:1 1256:7
1 184:1 679:1 1249:1 1253:1 1256:5
1 184:1 679:1 1249:1 1253:1 1256:3
1 196:1 232:1 679:1 686:1 744:1 762:1 771:1 905:1 948:1 975:1 1010:1 1072:1 1215:1 1218:1 1222:1 1224:1 1227:1 1238:1 1239:1 1247:1 1248:1 1249:1 1252:1 1254:1 1256:2
1 196:1 232:1 679:1 686:1 744:1 762:1 771:1 905:1 948:1 975:1 1010:1 1072:1 1215:1 1218:1 1222:1 1224:1 1227:1 1238:1 1239:1 1247:1 1248:1 1249:1 1252:1 1254:1 1256:2
1 196:1 232:1 504:1 679:1 686:1 744:1 762:1 771:1 905:1 948:1 969:1 975:1 1010:1 1072:1 1215:1 1218:1 1222:1 1223:1 1224:1 1227:1 1230:1 1238:1 1239:1 1247:1 1248:1 1249:1 1252:1 1254:1 1256:9
1 196:1 232:1 679:1 686:1 744:1 762:1 771:1 905:1 948:1 975:1 1010:1 1072:1 1215:1 1218:1 1222:1 1224:1 1227:1 1238:1 1239:1 1247:1 1248:1 1249:1 1252:1 1254:1 1256:2
1 184:1 679:1 1249:1 1253:1 1256:4
1 679:1 905:1 1224:1 1249:1 1256:2
1 184:1 209:1 679:1 699:1 905:1 948:1 969:1 1072:1 1220:1 1221:1 1223:1 1224:1 1239:1 1249:1 1253:1 1254:1 1256:2
1 196:1 232:1 679:1 686:1 744:1 762:1 771:1 905:1 948:1 975:1 1010:1 1072:1 1215:1 1218:1 1222:1 1224:1 1227:1 1238:1 1239:1 1247:1 1248:1 1249:1 1252:1 1254:1 1256:2
1 184:1 679:1 1249:1 1253:1 1256:4
1 196:1 232:1 679:1 686:1 744:1 762:1 771:1 905:1 948:1 975:1 1010:1 1072:1 1215:1 1218:1 1222:1 1224:1 1227:1 1238:1 1239:1 1247:1 1248:1 1249:1 1252:1 1254:1 1256:2
1 512:1 679:1 686:1 771:1 905:1 948:1 1072:1 1087:1 1222:1 1224:1 1236:1 1239:1 1249:1 1252:1 1254:1 1255:1 1256:2
1 196:1 232:1 504:1 679:1 686:1 744:1 762:1 771:1 905:1 948:1 969:1 975:1 1010:1 1072:1 1215:1 1218:1 1222:1 1223:1 1224:1 1227:1 1230:1 1238:1 1239:1 1247:1 1248:1 1249:1 1252:1 1254:1 1256:9
1 184:1 209:1 679:1 699:1 905:1 948:1 969:1 1072:1 1220:1 1221:1 1223:1 1224:1 1239:1 1249:1 1253:1 1254:1 1256:2
1 196:1 232:1 679:1 686:1 744:1 762:1 771:1 905:1 948:1 975:1 1010:1 1072:1 1215:1 1218:1 1222:1 1224:1 1227:1 1238:1 1239:1 1247:1 1248:1 1249:1 1252:1 1254:1 1256:2
1 512:1 679:1 686:1 771:1 905:1 948:1 1072:1 1087:1 1222:1 1224:1 1236:1 1239:1 1249:1 1252:1 1254:1 1255:1 1256:2
1 196:1 232:1 679:3 686:1 744:1 762:1 771:1 905:1 945:1 948:1 975:1 1010:1 1072:1 1215:1 1218:1 1222:1 1224:1 1227:1 1238:1 1239:1 1247:1 1248:1 1249:3 1251:1 1252:1 1254:1 1256:7 1258:1
1 184:1 679:1 905:1 1072:1 1224:1 1239:1 1249:1 1253:1 1256:3
1 196:1 232:1 504:1 679:1 686:1 744:1 762:1 771:1 905:1 948:1 969:1 975:1 1010:1 1072:1 1215:1 1218:1 1222:1 1223:1 1224:1 1227:1 1230:1 1238:1 1239:1 1247:1 1248:1 1249:1 1252:1 1254:1 1256:8
1 184:1 679:1 1249:1 1253:1 1256:4
1 196:1 232:1 679:1 686:1 744:1 762:1 771:1 905:1 948:1 975:1 1010:1 1072:1 1215:1 1218:1 1222:1 1224:1 1227:1 1238:1 1239:1 1247:1 1248:1 1249:1 1252:1 1254:1 1256:2
1 184:1 209:1 679:1 699:1 905:1 948:1 969:1 1072:1 1220:1 1221:1 1223:1 1224:1 1239:1 1249:1 1253:1 1254:1 1256:2
1 196:1 232:1 679:1 686:1 744:1 762:1 771:1 905:1 945:1 948:1 975:1 1010:1 1072:1 1215:1 1218:1 1222:1 1224:1 1227:1 1238:1 1239:1 1247:1 1248:1 1249:1 1251:1 1252:1 1254:1 1256:9
1 504:1 679:1 762:1 1218:1 1230:1 1249:1 1256:2
1 196:1 232:1 504:1 679:1 686:1 744:1 762:1 771:1 905:1 945:1 948:1 969:1 975:1 1010:1 1072:1 1215:1 1218:1 1222:1 1223:1 1224:1 1227:1 1230:1 1238:1 1239:1 1247:1 1248:1 1249:1 1251:1 1252:1 1254:1 1256:9
1 196:1 232:1 504:1 679:1 686:1 744:1 762:1 771:1 905:1 945:1 948:1 969:1 975:1 1010:1 1072:1 1215:1 1218:1 1222:1 1223:1 1224:1 1227:1 1230:1 1238:1 1239:1 1247:1 1248:1 1249:1 1251:1 1252:1 1254:1 1256:9
1 196:1 232:1 679:3 686:1 744:1 762:1 771:1 905:1 948:1 975:1 1010:1 1072:1 1215:1 1218:1 1222:1 1224:1 1227:1 1238:1 1239:1 1247:1 1248:1 1249:3 1252:1 1254:1 1256:7
1 196:1 232:1 679:2 686:1 744:1 762:1 771:1 905:1 945:1 948:1 975:1 1010:1 1072:1 1215:1 1218:1 1222:1 1224:1 1227:1 1238:1 1239:1 1247:1 1248:1 1249:2 1251:1 1252:1 1254:1 1256:12 1258:1
1 448:1 1241:1 1256:4
1 184:1 679:1 1249:1 1253:1 1256:4 1258:1
1 196:1 232:1 679:1 686:1 744:1 762:1 771:1 905:1 948:1 975:1 1010:1 1072:1 1215:1 1218:1 1222:1 1224:1 1227:1 1238:1 1239:1 1247:1 1248:1 1249:1 1252:1 1254:1 1256:2
1 196:1 232:1 679:1 686:1 744:1 762:1 771:1 905:1 948:1 975:1 1010:1 1072:1 1215:1 1218:1 1222:1 1224:1 1227:1 1238:1 1239:1 1247:1 1248:1 1249:1 1252:1 1254:1 1256:2
1 196:1 232:1 679:1 686:1 744:1 762:1 771:1 905:1 948:1 975:1 1010:1 1072:1 1215:1 1218:1 1222:1 1224:1 1227:1 1238:1 1239:1 1247:1 1248:1 1249:1 1252:1 1254:1 1256:2
1 184:1 679:1 1249:1 1253:1 1256:4 1258:1
1 679:1 771:1 1072:1 1222:1 1239:1 1249:1 1256:4
1 184:1 679:1 686:1 771:1 905:1 948:1 969:1 1072:1 1222:1 1223:1 1224:1 1239:1 1249:1 1252:1 1253:1 1254:1 1256:4
1 196:1 232:1 509:1 679:3 686:1 744:1 762:1 771:1 905:3 948:1 975:1 1010:1 1072:1 1215:1 1218:1 1222:1 1224:3 1227:1 1233:1 1238:1 1239:1 1247:1 1248:1 1249:3 1252:1 1254:1 1256:6
1 679:1 1249:1 1256:7 1258:1
1 184:1 679:1 1249:1 1253:1 1256:5
1 196:1 232:1 679:1 686:1 744:1 762:1 771:1 905:1 948:1 975:1 1010:1 1072:1 1215:1 1218:1 1222:1 1224:1 1227:1 1238:1 1239:1 1247:1 1248:1 1249:1 1252:1 1254:1 1256:2
1 196:1 232:1 504:1 679:1 686:1 744:1 762:1 771:1 905:1 948:1 969:1 975:1 1010:1 1072:1 1215:1 1218:1 1222:1 1223:1 1224:1 1227:1 1230:1 1238:1 1239:1 1247:1 1248:1 1249:1 1252:1 1254:1 1256:9
1 196:1 232:1 504:1 679:1 686:1 744:1 762:1 771:1 905:1 945:1 948:1 969:1 975:1 1010:1 1072:1 1215:1 1218:1 1222:1 1223:1 1224:1 1227:1 1230:1 1238:1 1239:1 1247:1 1248:1 1249:1 1251:1 1252:1 1254:1 1256:9
1 196:1 232:1 679:1 686:1 744:1 762:1 771:1 905:1 948:1 975:1 1010:1 1072:1 1215:1 1218:1 1222:1 1224:1 1227:1 1238:1 1239:1 1247:1 1248:1 1249:1 1252:1 1254:1 1256:2
1 196:1 232:1 504:1 679:1 686:1 744:1 762:1 771:1 905:1 948:1 969:1 975:1 1010:1 1072:1 1215:1 1218:1 1222:1 1223:1 1224:1 1227:1 1230:1 1238:1 1239:1 1247:1 1248:1 1249:1 1252:1 1254:1 1256:9
1 196:1 232:1 679:1 686:1 744:1 762:1 771:1 905:1 948:1 975:1 1010:1 1072:1 1215:1 1218:1 1222:1 1224:1 1227:1 1238:1 1239:1 1247:1 1248:1 1249:1 1252:1 1254:1 1256:2
1 184:1 209:1 679:1 699:1 905:1 948:1 969:1 1072:1 1220:1 1221:1 1223:1 1224:1 1239:1 1249:1 1253:1 1254:1 1256:2
1 196:1 232:1 679:4 686:1 744:1 762:1 771:1 905:1 948:1 975:1 1010:1 1072:1 1215:1 1218:1 1222:1 1224:1 1227:1 1238:1 1239:1 1247:1 1248:1 1249:4 1252:1 1254:1 1256:9
1 196:1 232:1 679:1 686:1 744:1 762:1 771:1 905:1 948:1 975:1 1010:1 1072:1 1215:1 1218:1 1222:1 1224:1 1227:1 1238:1 1239:1 1247:1 1248:1 1249:1 1252:1 1254:1 1256:2
1 679:1 1249:1 1256:6
1 679:1 1249:1 1256:7
1 196:1 232:1 679:1 686:1 744:1 762:1 771:1 905:1 948:1 975:1 1010:1 1072:1 1215:1 1218:1 1222:1 1224:1 1227:1 1238:1 1239:1 1247:1 1248:1 1249:1 1252:1 1254:1 1256:2
1 184:1 679:1 1249:1 1253:1 1256:7
1 196:1 679:2 686:1 771:1 1072:1 1215:1 1222:1 1239:1 1249:2 1252:1 1256:6
1 196:1 232:1 679:1 686:1 744:1 762:1 771:1 905:1 948:1 975:1 1010:1 1072:1 1215:1 1218:1 1222:1 1224:1 1227:1 1238:1 1239:1 1247:1 1248:1 1249:1 1252:1 1254:1 1256:2
1 679:1 1249:1 1256:8
1 196:1 232:1 679:1 686:1 744:1 762:1 771:1 905:1 948:1 975:1 1010:1 1072:1 1215:1 1218:1 1222:1 1224:1 1227:1 1238:1 1239:1 1247:1 1248:1 1249:1 1252:1 1254:1 1256:2
1 679:1 1249:1 1256:7 1258:1
1 679:1 1072:1 1239:1 1249:1 1256:3
1 196:1 232:1 679:1 686:1 744:1 762:1 771:1 905:1 948:1 975:1 1010:1 1072:1 1215:1 1218:1 1222:1 1224:1 1227:1 1238:1 1239:1 1247:1 1248:1 1249:1 1252:1 1254:1 1256:2
1 448:1 1241:1 1256:4
1 679:1 1249:1 1256:7
1 196:1 232:1 679:1 686:1 744:1 762:1 771:1 905:1 948:1 975:1 1010:1 1072:1 1215:1 1218:1 1222:1 1224:1 1227:1 1238:1 1239:1 1247:1 1248:1 1249:1 1252:1 1254:1 1256:2
1 448:1 1241:1 1256:3
1 196:1 232:1 504:1 679:1 686:1 744:1 762:1 771:1 905:1 945:1 948:1 969:1 975:1 1010:1 1072:1 1215:1 1218:1 1222:1 1223:1 1224:1 1227:1 1230:1 1238:1 1239:1 1247:1 1248:1 1249:1 1251:1 1252:1 1254:1 1256:9
1 679:1 771:1 1072:1 1222:1 1239:1 1249:1 1256:4
1 679:1 686:1 905:1 948:1 1224:1 1249:1 1252:1 1254:1 1256:3
1 679:1 1249:1 1256:8
1 196:1 232:1 679:1 686:1 744:1 762:1 771:1 905:1 948:1 975:1 1010:1 1072:1 1215:1 1218:1 1222:1 1224:1 1227:1 1238:1 1239:1 1247:1 1248:1 1249:1 1252:1 1254:1 1256:2
1 196:1 232:1 504:1 679:1 686:1 744:1 762:1 771:1 905:1 948:1 969:1 975:1 1010:1 1072:1 1215:1 1218:1 1222:1 1223:1 1224:1 1227:1 1230:1 1238:1 1239:1 1247:1 1248:1 1249:1 1252:1 1254:1 1256:9
1 196:1 232:1 679:3 686:1 744:1 762:1 771:1 905:2 945:1 948:1 975:1 1010:1 1072:1 1215:1 1218:1 1222:1 1224:2 1227:1 1238:1 1239:1 1247:1 1248:1 1249:3 1251:1 1252:1 1254:1 1256:9 1258:1
1 184:1 209:1 679:1 699:1 905:1 948:1 969:1 1072:1 1220:1 1221:1 1223:1 1224:1 1239:1 1249:1 1253:1 1254:1 1256:2
1 184:1 679:1 1249:1 1253:1 1256:5
1 184:1 209:1 679:1 699:1 905:1 948:1 969:1 1072:1 1220:1 1221:1 1223:1 1224:1 1239:1 1249:1 1253:1 1254:1 1256:2
1 196:1 232:1 504:1 679:1 686:1 744:1 762:1 771:1 905:1 948:1 969:1 975:1 1010:1 1072:1 1215:1 1218:1 1222:1 1223:1 1224:1 1227:1 1230:1 1238:1 1239:1 1247:1 1248:1 1249:1 1252:1 1254:1 1256:9
1 448:1 1241:1 1256:4
1 679:1 1249:1 1256:6
1 448:1 1241:1 1256:4
1 196:1 232:1 679:1 686:1 744:1 762:1 771:1 905:1 948:1 975:1 1010:1 1072:1 1215:1 1218:1 1222:1 1224:1 1227:1 1238:1 1239:1 1247:1 1248:1 1249:1 1252:1 1254:1 1256:2
1 679:1 948:1 1072:1 1102:1 1216:1 1239:1 1249:1 1254:1 1256:2
1 196:1 232:1 679:1 686:1 744:1 762:1 771:1 905:1 948:1 975:1 1010:1 1072:1 1215:1 1218:1 1222:1 1224:1 1227:1 1238:1 1239:1 1247:1 1248:1 1249:1 1252:1 1254:1 1256:2
1 184:1 679:1 1249:1 1253:1 1256:4 1258:1
1 196:1 232:1 504:1 679:1 686:1 744:1 762:1 771:1 905:1 948:1 969:1 975:1 1010:1 1072:1 1215:1 1218:1 1222:1 1223:1 1224:1 1227:1 1230:1 1238:1 1239:1 1247:1 1248:1 1249:1 1252:1 1254:1 1256:8
1 184:1 209:1 679:1 699:1 905:1 948:1 969:1 1072:1 1220:1 1221:1 1223:1 1224:1 1239:1 1249:1 1253:1 1254:1 1256:2
1 184:1 209:1 679:1 699:1 905:1 948:1 969:1 1072:1 1220:1 1221:1 1223:1 1224:1 1239:1 1249:1 1253:1 1254:1 1256:2
1 679:1 1249:1 1256:4
1 196:1 232:1 679:1 686:1 744:1 762:1 771:1 905:1 948:1 975:1 1010:1 1072:1 1215:1 1218:1 1222:1 1224:1 1227:1 1238:1 1239:1 1247:1 1248:1 1249:1 1252:1 1254:1 1256:2
1 184:1 209:1 679:1 699:1 905:1 948:1 969:1 1072:1 1220:1 1221:1 1223:1 1224:1 1239:1 1249:1 1253:1 1254:1 1256:2
1 196:1 232:1 679:1 686:1 744:1 762:1 771:1 905:1 948:1 975:1 1010:1 1072:1 1215:1 1218:1 1222:1 1224:1 1227:1 1238:1 1239:1 1247:1 1248:1 1249:1 1252:1 1254:1 1256:2
1 196:1 232:1 679:1 686:1 744:1 762:1 771:1 905:1 948:1 975:1 1010:1 1072:1 1215:1 1218:1 1222:1 1224:1 1227:1 1238:1 1239:1 1247:1 1248:1 1249:1 1252:1 1254:1 1256:2
1 679:1 1249:1 1256:8
1 196:1 232:1 679:1 686:1 744:1 762:1 771:1 905:1 948:1 975:1 1010:1 1072:1 1215:1 1218:1 1222:1 1224:1 1227:1 1238:1 1239:1 1247:1 1248:1 1249:1 1252:1 1254:1 1256:2
1 196:1 232:1 679:1 686:1 744:1 762:1 771:1 905:1 948:1 975:1 1010:1 1072:1 1215:1 1218:1 1222:1 1224:1 1227:1 1238:1 1239:1 1247:1 1248:1 1249:1 1252:1 1254:1 1256:2
1 512:1 679:1 686:1 771:1 905:1 948:1 1072:1 1087:1 1222:1 1224:1 1236:1 1239:1 1249:1 1252:1 1254:1 1255:1 1256:2
1 679:1 1249:1 1256:6 1258:1
1 196:1 232:1 679:1 686:1 744:1 762:1 771:1 905:1 948:1 975:1 1010:1 1072:1 1215:1 1218:1 1222:1 1224:1 1227:1 1238:1 1239:1 1247:1 1248:1 1249:1 1252:1 1254:1 1256:2
1 196:1 679:1 686:1 771:1 1072:1 1215:1 1222:1 1239:1 1249:1 1252:1 1256:9
1 679:1 699:1 1220:1 1249:1 1256:5 1258:1
1 196:1 232:1 509:1 679:4 686:1 744:1 762:1 771:1 905:3 945:1 948:1 975:1 1010:1 1072:1 1215:1 1218:1 1222:1 1224:3 1227:1 1233:1 1238:1 1239:1 1247:1 1248:1 1249:4 1251:1 1252:1 1254:1 1256:9
1 679:1 1249:1 1256:7 1258:1
1 679:1 1249:1 1256:8
1 196:1 232:1 509:1 679:4 686:1 744:1 762:1 771:1 905:3 945:1 948:1 975:1 1010:1 1072:1 1215:1 1218:1 1222:1 1224:3 1227:1 1233:1 1238:1 1239:1 1247:1 1248:1 1249:4 1251:1 1252:1 1254:1 1256:9
1 679:1 1249:1 1256:8
1 184:1 679:1 686:1 771:1 905:1 948:1 969:1 1072:1 1222:1 1223:1 1224:1 1239:1 1249:1 1252:1 1253:1 1254:1 1256:4
1 196:1 232:1 679:3 686:1 744:1 762:1 771:1 905:1 948:1 975:1 1010:1 1072:1 1215:1 1218:1 1222:1 1224:1 1227:1 1238:1 1239:1 1247:1 1248:1 1249:3 1252:1 1254:1 1256:7
1 196:1 232:1 679:1 686:1 744:1 762:1 771:1 905:1 948:1 975:1 1010:1 1072:1 1215:1 1218:1 1222:1 1224:1 1227:1 1238:1 1239:1 1247:1 1248:1 1249:1 1252:1 1254:1 1256:2
1 196:1 232:1 679:1 686:1 744:1 762:1 771:1 905:1 948:1 975:1 1010:1 1072:1 1215:1 1218:1 1222:1 1224:1 1227:1 1238:1 1239:1 1247:1 1248:1 1249:1 1252:1 1254:1 1256:2
1 196:1 232:1 504:1 679:1 686:1 744:1 762:1 771:1 905:1 948:1 969:1 975:1 1010:1 1072:1 1215:1 1218:1 1222:1 1223:1 1224:1 1227:1 1230:1 1238:1 1239:1 1247:1 1248:1 1249:1 1252:1 1254:1 1256:9
1 196:1 232:1 679:1 686:1 744:1 762:1 771:1 905:1 948:1 975:1 1010:1 1072:1 1215:1 1218:1 1222:1 1224:1 1227:1 1238:1 1239:1 1247:1 1248:1 1249:1 1252:1 1254:1 1256:2
1 184:1 209:1 679:1 699:1 905:1 948:1 969:1 1072:1 1220:1 1221:1 1223:1 1224:1 1239:1 1249:1 1253:1 1254:1 1256:2
1 196:1 232:1 679:4 686:1 744:1 762:1 771:1 905:1 948:1 975:1 1010:1 1072:1 1215:1 1218:1 1222:1 1224:1 1227:1 1238:1 1239:1 1247:1 1248:1 1249:4 1252:1 1254:1 1256:10
1 512:1 679:1 686:1 771:1 905:1 948:1 1072:1 1222:1 1224:1 1236:1 1239:1 1249:1 1252:1 1254:1 1256:2
1 196:1 232:1 679:1 686:1 744:1 762:1 771:1 905:1 945:1 948:1 975:1 1010:1 1072:1 1215:1 1218:1 1222:1 1224:1 1227:1 1238:1 1239:1 1247:1 1248:1 1249:1 1251:1 1252:1 1254:1 1256:2 1258:1
1 196:1 232:1 679:1 686:1 744:1 762:1 771:1 905:1 948:1 975:1 1010:1 1072:1 1215:1 1218:1 1222:1 1224:1 1227:1 1238:1 1239:1 1247:1 1248:1 1249:1 1252:1 1254:1 1256:2
1 448:1 1241:1 1256:4
1 679:1 1249:1 1256:6
1 196:1 232:1 679:1 686:1 744:1 762:1 771:1 905:1 948:1 975:1 1010:1 1072:1 1215:1 1218:1 1222:1 1224:1 1227:1 1238:1 1239:1 1247:1 1248:1 1249:1 1252:1 1254:1 1256:2
1 196:1 232:1 679:1 686:1 744:1 762:1 771:1 905:1 945:1 948:1 975:1 1010:1 1072:1 1215:1 1218:1 1222:1 1224:1 1227:1 1238:1 1239:1 1247:1 1248:1 1249:1 1251:1 1252:1 1254:1 1256:2 1258:1
1 184:1 209:1 679:1 699:1 905:1 948:1 969:1 1072:1 1220:1 1221:1 1223:1 1224:1 1239:1 1249:1 1253:1 1254:1 1256:2
1 196:1 232:1 679:1 686:1 744:1 762:1 771:1 905:1 948:1 975:1 1010:1 1072:1 1215:1 1218:1 1222:1 1224:1 1227:1 1238:1 1239:1 1247:1 1248:1 1249:1 1252:1 1254:1 1256:2
1 196:1 232:1 679:1 686:1 744:1 762:1 771:1 905:1 948:1 975:1 1010:1 1072:1 1215:1 1218:1 1222:1 1224:1 1227:1 1238:1 1239:1 1247:1 1248:1 1249:1 1252:1 1254:1 1256:2
1 196:1 232:1 679:1 686:1 744:1 762:1 771:1 905:1 948:1 975:1 1010:1 1072:1 1215:1 1218:1 1222:1 1224:1 1227:1 1238:1 1239:1 1247:1 1248:1 1249:1 1252:1 1254:1 1256:2
1 679:1 1249:1 1256:8
1 184:1 679:1 1249:1 1253:1 1256:4 1258:1
1 184:1 209:1 679:1 699:1 905:1 948:1 969:1 1072:1 1220:1 1221:1 1223:1 1224:1 1239:1 1249:1 1253:1 1254:1 1256:2
1 679:1 1249:1 1256:7 1258:1
1 679:1 1249:1 1256:8
1 512:1 679:1 686:1 771:1 905:1 948:1 1072:1 1087:1 1222:1 1224:1 1236:1 1239:1 1249:1 1252:1 1254:1 1255:1 1256:2
1 196:1 232:1 679:1 686:1 744:1 762:1 771:1 905:1 945:1 948:1 975:1 1010:1 1072:1 1215:1 1218:1 1222:1 1224:1 1227:1 1238:1 1239:1 1247:1 1248:1 1249:1 1251:1 1252:1 1254:1 1256:9
1 196:1 232:1 679:1 686:1 744:1 762:1 771:1 905:1 945:1 948:1 975:1 1010:1 1072:1 1215:1 1218:1 1222:1 1224:1 1227:1 1238:1 1239:1 1247:1 1248:1 1249:1 1251:1 1252:1 1254:1 1256:2 1258:1
1 679:1 1249:1 1256:8
1 196:1 232:1 679:1 686:1 744:1 762:1 771:1 905:1 948:1 975:1 1010:1 1072:1 1215:1 1218:1 1222:1 1224:1 1227:1 1238:1 1239:1 1247:1 1248:1 1249:1 1252:1 1254:1 1256:2
1 196:1 232:1 504:1 679:1 686:1 744:1 762:1 771:1 905:1 948:1 969:1 975:1 1010:1 1072:1 1215:1 1218:1 1222:1 1223:1 1224:1 1227:1 1230:1 1238:1 1239:1 1247:1 1248:1 1249:1 1252:1 1254:1 1256:9
1 196:1 232:1 679:1 686:1 744:1 762:1 771:1 905:1 948:1 975:1 1010:1 1072:1 1215:1 1218:1 1222:1 1224:1 1227:1 1238:1 1239:1 1247:1 1248:1 1249:1 1252:1 1254:1 1256:2
1 196:1 232:1 679:4 686:1 744:1 762:1 771:1 905:2 945:1 948:1 975:1 1010:1 1072:1 1215:1 1218:1 1222:1 1224:2 1227:1 1238:1 1239:1 1247:1 1248:1 1249:4 1251:1 1252:1 1254:1 1256:9 1258:1
1 679:1 1249:1 1256:8
1 679:1 771:1 1072:1 1222:1 1239:1 1249:1 1256:4
1 196:1 232:1 679:1 686:1 744:1 762:1 771:1 905:1 948:1 975:1 1010:1 1072:1 1215:1 1218:1 1222:1 1224:1 1227:1 1238:1 1239:1 1247:1 1248:1 1249:1 1252:1 1254:1 1256:2
1 679:1 1249:1 1256:8
1 448:1 1241:1 1256:4
1 196:1 232:1 504:1 679:1 686:1 744:1 762:1 771:1 905:1 945:1 948:1 969:1 975:1 1010:1 1072:1 1215:1 1218:1 1222:1 1223:1 1224:1 1227:1 1230:1 1238:1 1239:1 1247:1 1248:1 1249:1 1251:1 1252:1 1254:1 1256:9
1 196:1 232:1 504:1 679:1 686:1 744:1 762:1 771:1 905:1 948:1 969:1 975:1 1010:1 1072:1 1215:1 1218:1 1222:1 1223:1 1224:1 1227:1 1230:1 1238:1 1239:1 1247:1 1248:1 1249:1 1252:1 1254:1 1256:9
1 184:1 209:1 679:1 699:1 905:1 948:1 969:1 1072:1 1220:1 1221:1 1223:1 1224:1 1239:1 1249:1 1253:1 1254:1 1256:2
1 196:1 232:1 504:1 679:1 686:1 744:1 762:1 771:1 905:1 945:1 948:1 969:1 975:1 1010:1 1072:1 1215:1 1218:1 1222:1 1223:1 1224:1 1227:1 1230:1 1238:1 1239:1 1247:1 1248:1 1249:1 1251:1 1252:1 1254:1 1256:9
1 196:1 232:1 679:1 686:1 744:1 762:1 771:1 905:1 948:1 975:1 1010:1 1072:1 1215:1 1218:1 1222:1 1224:1 1227:1 1238:1 1239:1 1247:1 1248:1 1249:1 1252:1 1254:1 1256:2
1 196:1 232:1 679:4 686:1 744:1 762:1 771:1 905:2 945:1 948:1 975:1 1010:1 1072:1 1215:1 1218:1 1222:1 1224:2 1227:1 1238:1 1239:1 1247:1 1248:1 1249:4 1251:1 1252:1 1254:1 1256:9 1258:1
1 184:1 209:1 679:1 699:1 905:1 948:1 969:1 1072:1 1220:1 1221:1 1223:1 1224:1 1239:1 1249:1 1253:1 1254:1 1256:2
1 679:1 1249:1 1256:6 1258:1
1 512:1 679:1 686:1 771:1 905:1 948:1 1072:1 1087:1 1222:1 1224:1 1236:1 1239:1 1249:1 1252:1 1254:1 1255:1 1256:2
1 196:1 232:1 504:1 679:1 686:1 744:1 762:1 771:1 905:1 948:1 969:1 975:1 1010:1 1072:1 1215:1 1218:1 1222:1 1223:1 1224:1 1227:1 1230:1 1238:1 1239:1 1247:1 1248:1 1249:1 1252:1 1254:1 1256:8
1 196:1 232:1 504:1 679:1 686:1 744:1 762:1 771:1 905:1 948:1 969:1 975:1 1010:1 1072:1 1215:1 1218:1 1222:1 1223:1 1224:1 1227:1 1230:1 1238:1 1239:1 1247:1 1248:1 1249:1 1252:1 1254:1 1256:9
1 448:1 1241:1 1256:5
1 196:1 232:1 504:1 679:1 686:1 744:1 762:1 771:1 905:1 945:1 948:1 969:1 975:1 1010:1 1072:1 1215:1 1218:1 1222:1 1223:1 1224:1 1227:1 1230:1 1238:1 1239:1 1247:1 1248:1 1249:1 1251:1 1252:1 1254:1 1256:9
1 196:1 232:1 679:1 686:1 744:1 762:1 771:1 905:1 948:1 975:1 1010:1 1072:1 1215:1 1218:1 1222:1 1224:1 1227:1 1238:1 1239:1 1247:1 1248:1 1249:1 1252:1 1254:1 1256:2
1 196:1 232:1 679:1 686:1 744:1 762:1 771:1 905:1 948:1 975:1 1010:1 1072:1 1215:1 1218:1 1222:1 1224:1 1227:1 1238:1 1239:1 1247:1 1248:1 1249:1 1252:1 1254:1 1256:2
1 196:1 232:1 679:1 686:1 744:1 762:1 771:1 905:1 945:1 948:1 975:1 1010:1 1072:1 1215:1 1218:1 1222:1 1224:1 1227:1 1238:1 1239:1 1247:1 1248:1 1249:1 1251:1 1252:1 1254:1 1256:2 1258:1
1 196:1 232:1 679:1 686:1 744:1 762:1 771:1 905:1 948:1 975:1 1010:1 1072:1 1215:1 1218:1 1222:1 1224:1 1227:1 1238:1 1239:1 1247:1 1248:1 1249:1 1252:1 1254:1 1256:2
1 184:1 209:1 679:1 699:1 905:1 948:1 969:1 1072:1 1220:1 1221:1 1223:1 1224:1 1239:1 1249:1 1253:1 1254:1 1256:2
1 196:1 232:1 504:1 679:1 686:1 744:1 762:1 771:1 905:1 948:1 969:1 975:1 1010:1 1072:1 1215:1 1218:1 1222:1 1223:1 1224:1 1227:1 1230:1 1238:1 1239:1 1247:1 1248:1 1249:1 1252:1 1254:1 1256:9
1 448:1 1241:1 1256:4
1 448:1 1241:1 1256:4
1 679:1 1249:1 1256:7 1258:1
1 196:1 232:1 679:4 686:1 744:1 762:1 771:1 905:2 945:1 948:1 975:1 1010:1 1072:1 1215:1 1218:1 1222:1 1224:2 1227:1 1238:1 1239:1 1247:1 1248:1 1249:4 1251:1 1252:1 1254:1 1256:9 1258:1
1 679:1 771:1 905:1 1072:1 1222:1 1224:1 1239:1 1249:1 1256:2
1 512:1 679:1 905:1 948:1 1072:1 1224:1 1236:1 1239:1 1249:1 1254:1 1256:2
1 679:1 1249:1 1256:7
1 196:1 232:1 679:1 686:1 744:1 762:1 771:1 905:1 948:1 975:1 1010:1 1072:1 1215:1 1218:1 1222:1 1224:1 1227:1 1238:1 1239:1 1247:1 1248:1 1249:1 1252:1 1254:1 1256:2
1 196:1 232:1 679:1 686:1 744:1 762:1 771:1 905:1 948:1 975:1 1010:1 1072:1 1215:1 1218:1 1222:1 1224:1 1227:1 1238:1 1239:1 1247:1 1248:1 1249:1 1252:1 1254:1 1256:2
1 196:1 232:1 679:1 686:1 744:1 762:1 771:1 905:1 948:1 975:1 1010:1 1072:1 1215:1 1218:1 1222:1 1224:1 1227:1 1238:1 1239:1 1247:1 1248:1 1249:1 1252:1 1254:1 1256:2
1 196:1 232:1 679:1 686:1 744:1 762:1 771:1 905:1 948:1 975:1 1010:1 1072:1 1215:1 1218:1 1222:1 1224:1 1227:1 1238:1 1239:1 1247:1 1248:1 1249:1 1252:1 1254:1 1256:2
1 504:1 679:1 771:1 1222:1 1230:1 1249:1 1256:3
1 679:1 905:1 948:1 1224:1 1249:1 1254:1 1256:1
1 196:1 232:1 679:2 686:1 744:1 762:1 771:1 905:1 948:1 975:1 1010:1 1072:1 1215:1 1218:1 1222:1 1224:1 1227:1 1238:1 1239:1 1247:1 1248:1 1249:2 1252:1 1254:1 1256:6
1 196:1 232:1 509:1 679:3 686:1 744:1 762:1 771:1 905:3 948:1 975:1 1010:1 1072:1 1215:1 1218:1 1222:1 1224:3 1227:1 1233:1 1238:1 1239:1 1247:1 1248:1 1249:3 1252:1 1254:1 1256:6
1 448:1 1241:1 1256:4
1 679:1 1249:1 1256:7 1258:1
1 184:1 679:1 1249:1 1253:1 1256:4 1258:1
1 512:1 679:1 686:1 771:1 905:1 948:1 1072:1 1087:1 1222:1 1224:1 1236:1 1239:1 1249:1 1252:1 1254:1 1255:1 1256:2
1 196:1 232:1 679:1 686:1 744:1 762:1 771:1 905:1 948:1 975:1 1010:1 1072:1 1215:1 1218:1 1222:1 1224:1 1227:1 1238:1 1239:1 1247:1 1248:1 1249:1 1252:1 1254:1 1256:2
1 196:1 232:1 679:2 686:1 744:1 762:1 771:1 905:1 948:1 975:1 1010:1 1072:1 1215:1 1218:1 1222:1 1224:1 1227:1 1238:1 1239:1 1247:1 1248:1 1249:2 1252:1 1254:1 1256:7
1 184:1 679:1 1249:1 1253:1 1256:2
1 679:1 1249:1 1256:8
1 196:1 232:1 679:1 686:1 744:1 762:1 771:1 905:1 948:1 975:1 1010:1 1072:1 1215:1 1218:1 1222:1 1224:1 1227:1 1238:1 1239:1 1247:1 1248:1 1249:1 1252:1 1254:1 1256:2
1 196:1 232:1 679:1 686:1 744:1 762:1 771:1 905:1 948:1 975:1 1010:1 1072:1 1215:1 1218:1 1222:1 1224:1 1227:1 1238:1 1239:1 1247:1 1248:1 1249:1 1252:1 1254:1 1256:2
1 679:1 1072:1 1239:1 1249:1 1256:3
1 196:1 232:1 679:3 686:1 744:1 762:1 771:1 905:1 945:1 948:1 975:1 1010:1 1072:1 1215:1 1218:1 1222:1 1224:1 1227:1 1238:1 1239:1 1247:1 1248:1 1249:3 1251:1 1252:1 1254:1 1256:7
1 196:1 232:1 679:3 686:1 744:1 762:1 771:1 905:2 948:1 975:1 1010:1 1072:1 1215:1 1218:1 1222:1 1224:2 1227:1 1238:1 1239:1 1247:1 1248:1 1249:3 1252:1 1254:1 1256:9
1 196:1 232:1 509:1 679:3 686:1 744:1 762:1 771:1 905:3 945:1 948:1 975:1 1010:1 1072:1 1215:1 1218:1 1222:1 1224:3 1227:1 1233:1 1238:1 1239:1 1247:1 1248:1 1249:3 1251:1 1252:1 1254:1 1256:7
1 679:1 1249:1 1256:8
1 196:1 232:1 679:1 686:1 744:1 762:1 771:1 905:1 948:1 975:1 1010:1 1072:1 1215:1 1218:1 1222:1 1224:1 1227:1 1238:1 1239:1 1247:1 1248:1 1249:1 1252:1 1254:1 1256:2
1 679:1 699:1 1010:1 1220:1 1247:1 1249:1 1256:1
1 512:1 679:1 686:1 771:1 905:1 948:1 1072:1 1087:1 1222:1 1224:1 1236:1 1239:1 1249:1 1252:1 1254:1 1255:1 1256:2
1 196:1 232:1 504:1 679:1 686:1 744:1 762:1 771:1 905:1 945:1 948:1 969:1 975:1 1010:1 1072:1 1215:1 1218:1 1222:1 1223:1 1224:1 1227:1 1230:1 1238:1 1239:1 1247:1 1248:1 1249:1 1251:1 1252:1 1254:1 1256:9
1 196:1 232:1 679:2 686:1 744:1 762:1 771:1 905:1 948:1 975:1 1010:1 1072:1 1215:1 1218:1 1222:1 1224:1 1227:1 1238:1 1239:1 1247:1 1248:1 1249:2 1252:1 1254:1 1256:7
1 196:1 232:1 679:1 686:1 744:1 762:1 771:1 905:1 948:1 975:1 1010:1 1072:1 1215:1 1218:1 1222:1 1224:1 1227:1 1238:1 1239:1 1247:1 1248:1 1249:1 1252:1 1254:1 1256:2
1 184:1 209:1 679:1 699:1 905:1 948:1 969:1 1072:1 1220:1 1221:1 1223:1 1224:1 1239:1 1249:1 1253:1 1254:1 1256:2
1 196:1 232:1 504:1 679:1 686:1 744:1 762:1 771:1 905:1 945:1 948:1 969:1 975:1 1010:1 1072:1 1215:1 1218:1 1222:1 1223:1 1224:1 1227:1 1230:1 1238:1 1239:1 1247:1 1248:1 1249:1 1251:1 1252:1 1254:1 1256:9
1 184:1 209:1 679:1 699:1 905:1 948:1 969:1 1072:1 1220:1 1221:1 1223:1 1224:1 1239:1 1249:1 1253:1 1254:1 1256:2
1 448:1 1241:1 1256:4
1 168:1 196:1 679:1 686:1 771:1 1072:1 1215:1 1222:1 1239:1 1240:1 1249:1 1252:1 1256:8
1 196:1 232:1 679:1 686:1 744:1 762:1 771:1 905:1 945:1 948:1 975:1 1010:1 1072:1 1215:1 1218:1 1222:1 1224:1 1227:1 1238:1 1239:1 1247:1 1248:1 1249:1 1251:1 1252:1 1254:1 1256:10 1258:1
1 679:1 1249:1 1256:7
1 448:1 1241:1 1256:4
1 679:1 771:1 905:1 1072:1 1222:1 1224:1 1239:1 1249:1 1256:4 1258:1
1 679:1 905:1 948:1 1072:1 1224:1 1239:1 1249:1 1254:1 1256:4
1 184:1 209:1 679:1 699:1 905:1 948:1 969:1 1072:1 1220:1 1221:1 1223:1 1224:1 1239:1 1249:1 1253:1 1254:1 1256:2
1 184:1 679:1 1249:1 1253:1 1256:5
1 184:1 679:1 1249:1 1253:1 1256:5 1258:1
1 679:1 1249:1 1256:8
1 196:1 232:1 679:1 686:1 744:1 762:1 771:1 905:1 948:1 975:1 1010:1 1072:1 1215:1 1218:1 1222:1 1224:1 1227:1 1238:1 1239:1 1247:1 1248:1 1249:1 1252:1 1254:1 1256:2
1 184:1 209:1 679:1 699:1 905:1 948:1 969:1 1072:1 1220:1 1221:1 1223:1 1224:1 1239:1 1249:1 1253:1 1254:1 1256:2
1 196:1 232:1 679:1 686:1 744:1 762:1 771:1 905:1 948:1 975:1 1010:1 1072:1 1215:1 1218:1 1222:1 1224:1 1227:1 1238:1 1239:1 1247:1 1248:1 1249:1 1252:1 1254:1 1256:2
1 679:1 1249:1 1256:8
1 196:1 232:1 679:1 686:1 744:1 762:1 771:1 905:1 948:1 975:1 1010:1 1072:1 1215:1 1218:1 1222:1 1224:1 1227:1 1238:1 1239:1 1247:1 1248:1 1249:1 1252:1 1254:1 1256:2
1 184:1 209:1 679:1 699:1 905:1 948:1 969:1 1072:1 1220:1 1221:1 1223:1 1224:1 1239:1 1249:1 1253:1 1254:1 1256:2
1 196:1 232:1 679:1 686:1 744:1 762:1 771:1 905:1 948:1 975:1 1010:1 1072:1 1215:1 1218:1 1222:1 1224:1 1227:1 1238:1 1239:1 1247:1 1248:1 1249:1 1252:1 1254:1 1256:2
1 196:1 232:1 679:1 686:1 744:1 762:1 771:1 905:1 948:1 975:1 1010:1 1072:1 1215:1 1218:1 1222:1 1224:1 1227:1 1238:1 1239:1 1247:1 1248:1 1249:1 1252:1 1254:1 1256:9
1 184:1 679:1 905:1 1072:1 1224:1 1239:1 1249:1 1253:1 1256:3
1 184:1 209:1 679:1 699:1 905:1 948:1 969:1 1072:1 1220:1 1221:1 1223:1 1224:1 1239:1 1249:1 1253:1 1254:1 1256:2
1 196:1 232:1 679:1 686:1 744:1 762:1 771:1 905:1 948:1 975:1 1010:1 1072:1 1215:1 1218:1 1222:1 1224:1 1227:1 1238:1 1239:1 1247:1 1248:1 1249:1 1252:1 1254:1 1256:2
1 196:1 232:1 679:1 686:1 744:1 762:1 771:1 905:1 948:1 975:1 1010:1 1072:1 1215:1 1218:1 1222:1 1224:1 1227:1 1238:1 1239:1 1247:1 1248:1 1249:1 1252:1 1254:1 1256:2
1 512:1 679:1 686:1 771:1 905:1 948:1 1072:1 1087:1 1222:1 1224:1 1236:1 1239:1 1249:1 1252:1 1254:1 1255:1 1256:2
1 196:1 232:1 679:1 686:1 744:1 762:1 771:1 905:1 948:1 975:1 1010:1 1072:1 1215:1 1218:1 1222:1 1224:1 1227:1 1238:1 1239:1 1247:1 1248:1 1249:1 1252:1 1254:1 1256:2
1 196:1 232:1 679:1 686:1 744:1 762:1 771:1 905:1 948:1 975:1 1010:1 1072:1 1215:1 1218:1 1222:1 1224:1 1227:1 1238:1 1239:1 1247:1 1248:1 1249:1 1252:1 1254:1 1256:2
1 184:1 209:1 679:1 699:1 905:1 948:1 969:1 1072:1 1220:1 1221:1 1223:1 1224:1 1239:1 1249:1 1253:1 1254:1 1256:2
1 184:1 679:1 1249:1 1253:1 1256:5
1 184:1 679:1 1249:1 1253:1 1256:2
1 196:1 232:1 679:1 686:1 744:1 762:1 771:1 905:1 948:1 975:1 1010:1 1072:1 1215:1 1218:1 1222:1 1224:1 1227:1 1238:1 1239:1 1247:1 1248:1 1249:1 1252:1 1254:1 1256:2
1 196:1 232:1 679:1 686:1 744:1 762:1 771:1 905:1 945:1 948:1 975:1 1010:1 1072:1 1215:1 1218:1 1222:1 1224:1 1227:1 1238:1 1239:1 1247:1 1248:1 1249:1 1251:1 1252:1 1254:1 1256:8
1 184:1 209:1 679:1 699:1 905:1 948:1 969:1 1072:1 1220:1 1221:1 1223:1 1224:1 1239:1 1249:1 1253:1 1254:1 1256:2
1 196:1 232:1 679:1 686:1 744:1 762:1 771:1 905:1 948:1 975:1 1010:1 1072:1 1215:1 1218:1 1222:1 1224:1 1227:1 1238:1 1239:1 1247:1 1248:1 1249:1 1252:1 1254:1 1256:2
1 196:1 232:1 679:1 686:1 744:1 762:1 771:1 905:1 948:1 975:1 1010:1 1072:1 1215:1 1218:1 1222:1 1224:1 1227:1 1238:1 1239:1 1247:1 1248:1 1249:1 1252:1 1254:1 1256:2
1 196:1 232:1 679:1 686:1 744:1 762:1 771:1 905:1 948:1 975:1 1010:1 1072:1 1215:1 1218:1 1222:1 1224:1 1227:1 1238:1 1239:1 1247:1 1248:1 1249:1 1252:1 1254:1 1256:2
1 184:1 679:1 686:1 771:1 905:1 948:1 969:1 1072:1 1222:1 1223:1 1224:1 1239:1 1249:1 1252:1 1253:1 1254:1 1256:4
1 196:1 232:1 679:1 686:1 744:1 762:1 771:1 905:1 948:1 975:1 1010:1 1072:1 1215:1 1218:1 1222:1 1224:1 1227:1 1238:1 1239:1 1247:1 1248:1 1249:1 1252:1 1254:1 1256:2
1 196:1 232:1 679:3 686:1 744:1 762:1 771:1 905:1 948:1 975:1 1010:1 1072:1 1215:1 1218:1 1222:1 1224:1 1227:1 1238:1 1239:1 1247:1 1248:1 1249:3 1252:1 1254:1 1256:7
1 679:1 1072:1 1239:1 1249:1 1256:3
1 184:1 209:1 679:1 699:1 905:1 948:1 969:1 1072:1 1220:1 1221:1 1223:1 1224:1 1239:1 1249:1 1253:1 1254:1 1256:2
1 184:1 209:1 679:1 699:1 905:1 948:1 969:1 1072:1 1220:1 1221:1 1223:1 1224:1 1239:1 1249:1 1253:1 1254:1 1256:2
1 196:1 232:1 504:1 679:1 686:1 744:1 762:1 771:1 905:1 948:1 969:1 975:1 1010:1 1072:1 1215:1 1218:1 1222:1 1223:1 1224:1 1227:1 1230:1 1238:1 1239:1 1247:1 1248:1 1249:1 1252:1 1254:1 1256:9
1 196:1 232:1 679:3 686:1 744:1 762:1 771:1 905:1 948:1 975:1 1010:1 1072:1 1215:1 1218:1 1222:1 1224:1 1227:1 1238:1 1239:1 1247:1 1248:1 1249:3 1252:1 1254:1 1256:7
1 504:1 679:1 771:1 1222:1 1230:1 1249:1 1256:3
1 448:1 504:1 679:1 686:1 905:1 948:1 969:1 1072:1 1223:1 1224:1 1230:1 1239:1 1241:1 1249:1 1252:1 1254:1 1256:7
1 184:1 679:1 1249:1 1253:1 1256:5
1 679:1 1249:1 1256:8
1 196:1 232:1 679:1 686:1 744:1 762:1 771:1 905:1 948:1 975:1 1010:1 1072:1 1215:1 1218:1 1222:1 1224:1 1227:1 1238:1 1239:1 1247:1 1248:1 1249:1 1252:1 1254:1 1256:2
1 679:1 1249:1 1256:8
1 196:1 232:1 509:1 679:3 686:1 744:1 762:1 771:1 905:3 948:1 975:1 1010:1 1072:1 1215:1 1218:1 1222:1 1224:3 1227:1 1233:1 1238:1 1239:1 1247:1 1248:1 1249:3 1252:1 1254:1 1256:6
1 184:1 679:1 1249:1 1253:1 1256:5
1 504:1 679:1 771:1 1222:1 1230:1 1249:1 1256:3
1 679:1 699:1 1220:1 1249:1 1256:6
1 196:1 232:1 679:1 686:1 744:1 762:1 771:1 905:1 948:1 975:1 1010:1 1072:1 1215:1 1218:1 1222:1 1224:1 1227:1 1238:1 1239:1 1247:1 1248:1 1249:1 1252:1 1254:1 1256:2
1 512:1 679:1 686:1 771:1 905:1 948:1 1072:1 1087:1 1222:1 1224:1 1236:1 1239:1 1249:1 1252:1 1254:1 1255:1 1256:2
1 184:1 679:1 1249:1 1253:1 1256:4 1258:1
1 196:1 232:1 679:1 686:1 744:1 762:1 771:1 905:1 948:1 975:1 1010:1 1072:1 1215:1 1218:1 1222:1 1224:1 1227:1 1238:1 1239:1 1247:1 1248:1 1249:1 1252:1 1254:1 1256:2
1 196:1 232:1 679:1 686:1 744:1 762:1 771:1 905:1 948:1 975:1 1010:1 1072:1 1215:1 1218:1 1222:1 1224:1 1227:1 1238:1 1239:1 1247:1 1248:1 1249:1 1252:1 1254:1 1256:2
1 184:1 302:1 504:1 604:1 621:1 642:1 652:1 666:1 679:1 686:1 771:1 905:1 948:1 1185:1 1219:1 1222:1 1224:1 1229:1 1230:1 1231:1 1234:1 1237:1 1242:1 1249:1 1250:1 1252:1 1253:1 1254:1 1256:3
1 184:1 209:1 679:1 699:1 905:1 948:1 969:1 1072:1 1220:1 1221:1 1223:1 1224:1 1239:1 1249:1 1253:1 1254:1 1256:2
1 196:1 232:1 504:1 679:1 686:1 744:1 762:1 771:1 905:1 948:1 969:1 975:1 1010:1 1072:1 1215:1 1218:1 1222:1 1223:1 1224:1 1227:1 1230:1 1238:1 1239:1 1247:1 1248:1 1249:1 1252:1 1254:1 1256:9
1 512:1 679:1 686:1 771:1 905:1 948:1 1072:1 1087:1 1222:1 1224:1 1236:1 1239:1 1249:1 1252:1 1254:1 1255:1 1256:2
1 196:1 232:1 679:1 686:1 744:1 762:1 771:1 905:1 945:1 948:1 975:1 1010:1 1072:1 1215:1 1218:1 1222:1 1224:1 1227:1 1238:1 1239:1 1247:1 1248:1 1249:1 1251:1 1252:1 1254:1 1256:9
1 196:1 232:1 679:3 686:1 744:1 762:1 771:1 905:1 945:1 948:1 975:1 1010:1 1072:1 1215:1 1218:1 1222:1 1224:1 1227:1 1238:1 1239:1 1247:1 1248:1 1249:3 1251:1 1252:1 1254:1 1256:7 1258:1
1 679:1 1249:1 1256:7 1258:1
1 196:1 232:1 679:1 686:1 744:1 762:1 771:1 905:1 948:1 975:1 1010:1 1072:1 1215:1 1218:1 1222:1 1224:1 1227:1 1238:1 1239:1 1247:1 1248:1 1249:1 1252:1 1254:1 1256:2
1 196:1 232:1 679:1 686:1 744:1 762:1 771:1 905:1 948:1 975:1 1010:1 1072:1 1215:1 1218:1 1222:1 1224:1 1227:1 1238:1 1239:1 1247:1 1248:1 1249:1 1252:1 1254:1 1256:2
1 196:1 232:1 679:1 686:1 744:1 762:1 771:1 905:1 948:1 975:1 1010:1 1072:1 1215:1 1218:1 1222:1 1224:1 1227:1 1238:1 1239:1 1247:1 1248:1 1249:1 1252:1 1254:1 1256:2
1 196:1 232:1 679:1 686:1 744:1 762:1 771:1 905:1 948:1 975:1 1010:1 1072:1 1215:1 1218:1 1222:1 1224:1 1227:1 1238:1 1239:1 1247:1 1248:1 1249:1 1252:1 1254:1 1256:2
1 184:1 209:1 679:1 699:1 905:1 948:1 969:1 1072:1 1220:1 1221:1 1223:1 1224:1 1239:1 1249:1 1253:1 1254:1 1256:2
1 196:1 232:1 679:1 686:1 744:1 762:1 771:1 905:1 948:1 975:1 1010:1 1072:1 1215:1 1218:1 1222:1 1224:1 1227:1 1238:1 1239:1 1247:1 1248:1 1249:1 1252:1 1254:1 1256:2
1 184:1 209:1 679:1 699:1 905:1 948:1 969:1 1072:1 1220:1 1221:1 1223:1 1224:1 1239:1 1249:1 1253:1 1254:1 1256:2
1 184:1 679:1 686:1 771:1 905:1 948:1 969:1 1072:1 1222:1 1223:1 1224:1 1239:1 1249:1 1252:1 1253:1 1254:1 1256:4
1 679:1 1249:1 1256:8
1 679:1 1249:1 1256:8 1258:1
1 184:1 209:1 679:1 699:1 905:1 948:1 969:1 1072:1 1220:1 1221:1 1223:1 1224:1 1239:1 1249:1 1253:1 1254:1 1256:2
1 196:1 232:1 679:1 686:1 744:1 762:1 771:1 905:1 948:1 975:1 1010:1 1072:1 1215:1 1218:1 1222:1 1224:1 1227:1 1238:1 1239:1 1247:1 1248:1 1249:1 1252:1 1254:1 1256:2
1 184:1 209:1 679:1 699:1 905:1 948:1 969:1 1072:1 1220:1 1221:1 1223:1 1224:1 1239:1 1249:1 1253:1 1254:1 1256:2
1 184:1 209:1 679:1 699:1 905:1 948:1 969:1 1072:1 1220:1 1221:1 1223:1 1224:1 1239:1 1249:1 1253:1 1254:1 1256:2
1 196:1 232:1 679:1 686:1 744:1 762:1 771:1 905:1 948:1 975:1 1010:1 1072:1 1215:1 1218:1 1222:1 1224:1 1227:1 1238:1 1239:1 1247:1 1248:1 1249:1 1252:1 1254:1 1256:2
1 679:1 1249:1 1256:8
1 196:1 232:1 679:1 686:1 744:1 762:1 771:1 905:1 948:1 975:1 1010:1 1072:1 1215:1 1218:1 1222:1 1224:1 1227:1 1238:1 1239:1 1247:1 1248:1 1249:1 1252:1 1254:1 1256:2
1 196:1 232:1 679:1 686:1 744:1 762:1 771:1 905:1 948:1 975:1 1010:1 1072:1 1215:1 1218:1 1222:1 1224:1 1227:1 1238:1 1239:1 1247:1 1248:1 1249:1 1252:1 1254:1 1256:2
1 184:1 209:1 679:1 699:1 905:1 948:1 969:1 1072:1 1220:1 1221:1 1223:1 1224:1 1239:1 1249:1 1253:1 1254:1 1256:2
1 196:1 232:1 679:3 686:1 744:1 762:1 771:1 905:1 948:1 975:1 1010:1 1072:1 1215:1 1218:1 1222:1 1224:1 1227:1 1238:1 1239:1 1247:1 1248:1 1249:3 1252:1 1254:1 1256:7
1 196:1 232:1 679:1 686:1 744:1 762:1 771:1 905:1 948:1 975:1 1010:1 1072:1 1215:1 1218:1 1222:1 1224:1 1227:1 1238:1 1239:1 1247:1 1248:1 1249:1 1252:1 1254:1 1256:2
1 196:1 232:1 679:1 686:1 744:1 762:1 771:1 905:1 948:1 975:1 1010:1 1072:1 1215:1 1218:1 1222:1 1224:1 1227:1 1238:1 1239:1 1247:1 1248:1 1249:1 1252:1 1254:1 1256:5
1 679:1 771:1 1072:1 1222:1 1239:1 1249:1 1256:4
1 679:1 948:1 1249:1 1254:1 1256:2
1 679:1 1249:1 1256:8
1 196:1 232:1 679:1 686:1 744:1 762:1 771:1 905:1 948:1 975:1 1010:1 1072:1 1215:1 1218:1 1222:1 1224:1 1227:1 1238:1 1239:1 1247:1 1248:1 1249:1 1252:1 1254:1 1256:2
1 679:1 771:1 905:1 1222:1 1224:1 1249:1 1256:2
1 196:1 232:1 679:1 686:1 744:1 762:1 771:1 905:1 948:1 975:1 1010:1 1072:1 1215:1 1218:1 1222:1 1224:1 1227:1 1238:1 1239:1 1247:1 1248:1 1249:1 1252:1 1254:1 1256:2
1 196:1 232:1 679:1 686:1 744:1 762:1 771:1 905:1 948:1 975:1 1010:1 1072:1 1215:1 1218:1 1222:1 1224:1 1227:1 1238:1 1239:1 1247:1 1248:1 1249:1 1252:1 1254:1 1256:2
1 679:1 1249:1 1256:2
1 512:1 679:1 686:1 771:1 905:1 948:1 1072:1 1087:1 1222:1 1224:1 1236:1 1239:1 1249:1 1252:1 1254:1 1255:1 1256:2
1 679:1 1249:1 1256:5 1258:1
1 448:1 1241:1 1256:5
1 679:1 1249:1 1256:8
1 184:1 679:1 905:1 1072:1 1224:1 1239:1 1249:1 1253:1 1256:3
1 679:1 1249:1 1256:8
1 196:1 232:1 509:1 679:3 686:1 744:1 762:1 771:1 905:3 948:1 975:1 1010:1 1072:1 1215:1 1218:1 1222:1 1224:3 1227:1 1233:1 1238:1 1239:1 1247:1 1248:1 1249:3 1252:1 1254:1 1256:7
1 504:1 679:3 686:1 771:1 905:1 1072:1 1222:1 1224:1 1230:1 1239:1 1249:3 1252:1 1256:9
1 196:1 232:1 679:1 686:1 744:1 762:1 771:1 905:1 948:1 975:1 1010:1 1072:1 1215:1 1218:1 1222:1 1224:1 1227:1 1238:1 1239:1 1247:1 1248:1 1249:1 1252:1 1254:1 1256:2
1 196:1 232:1 504:1 679:1 686:1 744:1 762:1 771:1 905:1 945:1 948:1 969:1 975:1 1010:1 1072:1 1215:1 1218:1 1222:1 1223:1 1224:1 1227:1 1230:1 1238:1 1239:1 1247:1 1248:1 1249:1 1251:1 1252:1 1254:1 1256:9
1 196:1 232:1 679:2 686:1 744:1 762:1 771:1 905:1 948:1 975:1 1010:1 1072:1 1215:1 1218:1 1222:1 1224:1 1227:1 1238:1 1239:1 1247:1 1248:1 1249:2 1252:1 1254:1 1256:6
1 512:1 679:1 686:1 771:1 905:1 948:1 1222:1 1224:1 1236:1 1249:1 1252:1 1254:1 1256:3
1 679:1 771:1 1072:1 1222:1 1239:1 1249:1 1256:4
1 679:1 1249:1 1256:7
1 679:1 1249:1 1256:8
1 184:1 302:1 504:1 604:1 621:1 642:1 652:1 666:1 679:1 686:1 771:1 905:1 948:1 1185:1 1219:1 1222:1 1224:1 1229:1 1230:1 1231:1 1234:1 1237:1 1242:1 1249:1 1250:1 1252:1 1253:1 1254:1 1256:2
1 679:1 1072:1 1239:1 1249:1 1256:2
1 196:1 232:1 679:1 686:1 744:1 762:1 771:1 905:1 948:1 975:1 1010:1 1072:1 1215:1 1218:1 1222:1 1224:1 1227:1 1238:1 1239:1 1247:1 1248:1 1249:1 1252:1 1254:1 1256:2
1 184:1 679:1 1249:1 1253:1 1256:5
1 679:1 1072:1 1239:1 1249:1 1256:2
1 196:1 232:1 679:3 686:1 744:1 762:1 771:1 905:2 948:1 975:1 1010:1 1072:1 1215:1 1218:1 1222:1 1224:2 1227:1 1238:1 1239:1 1247:1 1248:1 1249:3 1252:1 1254:1 1256:8
1 196:1 232:1 509:1 679:3 686:1 744:1 762:1 771:1 905:3 945:1 948:1 975:1 1010:1 1072:1 1215:1 1218:1 1222:1 1224:3 1227:1 1233:1 1238:1 1239:1 1247:1 1248:1 1249:3 1251:1 1252:1 1254:1 1256:6 1258:1
1 196:1 232:1 679:1 686:1 744:1 762:1 771:1 905:1 948:1 975:1 1010:1 1072:1 1215:1 1218:1 1222:1 1224:1 1227:1 1238:1 1239:1 1247:1 1248:1 1249:1 1252:1 1254:1 1256:2
1 679:1 1249:1 1256:7
1 448:1 1241:1 1256:5
1 196:1 232:1 679:1 686:1 744:1 762:1 771:1 905:1 948:1 975:1 1010:1 1072:1 1215:1 1218:1 1222:1 1224:1 1227:1 1238:1 1239:1 1247:1 1248:1 1249:1 1252:1 1254:1 1256:2
1 196:1 232:1 679:1 686:1 744:1 762:1 771:1 905:1 948:1 975:1 1010:1 1072:1 1215:1 1218:1 1222:1 1224:1 1227:1 1238:1 1239:1 1247:1 1248:1 1249:1 1252:1 1254:1 1256:2
1 196:1 232:1 679:1 686:1 744:1 762:1 771:1 905:1 945:1 948:1 975:1 1010:1 1072:1 1215:1 1218:1 1222:1 1224:1 1227:1 1238:1 1239:1 1247:1 1248:1 1249:1 1251:1 1252:1 1254:1 1256:9
1 196:1 232:1 679:1 686:1 744:1 762:1 771:1 905:1 948:1 975:1 1010:1 1072:1 1215:1 1218:1 1222:1 1224:1 1227:1 1238:1 1239:1 1247:1 1248:1 1249:1 1252:1 1254:1 1256:2
1 196:1 232:1 504:1 679:1 686:1 744:1 762:1 771:1 905:1 945:1 948:1 969:1 975:1 1010:1 1072:1 1215:1 1218:1 1222:1 1223:1 1224:1 1227:1 1230:1 1238:1 1239:1 1247:1 1248:1 1249:1 1251:1 1252:1 1254:1 1256:9
1 196:1 232:1 679:1 686:1 744:1 762:1 771:1 905:1 948:1 975:1 1010:1 1072:1 1215:1 1218:1 1222:1 1224:1 1227:1 1238:1 1239:1 1247:1 1248:1 1249:1 1252:1 1254:1 1256:2
1 184:1 209:1 679:1 699:1 905:1 948:1 969:1 1072:1 1220:1 1221:1 1223:1 1224:1 1239:1 1249:1 1253:1 1254:1 1256:2
1 184:1 679:1 686:1 771:1 905:1 948:1 1072:1 1222:1 1224:1 1239:1 1249:1 1252:1 1253:1 1254:1 1256:3
1 512:1 679:1 1072:1 1236:1 1239:1 1249:1 1256:2
1 196:1 232:1 504:1 679:1 686:1 744:1 762:1 771:1 905:1 948:1 969:1 975:1 1010:1 1072:1 1215:1 1218:1 1222:1 1223:1 1224:1 1227:1 1230:1 1238:1 1239:1 1247:1 1248:1 1249:1 1252:1 1254:1 1256:8
1 196:1 232:1 504:1 679:1 686:1 744:1 762:1 771:1 905:1 948:1 969:1 975:1 1010:1 1072:1 1215:1 1218:1 1222:1 1223:1 1224:1 1227:1 1230:1 1238:1 1239:1 1247:1 1248:1 1249:1 1252:1 1254:1 1256:9
1 196:1 232:1 679:2 686:1 744:1 762:1 771:1 905:1 948:1 975:1 1010:1 1072:1 1215:1 1218:1 1222:1 1224:1 1227:1 1238:1 1239:1 1247:1 1248:1 1249:2 1252:1 1254:1 1256:8
1 679:1 1249:1 1256:5 1258:1
1 196:1 232:1 679:1 686:1 744:1 762:1 771:1 905:1 948:1 975:1 1010:1 1072:1 1215:1 1218:1 1222:1 1224:1 1227:1 1238:1 1239:1 1247:1 1248:1 1249:1 1252:1 1254:1 1256:7
1 679:1 1249:1 1256:7 1258:1
1 184:1 209:1 679:1 699:1 905:1 948:1 969:1 1072:1 1220:1 1221:1 1223:1 1224:1 1239:1 1249:1 1253:1 1254:1 1256:2
1 196:1 232:1 679:1 686:1 744:1 762:1 771:1 905:1 948:1 975:1 1010:1 1072:1 1215:1 1218:1 1222:1 1224:1 1227:1 1238:1 1239:1 1247:1 1248:1 1249:1 1252:1 1254:1 1256:2
1 679:1 1249:1 1256:8
1 196:1 232:1 679:2 686:1 744:1 762:1 771:1 905:1 945:1 948:1 975:1 1010:1 1072:1 1215:1 1218:1 1222:1 1224:1 1227:1 1238:1 1239:1 1247:1 1248:1 1249:2 1251:1 1252:1 1254:1 1256:12 1258:1
1 196:1 232:1 679:1 686:1 744:1 762:1 771:1 905:1 948:1 975:1 1010:1 1072:1 1215:1 1218:1 1222:1 1224:1 1227:1 1238:1 1239:1 1247:1 1248:1 1249:1 1252:1 1254:1 1256:2
1 196:1 232:1 679:4 686:1 744:1 762:1 771:1 905:2 945:1 948:1 975:1 1010:1 1072:1 1215:1 1218:1 1222:1 1224:2 1227:1 1238:1 1239:1 1247:1 1248:1 1249:4 1251:1 1252:1 1254:1 1256:9 1258:1
1 184:1 209:1 679:1 699:1 905:1 948:1 969:1 1072:1 1220:1 1221:1 1223:1 1224:1 1239:1 1249:1 1253:1 1254:1 1256:2
1 184:1 679:1 686:1 771:1 905:1 948:1 969:1 1072:1 1222:1 1223:1 1224:1 1239:1 1249:1 1252:1 1253:1 1254:1 1256:3
1 184:1 679:1 1249:1 1253:1 1256:4
1 679:1 1072:1 1239:1 1249:1 1256:3
1 184:1 679:1 1249:1 1253:1 1256:5
1 679:1 948:1 1249:1 1254:1 1256:2
1 679:1 1249:1 1256:8
1 196:1 232:1 679:1 686:1 744:1 762:1 771:1 905:1 948:1 975:1 1010:1 1072:1 1215:1 1218:1 1222:1 1224:1 1227:1 1238:1 1239:1 1247:1 1248:1 1249:1 1252:1 1254:1 1256:2
1 196:1 232:1 679:1 686:1 744:1 762:1 771:1 905:1 948:1 975:1 1010:1 1072:1 1215:1 1218:1 1222:1 1224:1 1227:1 1238:1 1239:1 1247:1 1248:1 1249:1 1252:1 1254:1 1256:2
1 196:1 232:1 679:1 686:1 744:1 762:1 771:1 905:1 945:1 948:1 975:1 1010:1 1072:1 1215:1 1218:1 1222:1 1224:1 1227:1 1238:1 1239:1 1247:1 1248:1 1249:1 1251:1 1252:1 1254:1 1256:8
1 196:1 232:1 509:1 679:4 686:1 744:1 762:1 771:1 905:3 945:1 948:1 975:1 1010:1 1072:1 1215:1 1218:1 1222:1 1224:3 1227:1 1233:1 1238:1 1239:1 1247:1 1248:1 1249:4 1251:1 1252:1 1254:1 1256:9
1 196:1 232:1 679:2 686:1 744:1 762:1 771:1 905:1 948:1 975:1 1010:1 1072:1 1215:1 1218:1 1222:1 1224:1 1227:1 1238:1 1239:1 1247:1 1248:1 1249:2 1252:1 1254:1 1256:7
1 448:1 1241:1 1256:4
1 196:1 232:1 679:1 686:1 744:1 762:1 771:1 905:1 948:1 975:1 1010:1 1072:1 1215:1 1218:1 1222:1 1224:1 1227:1 1238:1 1239:1 1247:1 1248:1 1249:1 1252:1 1254:1 1256:2
1 184:1 209:1 679:1 699:1 905:1 948:1 969:1 1072:1 1220:1 1221:1 1223:1 1224:1 1239:1 1249:1 1253:1 1254:1 1256:2
1 196:1 232:1 679:1 686:1 744:1 762:1 771:1 905:1 948:1 975:1 1010:1 1072:1 1215:1 1218:1 1222:1 1224:1 1227:1 1238:1 1239:1 1247:1 1248:1 1249:1 1252:1 1254:1 1256:2
1 448:1 1241:1 1256:4
1 196:1 232:1 679:3 686:1 744:1 762:1 771:1 905:1 948:1 975:1 1010:1 1072:1 1215:1 1218:1 1222:1 1224:1 1227:1 1238:1 1239:1 1247:1 1248:1 1249:3 1252:1 1254:1 1256:8
1 184:1 679:1 1249:1 1253:1 1256:5
1 196:1 232:1 504:1 679:1 686:1 744:1 762:1 771:1 905:1 945:1 948:1 969:1 975:1 1010:1 1072:1 1215:1 1218:1 1222:1 1223:1 1224:1 1227:1 1230:1 1238:1 1239:1 1247:1 1248:1 1249:1 1251:1 1252:1 1254:1 1256:9
1 679:1 1249:1 1256:8
1 679:1 699:1 905:1 948:1 1072:1 1220:1 1224:1 1239:1 1249:1 1254:1 1256:3
1 196:1 232:1 679:1 686:1 744:1 762:1 771:1 905:1 948:1 975:1 1010:1 1072:1 1215:1 1218:1 1222:1 1224:1 1227:1 1238:1 1239:1 1247:1 1248:1 1249:1 1252:1 1254:1 1256:2
1 448:1 1241:1 1256:3
1 184:1 209:1 679:1 699:1 905:1 948:1 969:1 1072:1 1220:1 1221:1 1223:1 1224:1 1239:1 1249:1 1253:1 1254:1 1256:2
1 448:1 1241:1 1256:4
1 512:1 679:1 905:1 948:1 1224:1 1236:1 1249:1 1254:1 1256:2
1 184:1 209:1 679:1 699:1 905:1 948:1 969:1 1072:1 1220:1 1221:1 1223:1 1224:1 1239:1 1249:1 1253:1 1254:1 1256:2
1 196:1 232:1 679:1 686:1 744:1 762:1 771:1 905:1 948:1 975:1 1010:1 1072:1 1215:1 1218:1 1222:1 1224:1 1227:1 1238:1 1239:1 1247:1 1248:1 1249:1 1252:1 1254:1 1256:2
1 679:1 1249:1 1256:8
1 196:1 232:1 679:1 686:1 744:1 762:1 771:1 905:1 948:1 975:1 1010:1 1072:1 1215:1 1218:1 1222:1 1224:1 1227:1 1238:1 1239:1 1247:1 1248:1 1249:1 1252:1 1254:1 1256:2
1 679:1 1072:1 1239:1 1249:1 1256:3
1 184:1 209:1 679:1 699:1 905:1 948:1 969:1 1072:1 1220:1 1221:1 1223:1 1224:1 1239:1 1249:1 1253:1 1254:1 1256:2
1 504:1 679:1 686:1 771:1 905:1 1072:1 1222:1 1224:1 1230:1 1239:1 1249:1 1252:1 1256:6
1 196:1 232:1 679:1 686:1 744:1 762:1 771:1 905:1 948:1 975:1 1010:1 1072:1 1215:1 1218:1 1222:1 1224:1 1227:1 1238:1 1239:1 1247:1 1248:1 1249:1 1252:1 1254:1 1256:2
1 679:1 1249:1 1256:6 1258:1
1 679:1 1072:1 1239:1 1249:1 1256:3
1 184:1 209:1 679:1 699:1 905:1 948:1 969:1 1072:1 1220:1 1221:1 1223:1 1224:1 1239:1 1249:1 1253:1 1254:1 1256:2
1 184:1 209:1 679:1 699:1 905:1 948:1 969:1 1072:1 1220:1 1221:1 1223:1 1224:1 1239:1 1249:1 1253:1 1254:1 1256:2
1 196:1 232:1 504:1 679:1 686:1 744:1 762:1 771:1 905:1 948:1 969:1 975:1 1010:1 1072:1 1215:1 1218:1 1222:1 1223:1 1224:1 1227:1 1230:1 1238:1 1239:1 1247:1 1248:1 1249:1 1252:1 1254:1 1256:8
1 196:1 232:1 679:1 686:1 744:1 762:1 771:1 905:1 948:1 975:1 1010:1 1072:1 1215:1 1218:1 1222:1 1224:1 1227:1 1238:1 1239:1 1247:1 1248:1 1249:1 1252:1 1254:1 1256:2
1 196:1 232:1 679:1 686:1 744:1 762:1 771:1 905:1 948:1 975:1 1010:1 1072:1 1215:1 1218:1 1222:1 1224:1 1227:1 1238:1 1239:1 1247:1 1248:1 1249:1 1252:1 1254:1 1256:2
1 184:1 679:1 1249:1 1253:1 1256:4
1 196:1 232:1 504:1 679:1 686:1 744:1 762:1 771:1 905:1 945:1 948:1 969:1 975:1 1010:1 1072:1 1215:1 1218:1 1222:1 1223:1 1224:1 1227:1 1230:1 1238:1 1239:1 1247:1 1248:1 1249:1 1251:1 1252:1 1254:1 1256:9
1 679:1 1249:1 1256:8
1 196:1 232:1 679:3 686:1 744:1 762:1 771:1 905:1 945:1 948:1 975:1 1010:1 1072:1 1215:1 1218:1 1222:1 1224:1 1227:1 1238:1 1239:1 1247:1 1248:1 1249:3 1251:1 1252:1 1254:1 1256:7
1 184:1 679:1 905:1 1072:1 1224:1 1239:1 1249:1 1253:1 1256:3
1 679:1 1249:1 1256:7
1 196:1 232:1 679:3 686:1 744:1 762:1 771:1 905:2 948:1 975:1 1010:1 1072:1 1215:1 1218:1 1222:1 1224:2 1227:1 1238:1 1239:1 1247:1 1248:1 1249:3 1252:1 1254:1 1256:8
1 196:1 232:1 504:1 679:1 686:1 744:1 762:1 771:1 905:1 948:1 969:1 975:1 1010:1 1072:1 1215:1 1218:1 1222:1 1223:1 1224:1 1227:1 1230:1 1238:1 1239:1 1247:1 1248:1 1249:1 1252:1 1254:1 1256:8
1 448:1 1241:1 1256:5
1 184:1 679:1 1249:1 1253:1 1256:4 1258:1
1 184:1 679:1 686:1 771:1 905:1 948:1 1072:1 1222:1 1224:1 1239:1 1249:1 1252:1 1253:1 1254:1 1256:3
1 679:1 1249:1 1256:8
1 196:1 232:1 504:1 679:1 686:1 744:1 762:1 771:1 905:1 948:1 969:1 975:1 1010:1 1072:1 1215:1 1218:1 1222:1 1223:1 1224:1 1227:1 1230:1 1238:1 1239:1 1247:1 1248:1 1249:1 1252:1 1254:1 1256:9
1 196:1 232:1 679:1 686:1 744:1 762:1 771:1 905:1 948:1 975:1 1010:1 1072:1 1215:1 1218:1 1222:1 1224:1 1227:1 1238:1 1239:1 1247:1 1248:1 1249:1 1252:1 1254:1 1256:2
1 196:1 232:1 679:1 686:1 744:1 762:1 771:1 905:1 945:1 948:1 975:1 1010:1 1072:1 1215:1 1218:1 1222:1 1224:1 1227:1 1238:1 1239:1 1247:1 1248:1 1249:1 1251:1 1252:1 1254:1 1256:2
1 679:1 948:1 1249:1 1254:1 1256:2
1 679:1 1072:1 1239:1 1249:1 1256:3
1 196:1 232:1 679:1 686:1 744:1 762:1 771:1 905:1 948:1 975:1 1010:1 1072:1 1215:1 1218:1 1222:1 1224:1 1227:1 1238:1 1239:1 1247:1 1248:1 1249:1 1252:1 1254:1 1256:2
1 196:1 232:1 679:1 686:1 744:1 762:1 771:1 905:1 948:1 975:1 1010:1 1072:1 1215:1 1218:1 1222:1 1224:1 1227:1 1238:1 1239:1 1247:1 1248:1 1249:1 1252:1 1254:1 1256:2
1 679:1 1249:1 1256:7
1 196:1 232:1 504:1 679:1 686:1 744:1 762:1 771:1 905:1 948:1 969:1 975:1 1010:1 1072:1 1215:1 1218:1 1222:1 1223:1 1224:1 1227:1 1230:1 1238:1 1239:1 1247:1 1248:1 1249:1 1252:1 1254:1 1256:8
1 679:1 948:1 1249:1 1254:1 1256:2
1 196:1 232:1 509:1 679:3 686:1 744:1 762:1 771:1 905:3 948:1 975:1 1010:1 1072:1 1215:1 1218:1 1222:1 1224:3 1227:1 1233:1 1238:1 1239:1 1247:1 1248:1 1249:3 1252:1 1254:1 1256:7
1 679:1 1249:1 1256:8
1 196:1 232:1 504:1 679:1 686:1 744:1 762:1 771:1 905:1 945:1 948:1 969:1 975:1 1010:1 1072:1 1215:1 1218:1 1222:1 1223:1 1224:1 1227:1 1230:1 1238:1 1239:1 1247:1 1248:1 1249:1 1251:1 1252:1 1254:1 1256:9
1 184:1 679:1 1249:1 1253:1 1256:5
1 679:1 1249:1 1256:8
1 196:1 232:1 679:1 686:1 744:1 762:1 771:1 905:1 948:1 975:1 1010:1 1072:1 1215:1 1218:1 1222:1 1224:1 1227:1 1238:1 1239:1 1247:1 1248:1 1249:1 1252:1 1254:1 1256:2
1 679:1 905:1 1224:1 1249:1 1256:2
1 679:1 1249:1 1256:6 1258:1
1 679:1 1249:1 1256:5
1 679:1 1249:1 1256:8
1 679:1 1072:1 1239:1 1249:1 1256:3
1 196:1 232:1 679:1 686:1 744:1 762:1 771:1 905:1 948:1 975:1 1010:1 1072:1 1215:1 1218:1 1222:1 1224:1 1227:1 1238:1 1239:1 1247:1 1248:1 1249:1 1252:1 1254:1 1256:2
1 196:1 232:1 679:1 686:1 744:1 762:1 771:1 905:1 948:1 975:1 1010:1 1072:1 1215:1 1218:1 1222:1 1224:1 1227:1 1238:1 1239:1 1247:1 1248:1 1249:1 1252:1 1254:1 1256:2
1 196:1 232:1 679:1 686:1 744:1 762:1 771:1 905:1 948:1 975:1 1010:1 1072:1 1215:1 1218:1 1222:1 1224:1 1227:1 1238:1 1239:1 1247:1 1248:1 1249:1 1252:1 1254:1 1256:2
1 196:1 232:1 679:2 686:1 744:1 762:1 771:1 905:1 948:1 975:1 1010:1 1072:1 1215:1 1218:1 1222:1 1224:1 1227:1 1238:1 1239:1 1247:1 1248:1 1249:2 1252:1 1254:1 1256:13
1 196:1 232:1 679:1 686:1 744:1 762:1 771:1 905:1 945:1 948:1 975:1 1010:1 1072:1 1215:1 1218:1 1222:1 1224:1 1227:1 1238:1 1239:1 1247:1 1248:1 1249:1 1251:1 1252:1 1254:1 1256:2 1258:1
1 196:1 232:1 679:2 686:1 744:1 762:1 771:1 905:1 948:1 975:1 1010:1 1072:1 1215:1 1218:1 1222:1 1224:1 1227:1 1238:1 1239:1 1247:1 1248:1 1249:2 1252:1 1254:1 1256:7
1 196:1 232:1 679:1 686:1 744:1 762:1 771:1 905:1 948:1 975:1 1010:1 1072:1 1215:1 1218:1 1222:1 1224:1 1227:1 1238:1 1239:1 1247:1 1248:1 1249:1 1252:1 1254:1 1256:2
1 196:1 232:1 504:1 679:1 686:1 744:1 762:1 771:1 905:1 948:1 969:1 975:1 1010:1 1072:1 1215:1 1218:1 1222:1 1223:1 1224:1 1227:1 1230:1 1238:1 1239:1 1247:1 1248:1 1249:1 1252:1 1254:1 1256:8
1 679:1 1249:1 1256:6
1 184:1 679:1 1249:1 1253:1 1256:4
1 196:1 232:1 509:1 679:3 686:1 744:1 762:1 771:1 905:3 945:1 948:1 975:1 1010:1 1072:1 1215:1 1218:1 1222:1 1224:3 1227:1 1233:1 1238:1 1239:1 1247:1 1248:1 1249:3 1251:1 1252:1 1254:1 1256:6 1258:1
1 184:1 209:1 679:1 699:1 905:1 948:1 969:1 1072:1 1220:1 1221:1 1223:1 1224:1 1239:1 1249:1 1253:1 1254:1 1256:2
1 196:1 232:1 679:2 686:1 744:1 762:1 771:1 905:1 945:1 948:1 975:1 1010:1 1072:1 1215:1 1218:1 1222:1 1224:1 1227:1 1238:1 1239:1 1247:1 1248:1 1249:2 1251:1 1252:1 1254:1 1256:7
1 448:1 1241:1 1256:5
1 196:1 232:1 504:1 679:1 686:1 744:1 762:1 771:1 905:1 948:1 969:1 975:1 1010:1 1072:1 1215:1 1218:1 1222:1 1223:1 1224:1 1227:1 1230:1 1238:1 1239:1 1247:1 1248:1 1249:1 1252:1 1254:1 1256:8
1 448:1 1241:1 1256:4
1 196:1 232:1 679:1 686:1 744:1 762:1 771:1 905:1 948:1 975:1 1010:1 1072:1 1215:1 1218:1 1222:1 1224:1 1227:1 1238:1 1239:1 1247:1 1248:1 1249:1 1252:1 1254:1 1256:2
1 512:1 679:1 905:1 948:1 1072:1 1224:1 1236:1 1239:1 1249:1 1254:1 1256:2
1 196:1 232:1 679:1 686:1 744:1 762:1 771:1 905:1 948:1 975:1 1010:1 1072:1 1215:1 1218:1 1222:1 1224:1 1227:1 1238:1 1239:1 1247:1 1248:1 1249:1 1252:1 1254:1 1256:2
1 196:1 232:1 679:1 686:1 744:1 762:1 771:1 905:1 948:1 975:1 1010:1 1072:1 1215:1 1218:1 1222:1 1224:1 1227:1 1238:1 1239:1 1247:1 1248:1 1249:1 1252:1 1254:1 1256:2
1 184:1 679:1 1249:1 1253:1 1256:5
1 196:1 232:1 679:1 686:1 744:1 762:1 771:1 905:1 948:1 975:1 1010:1 1072:1 1215:1 1218:1 1222:1 1224:1 1227:1 1238:1 1239:1 1247:1 1248:1 1249:1 1252:1 1254:1 1256:8
1 679:1 1249:1 1256:7
1 196:1 232:1 679:1 686:1 744:1 762:1 771:1 905:1 945:1 948:1 975:1 1010:1 1072:1 1215:1 1218:1 1222:1 1224:1 1227:1 1238:1 1239:1 1247:1 1248:1 1249:1 1251:1 1252:1 1254:1 1256:9
1 184:1 209:1 679:1 699:1 905:1 948:1 969:1 1072:1 1220:1 1221:1 1223:1 1224:1 1239:1 1249:1 1253:1 1254:1 1256:2
1 196:1 232:1 679:1 686:1 744:1 762:1 771:1 905:1 948:1 975:1 1010:1 1072:1 1215:1 1218:1 1222:1 1224:1 1227:1 1238:1 1239:1 1247:1 1248:1 1249:1 1252:1 1254:1 1256:2
1 196:1 232:1 504:1 679:1 686:1 744:1 762:1 771:1 905:1 948:1 969:1 975:1 1010:1 1072:1 1215:1 1218:1 1222:1 1223:1 1224:1 1227:1 1230:1 1238:1 1239:1 1247:1 1248:1 1249:1 1252:1 1254:1 1256:8
1 679:1 1072:1 1239:1 1249:1 1256:3
1 184:1 679:1 1249:1 1253:1 1256:4
1 196:1 232:1 504:1 679:1 686:1 744:1 762:1 771:1 905:1 948:1 969:1 975:1 1010:1 1072:1 1215:1 1218:1 1222:1 1223:1 1224:1 1227:1 1230:1 1238:1 1239:1 1247:1 1248:1 1249:1 1252:1 1254:1 1256:9
1 196:1 232:1 679:1 686:1 744:1 762:1 771:1 905:1 948:1 975:1 1010:1 1072:1 1215:1 1218:1 1222:1 1224:1 1227:1 1238:1 1239:1 1247:1 1248:1 1249:1 1252:1 1254:1 1256:2
1 184:1 679:1 1249:1 1253:1 1256:5
1 184:1 209:1 679:1 699:1 905:1 948:1 969:1 1072:1 1220:1 1221:1 1223:1 1224:1 1239:1 1249:1 1253:1 1254:1 1256:2
1 196:1 232:1 504:1 679:1 686:1 744:1 762:1 771:1 905:1 945:1 948:1 969:1 975:1 1010:1 1072:1 1215:1 1218:1 1222:1 1223:1 1224:1 1227:1 1230:1 1238:1 1239:1 1247:1 1248:1 1249:1 1251:1 1252:1 1254:1 1256:9
1 184:1 209:1 679:1 699:1 905:1 948:1 969:1 1072:1 1220:1 1221:1 1223:1 1224:1 1239:1 1249:1 1253:1 1254:1 1256:2
1 448:1 1241:1 1256:3
1 196:1 232:1 679:1 686:1 744:1 762:1 771:1 905:1 948:1 975:1 1010:1 1072:1 1215:1 1218:1 1222:1 1224:1 1227:1 1238:1 1239:1 1247:1 1248:1 1249:1 1252:1 1254:1 1256:2
1 184:1 679:1 1249:1 1253:1 1256:5
1 184:1 209:1 679:1 699:1 905:1 948:1 969:1 1072:1 1220:1 1221:1 1223:1 1224:1 1239:1 1249:1 1253:1 1254:1 1256:2
1 196:1 232:1 509:1 679:4 686:1 744:1 762:1 771:1 905:3 948:1 975:1 1010:1 1072:1 1215:1 1218:1 1222:1 1224:3 1227:1 1233:1 1238:1 1239:1 1247:1 1248:1 1249:4 1252:1 1254:1 1256:8
1 184:1 679:1 1249:1 1253:1 1256:4
1 196:1 232:1 504:1 679:1 686:1 744:1 762:1 771:1 905:1 945:1 948:1 969:1 975:1 1010:1 1072:1 1215:1 1218:1 1222:1 1223:1 1224:1 1227:1 1230:1 1238:1 1239:1 1247:1 1248:1 1249:1 1251:1 1252:1 1254:1 1256:9
1 196:1 232:1 679:1 686:1 744:1 762:1 771:1 905:1 948:1 975:1 1010:1 1072:1 1215:1 1218:1 1222:1 1224:1 1227:1 1238:1 1239:1 1247:1 1248:1 1249:1 1252:1 1254:1 1256:2
1 196:1 679:1 686:1 771:1 1072:1 1215:1 1222:1 1239:1 1249:1 1252:1 1256:9
1 184:1 679:1 1249:1 1253:1 1256:5 1258:1
1 679:1 1249:1 1256:8
1 679:1 1249:1 1256:8
1 679:1 1072:1 1239:1 1249:1 1256:3
1 448:1 1241:1 1256:4
1 196:1 232:1 679:1 686:1 744:1 762:1 771:1 905:1 948:1 975:1 1010:1 1072:1 1215:1 1218:1 1222:1 1224:1 1227:1 1238:1 1239:1 1247:1 1248:1 1249:1 1252:1 1254:1 1256:2
1 184:1 209:1 679:1 699:1 905:1 948:1 969:1 1072:1 1220:1 1221:1 1223:1 1224:1 1239:1 1249:1 1253:1 1254:1 1256:2
1 679:1 1249:1 1256:5 1258:1
1 196:1 232:1 679:2 686:1 744:1 762:1 771:1 905:1 948:1 975:1 1010:1 1072:1 1215:1 1218:1 1222:1 1224:1 1227:1 1238:1 1239:1 1247:1 1248:1 1249:2 1252:1 1254:1 1256:7
1 196:1 232:1 679:1 686:1 744:1 762:1 771:1 905:1 945:1 948:1 975:1 1010:1 1072:1 1215:1 1218:1 1222:1 1224:1 1227:1 1238:1 1239:1 1247:1 1248:1 1249:1 1251:1 1252:1 1254:1 1256:9
1 196:1 232:1 679:1 686:1 744:1 762:1 771:1 905:1 948:1 975:1 1010:1 1072:1 1215:1 1218:1 1222:1 1224:1 1227:1 1238:1 1239:1 1247:1 1248:1 1249:1 1252:1 1254:1 1256:2
1 196:1 232:1 679:3 686:1 744:1 762:1 771:1 905:2 948:1 975:1 1010:1 1072:1 1215:1 1218:1 1222:1 1224:2 1227:1 1238:1 1239:1 1247:1 1248:1 1249:3 1252:1 1254:1 1256:8
1 448:1 1241:1 1256:6
1 196:1 232:1 679:1 686:1 744:1 762:1 771:1 905:1 948:1 975:1 1010:1 1072:1 1215:1 1218:1 1222:1 1224:1 1227:1 1238:1 1239:1 1247:1 1248:1 1249:1 1252:1 1254:1 1256:2
1 184:1 679:1 1249:1 1253:1 1256:5 1258:1
1 196:1 232:1 679:3 686:1 744:1 762:1 771:1 905:1 948:1 975:1 1010:1 1072:1 1215:1 1218:1 1222:1 1224:1 1227:1 1238:1 1239:1 1247:1 1248:1 1249:3 1252:1 1254:1 1256:7
1 196:1 232:1 679:1 686:1 744:1 762:1 771:1 905:1 948:1 975:1 1010:1 1072:1 1215:1 1218:1 1222:1 1224:1 1227:1 1238:1 1239:1 1247:1 1248:1 1249:1 1252:1 1254:1 1256:2
1 512:1 679:1 948:1 1072:1 1236:1 1239:1 1249:1 1254:1 1256:2
1 196:1 232:1 504:1 679:1 686:1 744:1 762:1 771:1 905:1 948:1 969:1 975:1 1010:1 1072:1 1215:1 1218:1 1222:1 1223:1 1224:1 1227:1 1230:1 1238:1 1239:1 1247:1 1248:1 1249:1 1252:1 1254:1 1256:9
1 196:1 232:1 504:1 679:1 686:1 744:1 762:1 771:1 905:1 948:1 969:1 975:1 1010:1 1072:1 1215:1 1218:1 1222:1 1223:1 1224:1 1227:1 1230:1 1238:1 1239:1 1247:1 1248:1 1249:1 1252:1 1254:1 1256:9
1 196:1 232:1 679:1 686:1 744:1 762:1 771:1 905:1 948:1 975:1 1010:1 1072:1 1215:1 1218:1 1222:1 1224:1 1227:1 1238:1 1239:1 1247:1 1248:1 1249:1 1252:1 1254:1 1256:2
1 196:1 232:1 504:1 679:1 686:1 744:1 762:1 771:1 905:1 945:1 948:1 969:1 975:1 1010:1 1072:1 1215:1 1218:1 1222:1 1223:1 1224:1 1227:1 1230:1 1238:1 1239:1 1247:1 1248:1 1249:1 1251:1 1252:1 1254:1 1256:9
1 679:1 1249:1 1256:7
1 679:1 699:1 1220:1 1249:1 1256:5 1258:1
1 184:1 679:1 1249:1 1253:1 1256:4 1258:1
1 196:1 232:1 679:1 686:1 744:1 762:1 771:1 905:1 948:1 975:1 1010:1 1072:1 1215:1 1218:1 1222:1 1224:1 1227:1 1238:1 1239:1 1247:1 1248:1 1249:1 1252:1 1254:1 1256:2
1 196:1 232:1 679:1 686:1 744:1 762:1 771:1 905:1 945:1 948:1 975:1 1010:1 1072:1 1215:1 1218:1 1222:1 1224:1 1227:1 1238:1 1239:1 1247:1 1248:1 1249:1 1251:1 1252:1 1254:1 1256:9
1 448:1 1241:1 1256:5
1 184:1 209:1 679:1 699:1 905:1 948:1 969:1 1072:1 1220:1 1221:1 1223:1 1224:1 1239:1 1249:1 1253:1 1254:1 1256:2
1 679:1 1249:1 1256:8
1 679:1 699:1 1220:1 1249:1 1256:5 1258:1
1 184:1 209:1 679:1 699:1 905:1 948:1 969:1 1072:1 1220:1 1221:1 1223:1 1224:1 1239:1 1249:1 1253:1 1254:1 1256:2
1 168:1 196:1 504:1 679:1 686:1 905:1 948:1 969:1 1072:1 1215:1 1223:1 1224:1 1230:1 1239:1 1240:1 1249:1 1252:1 1254:1 1256:9
1 196:1 232:1 679:1 686:1 744:1 762:1 771:1 905:1 948:1 975:1 1010:1 1072:1 1215:1 1218:1 1222:1 1224:1 1227:1 1238:1 1239:1 1247:1 1248:1 1249:1 1252:1 1254:1 1256:2
1 196:1 232:1 679:1 686:1 744:1 762:1 771:1 905:1 948:1 975:1 1010:1 1072:1 1215:1 1218:1 1222:1 1224:1 1227:1 1238:1 1239:1 1247:1 1248:1 1249:1 1252:1 1254:1 1256:2
1 196:1 232:1 679:1 686:1 744:1 762:1 771:1 905:1 948:1 975:1 1010:1 1072:1 1215:1 1218:1 1222:1 1224:1 1227:1 1238:1 1239:1 1247:1 1248:1 1249:1 1252:1 1254:1 1256:2
1 184:1 679:1 1249:1 1253:1 1256:5 1258:1
1 196:1 232:1 679:1 686:1 744:1 762:1 771:1 905:1 948:1 975:1 1010:1 1072:1 1215:1 1218:1 1222:1 1224:1 1227:1 1238:1 1239:1 1247:1 1248:1 1249:1 1252:1 1254:1 1256:2
1 512:1 679:1 686:1 771:1 905:1 948:1 1072:1 1087:1 1222:1 1224:1 1236:1 1239:1 1249:1 1252:1 1254:1 1255:1 1256:2
1 196:1 232:1 679:1 686:1 744:1 762:1 771:1 905:1 945:1 948:1 975:1 1010:1 1072:1 1215:1 1218:1 1222:1 1224:1 1227:1 1238:1 1239:1 1247:1 1248:1 1249:1 1251:1 1252:1 1254:1 1256:2 1258:1
1 196:1 232:1 679:1 686:1 744:1 762:1 771:1 905:1 948:1 975:1 1010:1 1072:1 1215:1 1218:1 1222:1 1224:1 1227:1 1238:1 1239:1 1247:1 1248:1 1249:1 1252:1 1254:1 1256:2
1 196:1 232:1 679:3 686:1 744:1 762:1 771:1 905:1 948:1 975:1 1010:1 1072:1 1215:1 1218:1 1222:1 1224:1 1227:1 1238:1 1239:1 1247:1 1248:1 1249:3 1252:1 1254:1 1256:8
1 504:1 679:3 686:1 771:1 905:1 1072:1 1222:1 1224:1 1230:1 1239:1 1249:3 1252:1 1256:9
1 448:1 1241:1 1256:6
1 448:1 1241:1 1256:4
1 196:1 232:1 679:1 686:1 744:1 762:1 771:1 905:1 948:1 975:1 1010:1 1072:1 1215:1 1218:1 1222:1 1224:1 1227:1 1238:1 1239:1 1247:1 1248:1 1249:1 1252:1 1254:1 1256:2
1 196:1 232:1 679:1 686:1 744:1 762:1 771:1 905:1 948:1 975:1 1010:1 1072:1 1215:1 1218:1 1222:1 1224:1 1227:1 1238:1 1239:1 1247:1 1248:1 1249:1 1252:1 1254:1 1256:2
1 196:1 232:1 679:1 686:1 744:1 762:1 771:1 905:1 948:1 975:1 1010:1 1072:1 1215:1 1218:1 1222:1 1224:1 1227:1 1238:1 1239:1 1247:1 1248:1 1249:1 1252:1 1254:1 1256:2
1 679:1 1249:1 1256:8
1 184:1 209:1 679:1 699:1 905:1 948:1 969:1 1072:1 1220:1 1221:1 1223:1 1224:1 1239:1 1249:1 1253:1 1254:1 1256:2
1 679:1 1249:1 1256:2
1 679:1 1249:1 1256:7 1258:1
1 196:1 232:1 504:1 679:1 686:1 744:1 762:1 771:1 905:1 945:1 948:1 969:1 975:1 1010:1 1072:1 1215:1 1218:1 1222:1 1223:1 1224:1 1227:1 1230:1 1238:1 1239:1 1247:1 1248:1 1249:1 1251:1 1252:1 1254:1 1256:9
1 196:1 232:1 679:2 686:1 744:1 762:1 771:1 905:1 948:1 975:1 1010:1 1072:1 1215:1 1218:1 1222:1 1224:1 1227:1 1238:1 1239:1 1247:1 1248:1 1249:2 1252:1 1254:1 1256:12
1 196:1 232:1 679:1 686:1 744:1 762:1 771:1 905:1 948:1 975:1 1010:1 1072:1 1215:1 1218:1 1222:1 1224:1 1227:1 1238:1 1239:1 1247:1 1248:1 1249:1 1252:1 1254:1 1256:2
1 679:1 905:1 948:1 1072:1 1224:1 1239:1 1249:1 1254:1 1256:2
1 196:1 232:1 679:2 686:1 744:1 762:1 771:1 905:1 948:1 975:1 1010:1 1072:1 1215:1 1218:1 1222:1 1224:1 1227:1 1238:1 1239:1 1247:1 1248:1 1249:2 1252:1 1254:1 1256:6
1 196:1 232:1 504:1 679:1 686:1 744:1 762:1 771:1 905:1 948:1 969:1 975:1 1010:1 1072:1 1215:1 1218:1 1222:1 1223:1 1224:1 1227:1 1230:1 1238:1 1239:1 1247:1 1248:1 1249:1 1252:1 1254:1 1256:8
1 196:1 232:1 679:1 686:1 744:1 762:1 771:1 905:1 948:1 975:1 1010:1 1072:1 1215:1 1218:1 1222:1 1224:1 1227:1 1238:1 1239:1 1247:1 1248:1 1249:1 1252:1 1254:1 1256:2
1 448:1 1241:1 1256:4
1 196:1 232:1 679:2 686:1 744:1 762:1 771:1 905:1 948:1 975:1 1010:1 1072:1 1215:1 1218:1 1222:1 1224:1 1227:1 1238:1 1239:1 1247:1 1248:1 1249:2 1252:1 1254:1 1256:12
1 679:1 905:1 1224:1 1249:1 1256:2
1 679:1 905:1 948:1 1072:1 1224:1 1239:1 1249:1 1254:1 1256:2
1 196:1 232:1 679:1 686:1 744:1 762:1 771:1 905:1 948:1 975:1 1010:1 1072:1 1215:1 1218:1 1222:1 1224:1 1227:1 1238:1 1239:1 1247:1 1248:1 1249:1 1252:1 1254:1 1256:2
1 448:1 1241:1 1256:6
1 196:1 232:1 679:1 686:1 744:1 762:1 771:1 905:1 948:1 975:1 1010:1 1072:1 1215:1 1218:1 1222:1 1224:1 1227:1 1238:1 1239:1 1247:1 1248:1 1249:1 1252:1 1254:1 1256:2
1 196:1 232:1 679:1 686:1 744:1 762:1 771:1 905:1 945:1 948:1 975:1 1010:1 1072:1 1215:1 1218:1 1222:1 1224:1 1227:1 1238:1 1239:1 1247:1 1248:1 1249:1 1251:1 1252:1 1254:1 1256:9 1258:1
1 196:1 232:1 679:4 686:1 744:1 762:1 771:1 905:1 948:1 975:1 1010:1 1072:1 1215:1 1218:1 1222:1 1224:1 1227:1 1238:1 1239:1 1247:1 1248:1 1249:4 1252:1 1254:1 1256:10
1 679:1 771:1 905:1 948:1 1072:1 1222:1 1224:1 1239:1 1249:1 1254:1 1256:2
1 196:1 232:1 679:1 686:1 744:1 762:1 771:1 905:1 948:1 975:1 1010:1 1072:1 1215:1 1218:1 1222:1 1224:1 1227:1 1238:1 1239:1 1247:1 1248:1 1249:1 1252:1 1254:1 1256:2
1 196:1 232:1 504:1 679:1 686:1 744:1 762:1 771:1 905:1 948:1 969:1 975:1 1010:1 1072:1 1215:1 1218:1 1222:1 1223:1 1224:1 1227:1 1230:1 1238:1 1239:1 1247:1 1248:1 1249:1 1252:1 1254:1 1256:8
1 196:1 232:1 679:1 686:1 744:1 762:1 771:1 905:1 948:1 975:1 1010:1 1072:1 1215:1 1218:1 1222:1 1224:1 1227:1 1238:1 1239:1 1247:1 1248:1 1249:1 1252:1 1254:1 1256:2
1 512:1 679:1 771:1 905:1 948:1 1072:1 1087:1 1222:1 1224:1 1236:1 1239:1 1249:1 1254:1 1255:1 1256:2
1 196:1 232:1 679:1 686:1 744:1 762:1 771:1 905:1 948:1 975:1 1010:1 1072:1 1215:1 1218:1 1222:1 1224:1 1227:1 1238:1 1239:1 1247:1 1248:1 1249:1 1252:1 1254:1 1256:2
1 196:1 232:1 504:1 679:1 686:1 744:1 762:1 771:1 905:1 948:1 969:1 975:1 1010:1 1072:1 1215:1 1218:1 1222:1 1223:1 1224:1 1227:1 1230:1 1238:1 1239:1 1247:1 1248:1 1249:1 1252:1 1254:1 1256:9
1 196:1 232:1 679:4 686:1 744:1 762:1 771:1 905:1 948:1 975:1 1010:1 1072:1 1215:1 1218:1 1222:1 1224:1 1227:1 1238:1 1239:1 1247:1 1248:1 1249:4 1252:1 1254:1 1256:10
1 448:1 1241:1 1256:5
1 679:1 1072:1 1239:1 1249:1 1256:3
1 196:1 232:1 679:3 686:1 744:1 762:1 771:1 905:1 948:1 975:1 1010:1 1072:1 1215:1 1218:1 1222:1 1224:1 1227:1 1238:1 1239:1 1247:1 1248:1 1249:3 1252:1 1254:1 1256:7
1 196:1 232:1 504:1 679:1 686:1 744:1 762:1 771:1 905:1 948:1 969:1 975:1 1010:1 1072:1 1215:1 1218:1 1222:1 1223:1 1224:1 1227:1 1230:1 1238:1 1239:1 1247:1 1248:1 1249:1 1252:1 1254:1 1256:9
1 184:1 209:1 679:1 699:1 905:1 948:1 969:1 1072:1 1220:1 1221:1 1223:1 1224:1 1239:1 1249:1 1253:1 1254:1 1256:2
1 196:1 232:1 509:1 679:4 686:1 744:1 762:1 771:1 905:3 948:1 975:1 1010:1 1072:1 1215:1 1218:1 1222:1 1224:3 1227:1 1233:1 1238:1 1239:1 1247:1 1248:1 1249:4 1252:1 1254:1 1256:8
1 679:1 905:1 1072:1 1224:1 1239:1 1249:1 1256:2
1 184:1 679:1 1249:1 1253:1 1256:5 1258:1
1 196:1 232:1 679:1 686:1 744:1 762:1 771:1 905:1 948:1 975:1 1010:1 1072:1 1215:1 1218:1 1222:1 1224:1 1227:1 1238:1 1239:1 1247:1 1248:1 1249:1 1252:1 1254:1 1256:2
1 196:1 232:1 504:1 679:1 686:1 744:1 762:1 771:1 905:1 945:1 948:1 969:1 975:1 1010:1 1072:1 1215:1 1218:1 1222:1 1223:1 1224:1 1227:1 1230:1 1238:1 1239:1 1247:1 1248:1 1249:1 1251:1 1252:1 1254:1 1256:9
1 184:1 679:1 1249:1 1253:1 1256:4
1 184:1 209:1 679:1 699:1 905:1 948:1 969:1 1072:1 1220:1 1221:1 1223:1 1224:1 1239:1 1249:1 1253:1 1254:1 1256:2
1 448:1 1241:1 1256:4
1 196:1 232:1 679:1 686:1 744:1 762:1 771:1 905:1 948:1 975:1 1010:1 1072:1 1215:1 1218:1 1222:1 1224:1 1227:1 1238:1 1239:1 1247:1 1248:1 1249:1 1252:1 1254:1 1256:2
1 448:1 1241:1 1256:4
1 448:1 1241:1 1256:5
1 679:1 1072:1 1239:1 1249:1 1256:3
1 184:1 209:1 679:1 699:1 905:1 948:1 969:1 1072:1 1220:1 1221:1 1223:1 1224:1 1239:1 1249:1 1253:1 1254:1 1256:2
1 196:1 232:1 679:1 686:1 744:1 762:1 771:1 905:1 948:1 975:1 1010:1 1072:1 1215:1 1218:1 1222:1 1224:1 1227:1 1238:1 1239:1 1247:1 1248:1 1249:1 1252:1 1254:1 1256:2
1 512:1 679:1 905:1 1224:1 1236:1 1249:1 1256:2
1 512:1 679:1 905:1 1224:1 1236:1 1249:1 1256:2
1 679:1 905:1 948:1 1072:1 1224:1 1239:1 1249:1 1254:1 1256:2
1 184:1 209:1 679:1 699:1 905:1 948:1 969:1 1072:1 1220:1 1221:1 1223:1 1224:1 1239:1 1249:1 1253:1 1254:1 1256:2
1 196:1 232:1 679:1 686:1 744:1 762:1 771:1 905:1 948:1 975:1 1010:1 1072:1 1215:1 1218:1 1222:1 1224:1 1227:1 1238:1 1239:1 1247:1 1248:1 1249:1 1252:1 1254:1 1256:2
1 679:1 1249:1 1256:8
1 196:1 232:1 679:1 686:1 744:1 762:1 771:1 905:1 948:1 975:1 1010:1 1072:1 1215:1 1218:1 1222:1 1224:1 1227:1 1238:1 1239:1 1247:1 1248:1 1249:1 1252:1 1254:1 1256:2
1 184:1 679:1 686:1 771:1 905:1 948:1 969:1 1072:1 1222:1 1223:1 1224:1 1239:1 1249:1 1252:1 1253:1 1254:1 1256:3
1 679:1 1249:1 1256:7
1 196:1 232:1 504:1 679:1 686:1 744:1 762:1 771:1 905:1 948:1 969:1 975:1 1010:1 1072:1 1215:1 1218:1 1222:1 1223:1 1224:1 1227:1 1230:1 1238:1 1239:1 1247:1 1248:1 1249:1 1252:1 1254:1 1256:9
1 196:1 232:1 679:1 686:1 744:1 762:1 771:1 905:1 948:1 975:1 1010:1 1072:1 1215:1 1218:1 1222:1 1224:1 1227:1 1238:1 1239:1 1247:1 1248:1 1249:1 1252:1 1254:1 1256:2
1 196:1 232:1 679:1 686:1 744:1 762:1 771:1 905:1 948:1 975:1 1010:1 1072:1 1215:1 1218:1 1222:1 1224:1 1227:1 1238:1 1239:1 1247:1 1248:1 1249:1 1252:1 1254:1 1256:2
1 679:1 771:1 1072:1 1222:1 1239:1 1249:1 1256:4
1 512:1 679:1 686:1 771:1 905:1 948:1 1072:1 1087:1 1222:1 1224:1 1236:1 1239:1 1249:1 1252:1 1254:1 1255:1 1256:2
1 184:1 209:1 679:1 699:1 905:1 948:1 969:1 1072:1 1220:1 1221:1 1223:1 1224:1 1239:1 1249:1 1253:1 1254:1 1256:2
1 196:1 232:1 679:1 686:1 744:1 762:1 771:1 905:1 948:1 975:1 1010:1 1072:1 1215:1 1218:1 1222:1 1224:1 1227:1 1238:1 1239:1 1247:1 1248:1 1249:1 1252:1 1254:1 1256:2
1 448:1 1241:1 1256:2
1 196:1 232:1 679:1 686:1 744:1 762:1 771:1 905:1 948:1 975:1 1010:1 1072:1 1215:1 1218:1 1222:1 1224:1 1227:1 1238:1 1239:1 1247:1 1248:1 1249:1 1252:1 1254:1 1256:2
1 679:1 1249:1 1256:7
1 448:1 1241:1 1256:5
1 196:1 232:1 679:1 686:1 744:1 762:1 771:1 905:1 948:1 975:1 1010:1 1072:1 1215:1 1218:1 1222:1 1224:1 1227:1 1238:1 1239:1 1247:1 1248:1 1249:1 1252:1 1254:1 1256:2
1 196:1 232:1 679:1 686:1 744:1 762:1 771:1 905:1 948:1 975:1 1010:1 1072:1 1215:1 1218:1 1222:1 1224:1 1227:1 1238:1 1239:1 1247:1 1248:1 1249:1 1252:1 1254:1 1256:2
1 196:1 232:1 679:1 686:1 744:1 762:1 771:1 905:1 948:1 975:1 1010:1 1072:1 1215:1 1218:1 1222:1 1224:1 1227:1 1238:1 1239:1 1247:1 1248:1 1249:1 1252:1 1254:1 1256:2
1 448:1 1241:1 1256:4
1 196:1 232:1 509:1 679:3 686:1 744:1 762:1 771:1 905:3 948:1 975:1 1010:1 1072:1 1215:1 1218:1 1222:1 1224:3 1227:1 1233:1 1238:1 1239:1 1247:1 1248:1 1249:3 1252:1 1254:1 1256:7
1 184:1 209:1 679:1 699:1 905:1 948:1 969:1 1072:1 1220:1 1221:1 1223:1 1224:1 1239:1 1249:1 1253:1 1254:1 1256:2
1 196:1 232:1 679:1 686:1 744:1 762:1 771:1 905:1 948:1 975:1 1010:1 1072:1 1215:1 1218:1 1222:1 1224:1 1227:1 1238:1 1239:1 1247:1 1248:1 1249:1 1252:1 1254:1 1256:2
1 196:1 232:1 679:1 686:1 744:1 762:1 771:1 905:1 948:1 975:1 1010:1 1072:1 1215:1 1218:1 1222:1 1224:1 1227:1 1238:1 1239:1 1247:1 1248:1 1249:1 1252:1 1254:1 1256:2
1 679:1 1249:1 1256:7
1 679:1 905:1 948:1 1072:1 1224:1 1239:1 1249:1 1254:1 1256:2
1 679:1 771:1 905:1 1072:1 1222:1 1224:1 1239:1 1249:1 1256:2
1 196:1 232:1 679:1 686:1 744:1 762:1 771:1 905:1 948:1 975:1 1010:1 1072:1 1215:1 1218:1 1222:1 1224:1 1227:1 1238:1 1239:1 1247:1 1248:1 1249:1 1252:1 1254:1 1256:2
1 196:1 232:1 679:1 686:1 744:1 762:1 771:1 905:1 948:1 975:1 1010:1 1072:1 1215:1 1218:1 1222:1 1224:1 1227:1 1238:1 1239:1 1247:1 1248:1 1249:1 1252:1 1254:1 1256:2
1 184:1 679:1 1249:1 1253:1 1256:5
1 512:1 679:1 686:1 771:1 905:1 948:1 1072:1 1087:1 1222:1 1224:1 1236:1 1239:1 1249:1 1252:1 1254:1 1255:1 1256:2
1 196:1 232:1 679:1 686:1 744:1 762:1 771:1 905:1 948:1 975:1 1010:1 1072:1 1215:1 1218:1 1222:1 1224:1 1227:1 1238:1 1239:1 1247:1 1248:1 1249:1 1252:1 1254:1 1256:2
1 196:1 232:1 679:1 686:1 744:1 762:1 771:1 905:1 948:1 975:1 1010:1 1072:1 1215:1 1218:1 1222:1 1224:1 1227:1 1238:1 1239:1 1247:1 1248:1 1249:1 1252:1 1254:1 1256:2
1 196:1 232:1 679:4 686:1 744:1 762:1 771:1 905:2 945:1 948:1 975:1 1010:1 1072:1 1215:1 1218:1 1222:1 1224:2 1227:1 1238:1 1239:1 1247:1 1248:1 1249:4 1251:1 1252:1 1254:1 1256:9 1258:1
1 196:1 232:1 679:1 686:1 744:1 762:1 771:1 905:1 948:1 975:1 1010:1 1072:1 1215:1 1218:1 1222:1 1224:1 1227:1 1238:1 1239:1 1247:1 1248:1 1249:1 1252:1 1254:1 1256:2
1 196:1 232:1 679:1 686:1 744:1 762:1 771:1 905:1 948:1 975:1 1010:1 1072:1 1215:1 1218:1 1222:1 1224:1 1227:1 1238:1 1239:1 1247:1 1248:1 1249:1 1252:1 1254:1 1256:2
1 196:1 232:1 679:1 686:1 744:1 762:1 771:1 905:1 948:1 975:1 1010:1 1072:1 1215:1 1218:1 1222:1 1224:1 1227:1 1238:1 1239:1 1247:1 1248:1 1249:1 1252:1 1254:1 1256:2
1 196:1 232:1 679:3 686:1 744:1 762:1 771:1 905:1 948:1 975:1 1010:1 1072:1 1215:1 1218:1 1222:1 1224:1 1227:1 1238:1 1239:1 1247:1 1248:1 1249:3 1252:1 1254:1 1256:7
1 196:1 232:1 679:1 686:1 744:1 762:1 771:1 905:1 948:1 975:1 1010:1 1072:1 1215:1 1218:1 1222:1 1224:1 1227:1 1238:1 1239:1 1247:1 1248:1 1249:1 1252:1 1254:1 1256:2
1 679:1 905:1 948:1 1072:1 1224:1 1239:1 1249:1 1254:1 1256:2
1 679:1 771:1 1072:1 1222:1 1239:1 1249:1 1256:4
1 196:1 232:1 679:2 686:1 744:1 762:1 771:1 905:1 948:1 975:1 1010:1 1072:1 1215:1 1218:1 1222:1 1224:1 1227:1 1238:1 1239:1 1247:1 1248:1 1249:2 1252:1 1254:1 1256:6
1 679:1 771:1 905:1 1222:1 1224:1 1249:1 1256:2
1 196:1 232:1 504:1 679:1 686:1 744:1 762:1 771:1 905:1 948:1 969:1 975:1 1010:1 1072:1 1215:1 1218:1 1222:1 1223:1 1224:1 1227:1 1230:1 1238:1 1239:1 1247:1 1248:1 1249:1 1252:1 1254:1 1256:8
1 679:1 1249:1 1256:7 1258:1
1 184:1 679:1 1249:1 1253:1 1256:5
1 448:1 1241:1 1256:4
1 184:1 209:1 679:1 699:1 905:1 948:1 969:1 1072:1 1220:1 1221:1 1223:1 1224:1 1239:1 1249:1 1253:1 1254:1 1256:2
1 196:1 232:1 679:1 686:1 744:1 762:1 771:1 905:1 948:1 975:1 1010:1 1072:1 1215:1 1218:1 1222:1 1224:1 1227:1 1238:1 1239:1 1247:1 1248:1 1249:1 1252:1 1254:1 1256:2
1 679:1 948:1 1249:1 1254:1 1256:2
1 196:1 232:1 679:1 686:1 744:1 762:1 771:1 905:1 945:1 948:1 975:1 1010:1 1072:1 1215:1 1218:1 1222:1 1224:1 1227:1 1238:1 1239:1 1247:1 1248:1 1249:1 1251:1 1252:1 1254:1 1256:3 1258:1
1 184:1 209:1 679:1 699:1 905:1 948:1 969:1 1072:1 1220:1 1221:1 1223:1 1224:1 1239:1 1249:1 1253:1 1254:1 1256:2
1 679:1 1072:1 1239:1 1249:1 1256:3
1 196:1 232:1 504:1 679:1 686:1 744:1 762:1 771:1 905:1 948:1 969:1 975:1 1010:1 1072:1 1215:1 1218:1 1222:1 1223:1 1224:1 1227:1 1230:1 1238:1 1239:1 1247:1 1248:1 1249:1 1252:1 1254:1 1256:9
1 184:1 209:1 679:1 699:1 905:1 948:1 969:1 1072:1 1220:1 1221:1 1223:1 1224:1 1239:1 1249:1 1253:1 1254:1 1256:2
1 184:1 209:1 679:1 699:1 905:1 948:1 969:1 1072:1 1220:1 1221:1 1223:1 1224:1 1239:1 1249:1 1253:1 1254:1 1256:2
1 184:1 209:1 679:1 699:1 905:1 948:1 969:1 1072:1 1220:1 1221:1 1223:1 1224:1 1239:1 1249:1 1253:1 1254:1 1256:2
1 184:1 209:1 679:1 699:1 905:1 948:1 969:1 1072:1 1220:1 1221:1 1223:1 1224:1 1239:1 1249:1 1253:1 1254:1 1256:2
1 679:1 1249:1 1256:5
1 196:1 232:1 679:1 686:1 744:1 762:1 771:1 905:1 948:1 975:1 1010:1 1072:1 1215:1 1218:1 1222:1 1224:1 1227:1 1238:1 1239:1 1247:1 1248:1 1249:1 1252:1 1254:1 1256:2
1 196:1 232:1 679:1 686:1 744:1 762:1 771:1 905:1 948:1 975:1 1010:1 1072:1 1215:1 1218:1 1222:1 1224:1 1227:1 1238:1 1239:1 1247:1 1248:1 1249:1 1252:1 1254:1 1256:2
1 196:1 232:1 679:1 686:1 744:1 762:1 771:1 905:1 948:1 975:1 1010:1 1072:1 1215:1 1218:1 1222:1 1224:1 1227:1 1238:1 1239:1 1247:1 1248:1 1249:1 1252:1 1254:1 1256:2
1 184:1 679:1 1249:1 1253:1 1256:4
1 196:1 232:1 679:1 686:1 744:1 762:1 771:1 905:1 948:1 975:1 1010:1 1072:1 1215:1 1218:1 1222:1 1224:1 1227:1 1238:1 1239:1 1247:1 1248:1 1249:1 1252:1 1254:1 1256:2
1 196:1 232:1 679:1 686:1 744:1 762:1 771:1 905:1 948:1 975:1 1010:1 1072:1 1215:1 1218:1 1222:1 1224:1 1227:1 1238:1 1239:1 1247:1 1248:1 1249:1 1252:1 1254:1 1256:2
1 196:1 232:1 679:1 686:1 744:1 762:1 771:1 905:1 948:1 975:1 1010:1 1072:1 1215:1 1218:1 1222:1 1224:1 1227:1 1238:1 1239:1 1247:1 1248:1 1249:1 1252:1 1254:1 1256:2
1 184:1 209:1 679:1 699:1 905:1 948:1 969:1 1072:1 1220:1 1221:1 1223:1 1224:1 1239:1 1249:1 1253:1 1254:1 1256:2
1 679:1 1249:1 1256:8
1 196:1 232:1 504:1 679:1 686:1 744:1 762:1 771:1 905:1 945:1 948:1 969:1 975:1 1010:1 1072:1 1215:1 1218:1 1222:1 1223:1 1224:1 1227:1 1230:1 1238:1 1239:1 1247:1 1248:1 1249:1 1251:1 1252:1 1254:1 1256:9
1 679:1 1249:1 1256:7 1258:1
1 184:1 679:1 1249:1 1253:1 1256:2
1 448:1 1241:1 1256:4
1 679:1 1249:1 1256:7
1 679:1 1249:1 1256:6
1 196:1 232:1 679:1 686:1 744:1 762:1 771:1 905:1 948:1 975:1 1010:1 1072:1 1215:1 1218:1 1222:1 1224:1 1227:1 1238:1 1239:1 1247:1 1248:1 1249:1 1252:1 1254:1 1256:2
1 679:1 1249:1 1256:8 1258:1
1 196:1 232:1 679:1 686:1 744:1 762:1 771:1 905:1 948:1 975:1 1010:1 1072:1 1215:1 1218:1 1222:1 1224:1 1227:1 1238:1 1239:1 1247:1 1248:1 1249:1 1252:1 1254:1 1256:2
1 196:1 232:1 679:2 686:1 744:1 762:1 771:1 905:1 948:1 975:1 1010:1 1072:1 1215:1 1218:1 1222:1 1224:1 1227:1 1238:1 1239:1 1247:1 1248:1 1249:2 1252:1 1254:1 1256:7
1 679:1 1249:1 1256:8
1 196:1 232:1 679:3 686:1 744:1 762:1 771:1 905:2 948:1 975:1 1072:1 1215:1 1218:1 1222:1 1224:2 1227:1 1238:1 1239:1 1248:1 1249:3 1252:1 1254:1 1256:8
1 196:1 232:1 679:1 686:1 744:1 762:1 771:1 905:1 948:1 975:1 1010:1 1072:1 1215:1 1218:1 1222:1 1224:1 1227:1 1238:1 1239:1 1247:1 1248:1 1249:1 1252:1 1254:1 1256:2
1 679:1 1249:1 1256:8
1 196:1 232:1 504:1 679:1 686:1 744:1 762:1 771:1 905:1 948:1 969:1 975:1 1010:1 1072:1 1215:1 1218:1 1222:1 1223:1 1224:1 1227:1 1230:1 1238:1 1239:1 1247:1 1248:1 1249:1 1252:1 1254:1 1256:9
1 679:1 699:1 1220:1 1249:1 1256:6 1258:1
1 448:1 1241:1 1256:4
1 448:1 1241:1 1256:4
1 679:1 1249:1 1256:8
1 196:1 232:1 504:1 679:1 686:1 744:1 762:1 771:1 905:1 948:1 969:1 975:1 1010:1 1072:1 1215:1 1218:1 1222:1 1223:1 1224:1 1227:1 1230:1 1238:1 1239:1 1247:1 1248:1 1249:1 1252:1 1254:1 1256:9
1 184:1 209:1 679:1 699:1 905:1 948:1 969:1 1072:1 1220:1 1221:1 1223:1 1224:1 1239:1 1249:1 1253:1 1254:1 1256:2
1 196:1 232:1 679:1 686:1 744:1 762:1 771:1 905:1 948:1 975:1 1010:1 1072:1 1215:1 1218:1 1222:1 1224:1 1227:1 1238:1 1239:1 1247:1 1248:1 1249:1 1252:1 1254:1 1256:2
1 184:1 209:1 679:1 699:1 905:1 948:1 969:1 1072:1 1220:1 1221:1 1223:1 1224:1 1239:1 1249:1 1253:1 1254:1 1256:2
1 196:1 232:1 679:1 686:1 744:1 762:1 771:1 905:1 948:1 975:1 1010:1 1072:1 1215:1 1218:1 1222:1 1224:1 1227:1 1238:1 1239:1 1247:1 1248:1 1249:1 1252:1 1254:1 1256:2
1 196:1 232:1 679:1 686:1 744:1 762:1 771:1 905:1 948:1 975:1 1010:1 1072:1 1215:1 1218:1 1222:1 1224:1 1227:1 1238:1 1239:1 1247:1 1248:1 1249:1 1252:1 1254:1 1256:2
1 679:1 905:1 1224:1 1249:1 1256:2
1 196:1 232:1 679:1 686:1 744:1 762:1 771:1 905:1 948:1 975:1 1010:1 1072:1 1215:1 1218:1 1222:1 1224:1 1227:1 1238:1 1239:1 1247:1 1248:1 1249:1 1252:1 1254:1 1256:2
1 196:1 232:1 504:1 679:1 686:1 744:1 762:1 771:1 905:1 948:1 969:1 975:1 1010:1 1072:1 1215:1 1218:1 1222:1 1223:1 1224:1 1227:1 1230:1 1238:1 1239:1 1247:1 1248:1 1249:1 1252:1 1254:1 1256:9
1 184:1 209:1 679:1 699:1 905:1 948:1 969:1 1072:1 1220:1 1221:1 1223:1 1224:1 1239:1 1249:1 1253:1 1254:1 1256:2
1 184:1 209:1 679:1 699:1 905:1 948:1 969:1 1072:1 1220:1 1221:1 1223:1 1224:1 1239:1 1249:1 1253:1 1254:1 1256:2
1 184:1 209:1 679:1 699:1 905:1 948:1 969:1 1072:1 1220:1 1221:1 1223:1 1224:1 1239:1 1249:1 1253:1 1254:1 1256:2
1 196:1 232:1 679:1 686:1 744:1 762:1 771:1 905:1 948:1 975:1 1010:1 1072:1 1215:1 1218:1 1222:1 1224:1 1227:1 1238:1 1239:1 1247:1 1248:1 1249:1 1252:1 1254:1 1256:2
1 679:1 1249:1 1256:3 1258:1
1 196:1 232:1 679:3 686:1 744:1 762:1 771:1 905:2 948:1 975:1 1010:1 1072:1 1215:1 1218:1 1222:1 1224:2 1227:1 1238:1 1239:1 1247:1 1248:1 1249:3 1252:1 1254:1 1256:8
1 196:1 232:1 679:3 686:1 744:1 762:1 771:1 905:1 948:1 975:1 1010:1 1072:1 1215:1 1218:1 1222:1 1224:1 1227:1 1238:1 1239:1 1247:1 1248:1 1249:3 1252:1 1254:1 1256:7
1 196:1 232:1 679:2 686:1 744:1 762:1 771:1 905:1 948:1 975:1 1010:1 1072:1 1215:1 1218:1 1222:1 1224:1 1227:1 1238:1 1239:1 1247:1 1248:1 1249:2 1252:1 1254:1 1256:7
1 196:1 232:1 504:1 679:1 686:1 744:1 762:1 771:1 905:1 948:1 969:1 975:1 1010:1 1072:1 1215:1 1218:1 1222:1 1223:1 1224:1 1227:1 1230:1 1238:1 1239:1 1247:1 1248:1 1249:1 1252:1 1254:1 1256:8
1 196:1 232:1 504:1 679:1 686:1 744:1 762:1 771:1 905:1 948:1 969:1 975:1 1010:1 1072:1 1215:1 1218:1 1222:1 1223:1 1224:1 1227:1 1230:1 1238:1 1239:1 1247:1 1248:1 1249:1 1252:1 1254:1 1256:9
1 679:1 1072:1 1239:1 1249:1 1256:3
1 196:1 232:1 679:2 686:1 744:1 762:1 771:1 905:1 945:1 948:1 975:1 1010:1 1072:1 1215:1 1218:1 1222:1 1224:1 1227:1 1238:1 1239:1 1247:1 1248:1 1249:2 1251:1 1252:1 1254:1 1256:8
1 448:1 1241:1 1256:4
1 196:1 232:1 679:4 686:1 744:1 762:1 771:1 905:2 945:1 948:1 975:1 1010:1 1072:1 1215:1 1218:1 1222:1 1224:2 1227:1 1238:1 1239:1 1247:1 1248:1 1249:4 1251:1 1252:1 1254:1 1256:9 1258:1
1 196:1 232:1 679:1 686:1 744:1 762:1 771:1 905:1 948:1 975:1 1010:1 1072:1 1215:1 1218:1 1222:1 1224:1 1227:1 1238:1 1239:1 1247:1 1248:1 1249:1 1252:1 1254:1 1256:2
1 679:1 1249:1 1256:3
1 679:1 905:1 948:1 1224:1 1249:1 1254:1 1256:3
1 196:1 232:1 504:1 679:1 686:1 744:1 762:1 771:1 905:1 948:1 969:1 975:1 1010:1 1072:1 1215:1 1218:1 1222:1 1223:1 1224:1 1227:1 1230:1 1238:1 1239:1 1247:1 1248:1 1249:1 1252:1 1254:1 1256:9
1 184:1 679:1 905:1 1072:1 1224:1 1239:1 1249:1 1253:1 1256:3
1 196:1 232:1 679:1 686:1 744:1 762:1 771:1 905:1 948:1 975:1 1010:1 1072:1 1215:1 1218:1 1222:1 1224:1 1227:1 1238:1 1239:1 1247:1 1248:1 1249:1 1252:1 1254:1 1256:2
1 196:1 232:1 679:1 686:1 744:1 762:1 771:1 905:1 948:1 975:1 1010:1 1072:1 1215:1 1218:1 1222:1 1224:1 1227:1 1238:1 1239:1 1247:1 1248:1 1249:1 1252:1 1254:1 1256:2
1 196:1 232:1 679:1 686:1 744:1 762:1 771:1 905:1 948:1 975:1 1010:1 1072:1 1215:1 1218:1 1222:1 1224:1 1227:1 1238:1 1239:1 1247:1 1248:1 1249:1 1252:1 1254:1 1256:2
1 196:1 232:1 509:1 679:3 686:1 744:1 762:1 771:1 905:3 948:1 975:1 1010:1 1072:1 1215:1 1218:1 1222:1 1224:3 1227:1 1233:1 1238:1 1239:1 1247:1 1248:1 1249:3 1252:1 1254:1 1256:6
1 679:1 1249:1 1256:7
1 196:1 232:1 679:1 686:1 744:1 762:1 771:1 905:1 948:1 975:1 1010:1 1072:1 1215:1 1218:1 1222:1 1224:1 1227:1 1238:1 1239:1 1247:1 1248:1 1249:1 1252:1 1254:1 1256:2
1 196:1 232:1 504:1 679:1 686:1 744:1 762:1 771:1 905:1 948:1 969:1 975:1 1010:1 1072:1 1215:1 1218:1 1222:1 1223:1 1224:1 1227:1 1230:1 1238:1 1239:1 1247:1 1248:1 1249:1 1252:1 1254:1 1256:9
1 184:1 679:1 905:1 1072:1 1224:1 1239:1 1249:1 1253:1 1256:3
1 679:1 1072:1 1239:1 1249:1 1256:3
1 679:1 1249:1 1256:5
1 196:1 232:1 504:1 679:1 686:1 744:1 762:1 771:1 905:1 945:1 948:1 969:1 975:1 1010:1 1072:1 1215:1 1218:1 1222:1 1223:1 1224:1 1227:1 1230:1 1238:1 1239:1 1247:1 1248:1 1249:1 1251:1 1252:1 1254:1 1256:9
1 448:1 1241:1 1256:5
1 196:1 232:1 679:1 686:1 744:1 762:1 771:1 905:1 948:1 975:1 1010:1 1072:1 1215:1 1218:1 1222:1 1224:1 1227:1 1238:1 1239:1 1247:1 1248:1 1249:1 1252:1 1254:1 1256:2
1 196:1 232:1 679:4 686:1 744:1 762:1 771:1 905:2 945:1 948:1 975:1 1010:1 1072:1 1215:1 1218:1 1222:1 1224:2 1227:1 1238:1 1239:1 1247:1 1248:1 1249:4 1251:1 1252:1 1254:1 1256:9 1258:1
1 679:1 771:1 905:1 1072:1 1222:1 1224:1 1239:1 1249:1 1256:4 1258:1
1 196:1 232:1 504:1 679:1 686:1 744:1 762:1 771:1 905:1 948:1 969:1 975:1 1010:1 1072:1 1215:1 1218:1 1222:1 1223:1 1224:1 1227:1 1230:1 1238:1 1239:1 1247:1 1248:1 1249:1 1252:1 1254:1 1256:8
1 184:1 209:1 679:1 699:1 905:1 948:1 969:1 1072:1 1220:1 1221:1 1223:1 1224:1 1239:1 1249:1 1253:1 1254:1 1256:2
1 184:1 679:1 1249:1 1253:1 1256:5
1 196:1 232:1 679:1 686:1 744:1 762:1 771:1 905:1 948:1 975:1 1010:1 1072:1 1215:1 1218:1 1222:1 1224:1 1227:1 1238:1 1239:1 1247:1 1248:1 1249:1 1252:1 1254:1 1256:2
1 196:1 232:1 679:3 686:1 744:1 762:1 771:1 905:1 945:1 948:1 975:1 1010:1 1072:1 1215:1 1218:1 1222:1 1224:1 1227:1 1238:1 1239:1 1247:1 1248:1 1249:3 1251:1 1252:1 1254:1 1256:7 1258:1
1 196:1 232:1 679:1 686:1 744:1 762:1 771:1 905:1 948:1 975:1 1010:1 1072:1 1215:1 1218:1 1222:1 1224:1 1227:1 1238:1 1239:1 1247:1 1248:1 1249:1 1252:1 1254:1 1256:2
1 196:1 232:1 679:1 686:1 744:1 762:1 771:1 905:1 948:1 975:1 1010:1 1072:1 1215:1 1218:1 1222:1 1224:1 1227:1 1238:1 1239:1 1247:1 1248:1 1249:1 1252:1 1254:1 1256:2
1 196:1 232:1 679:1 686:1 744:1 762:1 771:1 905:1 948:1 975:1 1010:1 1072:1 1215:1 1218:1 1222:1 1224:1 1227:1 1238:1 1239:1 1247:1 1248:1 1249:1 1252:1 1254:1 1256:2
1 512:1 679:1 686:1 771:1 905:1 948:1 1072:1 1087:1 1222:1 1224:1 1236:1 1239:1 1249:1 1252:1 1254:1 1255:1 1256:2
1 196:1 232:1 679:3 686:1 744:1 762:1 771:1 905:1 945:1 948:1 975:1 1010:1 1072:1 1215:1 1218:1 1222:1 1224:1 1227:1 1238:1 1239:1 1247:1 1248:1 1249:3 1251:1 1252:1 1254:1 1256:7
1 184:1 679:1 1249:1 1253:1 1256:4
1 679:1 1249:1 1256:7 1258:1
1 184:1 679:1 1249:1 1253:1 1256:5 1258:1
1 196:1 232:1 679:1 686:1 744:1 762:1 771:1 905:1 948:1 975:1 1010:1 1072:1 1215:1 1218:1 1222:1 1224:1 1227:1 1238:1 1239:1 1247:1 1248:1 1249:1 1252:1 1254:1 1256:2
1 184:1 679:1 1249:1 1253:1 1256:5 1258:1
1 184:1 679:1 1249:1 1253:1 1256:4 1258:1
1 184:1 209:1 679:1 699:1 905:1 948:1 969:1 1072:1 1220:1 1221:1 1223:1 1224:1 1239:1 1249:1 1253:1 1254:1 1256:2
1 679:1 1249:1 1256:7
1 196:1 232:1 679:1 686:1 744:1 762:1 771:1 905:1 948:1 975:1 1010:1 1072:1 1215:1 1218:1 1222:1 1224:1 1227:1 1238:1 1239:1 1247:1 1248:1 1249:1 1252:1 1254:1 1256:2
1 196:1 232:1 679:1 686:1 744:1 762:1 771:1 905:1 948:1 975:1 1010:1 1072:1 1215:1 1218:1 1222:1 1224:1 1227:1 1238:1 1239:1 1247:1 1248:1 1249:1 1252:1 1254:1 1256:2
1 196:1 232:1 679:1 686:1 744:1 762:1 771:1 905:1 948:1 975:1 1010:1 1072:1 1215:1 1218:1 1222:1 1224:1 1227:1 1238:1 1239:1 1247:1 1248:1 1249:1 1252:1 1254:1 1256:2
1 196:1 232:1 679:1 686:1 744:1 762:1 771:1 905:1 948:1 975:1 1010:1 1072:1 1215:1 1218:1 1222:1 1224:1 1227:1 1238:1 1239:1 1247:1 1248:1 1249:1 1252:1 1254:1 1256:2
1 679:1 1249:1 1256:5
1 196:1 232:1 679:1 686:1 744:1 762:1 771:1 905:1 948:1 975:1 1010:1 1072:1 1215:1 1218:1 1222:1 1224:1 1227:1 1238:1 1239:1 1247:1 1248:1 1249:1 1252:1 1254:1 1256:2
1 196:1 232:1 679:1 686:1 744:1 762:1 771:1 905:1 945:1 948:1 975:1 1010:1 1072:1 1215:1 1218:1 1222:1 1224:1 1227:1 1238:1 1239:1 1247:1 1248:1 1249:1 1251:1 1252:1 1254:1 1256:9
1 196:1 232:1 679:1 686:1 744:1 762:1 771:1 905:1 945:1 948:1 975:1 1010:1 1072:1 1215:1 1218:1 1222:1 1224:1 1227:1 1238:1 1239:1 1247:1 1248:1 1249:1 1251:1 1252:1 1254:1 1256:9 1258:1
1 679:1 1249:1 1256:7
1 679:1 1249:1 1256:8
1 196:1 232:1 679:1 686:1 744:1 762:1 771:1 905:1 948:1 975:1 1010:1 1072:1 1215:1 1218:1 1222:1 1224:1 1227:1 1238:1 1239:1 1247:1 1248:1 1249:1 1252:1 1254:1 1256:2
1 196:1 232:1 679:1 686:1 744:1 762:1 771:1 905:1 948:1 975:1 1010:1 1072:1 1215:1 1218:1 1222:1 1224:1 1227:1 1238:1 1239:1 1247:1 1248:1 1249:1 1252:1 1254:1 1256:2
1 196:1 679:3 686:1 771:1 905:1 1072:1 1215:1 1222:1 1224:1 1239:1 1249:3 1252:1 1256:7
1 184:1 679:1 1249:1 1253:1 1256:4
1 184:1 209:1 679:1 699:1 905:1 948:1 969:1 1072:1 1220:1 1221:1 1223:1 1224:1 1239:1 1249:1 1253:1 1254:1 1256:2
1 679:1 699:1 1220:1 1249:1 1256:5 1258:1
1 196:1 509:1 679:3 686:1 771:1 905:2 1072:1 1215:1 1222:1 1224:2 1233:1 1239:1 1249:3 1252:1 1256:6
1 196:1 232:1 679:1 686:1 744:1 762:1 771:1 905:1 948:1 975:1 1010:1 1072:1 1215:1 1218:1 1222:1 1224:1 1227:1 1238:1 1239:1 1247:1 1248:1 1249:1 1252:1 1254:1 1256:2
1 679:1 1249:1 1256:8
1 196:1 232:1 504:1 679:1 686:1 744:1 762:1 771:1 905:1 945:1 948:1 969:1 975:1 1010:1 1072:1 1215:1 1218:1 1222:1 1223:1 1224:1 1227:1 1230:1 1238:1 1239:1 1247:1 1248:1 1249:1 1251:1 1252:1 1254:1 1256:9
1 196:1 232:1 679:3 686:1 744:1 762:1 771:1 905:1 945:1 948:1 975:1 1010:1 1072:1 1215:1 1218:1 1222:1 1224:1 1227:1 1238:1 1239:1 1247:1 1248:1 1249:3 1251:1 1252:1 1254:1 1256:7 1258:1
1 196:1 232:1 679:1 686:1 744:1 762:1 771:1 905:1 948:1 975:1 1010:1 1072:1 1215:1 1218:1 1222:1 1224:1 1227:1 1238:1 1239:1 1247:1 1248:1 1249:1 1252:1 1254:1 1256:2
1 679:1 905:1 1224:1 1249:1 1256:2
1 196:1 232:1 679:1 686:1 744:1 762:1 771:1 905:1 948:1 975:1 1010:1 1072:1 1215:1 1218:1 1222:1 1224:1 1227:1 1238:1 1239:1 1247:1 1248:1 1249:1 1252:1 1254:1 1256:2
1 184:1 209:1 679:1 699:1 905:1 948:1 969:1 1072:1 1220:1 1221:1 1223:1 1224:1 1239:1 1249:1 1253:1 1254:1 1256:2
1 184:1 209:1 679:1 699:1 905:1 948:1 969:1 1072:1 1220:1 1221:1 1223:1 1224:1 1239:1 1249:1 1253:1 1254:1 1256:2
1 196:1 232:1 679:1 686:1 744:1 762:1 771:1 905:1 948:1 975:1 1010:1 1072:1 1215:1 1218:1 1222:1 1224:1 1227:1 1238:1 1239:1 1247:1 1248:1 1249:1 1252:1 1254:1 1256:2
1 184:1 679:1 1249:1 1253:1 1256:5
1 679:1 1249:1 1256:8
1 196:1 232:1 679:2 686:1 744:1 762:1 771:1 905:1 948:1 975:1 1010:1 1072:1 1215:1 1218:1 1222:1 1224:1 1227:1 1238:1 1239:1 1247:1 1248:1 1249:2 1252:1 1254:1 1256:7
1 196:1 232:1 679:1 686:1 744:1 762:1 771:1 905:1 948:1 975:1 1010:1 1072:1 1215:1 1218:1 1222:1 1224:1 1227:1 1238:1 1239:1 1247:1 1248:1 1249:1 1252:1 1254:1 1256:2
1 196:1 232:1 679:1 686:1 744:1 762:1 771:1 905:1 948:1 975:1 1010:1 1072:1 1215:1 1218:1 1222:1 1224:1 1227:1 1238:1 1239:1 1247:1 1248:1 1249:1 1252:1 1254:1 1256:2
1 196:1 232:1 679:2 686:1 744:1 762:1 771:1 905:1 945:1 948:1 975:1 1010:1 1072:1 1215:1 1218:1 1222:1 1224:1 1227:1 1238:1 1239:1 1247:1 1248:1 1249:2 1251:1 1252:1 1254:1 1256:7
1 196:1 232:1 504:1 679:1 686:1 744:1 762:1 771:1 905:1 945:1 948:1 969:1 975:1 1010:1 1072:1 1215:1 1218:1 1222:1 1223:1 1224:1 1227:1 1230:1 1238:1 1239:1 1247:1 1248:1 1249:1 1251:1 1252:1 1254:1 1256:9
1 184:1 679:1 1249:1 1253:1 1256:5 1258:1
1 679:1 1249:1 1256:7
1 196:1 232:1 504:1 679:1 686:1 744:1 762:1 771:1 905:1 948:1 969:1 975:1 1010:1 1072:1 1215:1 1218:1 1222:1 1223:1 1224:1 1227:1 1230:1 1238:1 1239:1 1247:1 1248:1 1249:1 1252:1 1254:1 1256:9
1 196:1 232:1 679:3 686:1 744:1 762:1 771:1 905:1 948:1 975:1 1010:1 1072:1 1215:1 1218:1 1222:1 1224:1 1227:1 1238:1 1239:1 1247:1 1248:1 1249:3 1252:1 1254:1 1256:8
1 184:1 679:1 1249:1 1253:1 1256:5
1 196:1 232:1 679:1 686:1 744:1 762:1 771:1 905:1 948:1 975:1 1010:1 1072:1 1215:1 1218:1 1222:1 1224:1 1227:1 1238:1 1239:1 1247:1 1248:1 1249:1 1252:1 1254:1 1256:2
1 184:1 679:1 1249:1 1253:1 1256:4
1 196:1 232:1 679:1 686:1 744:1 762:1 771:1 905:1 948:1 975:1 1010:1 1072:1 1215:1 1218:1 1222:1 1224:1 1227:1 1238:1 1239:1 1247:1 1248:1 1249:1 1252:1 1254:1 1256:2
1 184:1 209:1 679:1 699:1 905:1 948:1 969:1 1072:1 1220:1 1221:1 1223:1 1224:1 1239:1 1249:1 1253:1 1254:1 1256:2
1 196:1 232:1 679:1 686:1 744:1 762:1 771:1 905:1 948:1 975:1 1010:1 1072:1 1215:1 1218:1 1222:1 1224:1 1227:1 1238:1 1239:1 1247:1 1248:1 1249:1 1252:1 1254:1 1256:2
1 679:1 1249:1 1256:7 1258:1
1 184:1 679:1 1249:1 1253:1 1256:5
1 679:1 1249:1 1256:7 1258:1
1 679:1 1249:1 1256:8
1 196:1 232:1 679:1 686:1 744:1 762:1 771:1 905:1 945:1 948:1 975:1 1010:1 1072:1 1215:1 1218:1 1222:1 1224:1 1227:1 1238:1 1239:1 1247:1 1248:1 1249:1 1251:1 1252:1 1254:1 1256:9
1 196:1 679:3 686:1 771:1 1072:1 1215:1 1222:1 1239:1 1249:3 1252:1 1256:7
1 196:1 232:1 679:1 686:1 744:1 762:1 771:1 905:1 948:1 975:1 1010:1 1072:1 1215:1 1218:1 1222:1 1224:1 1227:1 1238:1 1239:1 1247:1 1248:1 1249:1 1252:1 1254:1 1256:2
1 196:1 232:1 509:1 679:4 686:1 744:1 762:1 771:1 905:3 948:1 975:1 1010:1 1072:1 1215:1 1218:1 1222:1 1224:3 1227:1 1233:1 1238:1 1239:1 1247:1 1248:1 1249:4 1252:1 1254:1 1256:9
1 196:1 232:1 679:1 686:1 744:1 762:1 771:1 905:1 948:1 975:1 1010:1 1072:1 1215:1 1218:1 1222:1 1224:1 1227:1 1238:1 1239:1 1247:1 1248:1 1249:1 1252:1 1254:1 1256:2
1 679:1 1249:1 1256:8
1 679:1 1249:1 1256:8 1258:1
1 196:1 232:1 679:1 686:1 744:1 762:1 771:1 905:1 948:1 975:1 1010:1 1072:1 1215:1 1218:1 1222:1 1224:1 1227:1 1238:1 1239:1 1247:1 1248:1 1249:1 1252:1 1254:1 1256:2
1 196:1 232:1 679:1 686:1 744:1 762:1 771:1 905:1 948:1 975:1 1010:1 1072:1 1215:1 1218:1 1222:1 1224:1 1227:1 1238:1 1239:1 1247:1 1248:1 1249:1 1252:1 1254:1 1256:8
1 679:1 1249:1 1256:7 1258:1
1 196:1 232:1 679:2 686:1 744:1 762:1 771:1 905:1 945:1 948:1 975:1 1010:1 1072:1 1215:1 1218:1 1222:1 1224:1 1227:1 1238:1 1239:1 1247:1 1248:1 1249:2 1251:1 1252:1 1254:1 1256:7
1 448:1 1241:1 1256:4
1 196:1 232:1 679:3 686:1 744:1 762:1 771:1 905:1 945:1 948:1 975:1 1010:1 1072:1 1215:1 1218:1 1222:1 1224:1 1227:1 1238:1 1239:1 1247:1 1248:1 1249:3 1251:1 1252:1 1254:1 1256:8
1 448:1 1241:1 1256:4
1 679:1 1249:1 1256:7
1 679:1 1249:1 1256:7
1 679:1 1249:1 1256:5
1 184:1 679:1 1249:1 1253:1 1256:5
1 679:1 771:1 905:1 948:1 1222:1 1224:1 1249:1 1254:1 1256:4
1 196:1 232:1 504:1 679:1 686:1 744:1 762:1 771:1 905:1 948:1 969:1 975:1 1010:1 1072:1 1215:1 1218:1 1222:1 1223:1 1224:1 1227:1 1230:1 1238:1 1239:1 1247:1 1248:1 1249:1 1252:1 1254:1 1256:9
1 196:1 232:1 679:1 686:1 744:1 762:1 771:1 905:1 948:1 975:1 1010:1 1072:1 1215:1 1218:1 1222:1 1224:1 1227:1 1238:1 1239:1 1247:1 1248:1 1249:1 1252:1 1254:1 1256:2
1 184:1 209:1 679:1 699:1 905:1 948:1 969:1 1072:1 1220:1 1221:1 1223:1 1224:1 1239:1 1249:1 1253:1 1254:1 1256:2
1 196:1 232:1 504:1 679:1 686:1 744:1 762:1 771:1 905:1 948:1 969:1 975:1 1010:1 1072:1 1215:1 1218:1 1222:1 1223:1 1224:1 1227:1 1230:1 1238:1 1239:1 1247:1 1248:1 1249:1 1252:1 1254:1 1256:9
1 196:1 232:1 679:3 686:1 744:1 762:1 771:1 905:1 948:1 975:1 1010:1 1072:1 1215:1 1218:1 1222:1 1224:1 1227:1 1238:1 1239:1 1247:1 1248:1 1249:3 1252:1 1254:1 1256:7
1 679:1 1249:1 1256:8
1 196:1 232:1 679:1 686:1 744:1 762:1 771:1 905:1 948:1 975:1 1010:1 1072:1 1215:1 1218:1 1222:1 1224:1 1227:1 1238:1 1239:1 1247:1 1248:1 1249:1 1252:1 1254:1 1256:2
1 679:1 1249:1 1256:8
1 196:1 232:1 504:1 679:1 686:1 744:1 762:1 771:1 905:1 945:1 948:1 969:1 975:1 1010:1 1072:1 1215:1 1218:1 1222:1 1223:1 1224:1 1227:1 1230:1 1238:1 1239:1 1247:1 1248:1 1249:1 1251:1 1252:1 1254:1 1256:9
1 679:1 1249:1 1256:8
1 196:1 232:1 679:1 686:1 744:1 762:1 771:1 905:1 948:1 975:1 1010:1 1072:1 1215:1 1218:1 1222:1 1224:1 1227:1 1238:1 1239:1 1247:1 1248:1 1249:1 1252:1 1254:1 1256:2
1 184:1 679:1 1249:1 1253:1 1256:5
1 196:1 232:1 679:1 686:1 744:1 762:1 771:1 905:1 948:1 975:1 1010:1 1072:1 1215:1 1218:1 1222:1 1224:1 1227:1 1238:1 1239:1 1247:1 1248:1 1249:1 1252:1 1254:1 1256:2
1 196:1 232:1 679:1 686:1 744:1 762:1 771:1 905:1 948:1 975:1 1010:1 1072:1 1215:1 1218:1 1222:1 1224:1 1227:1 1238:1 1239:1 1247:1 1248:1 1249:1 1252:1 1254:1 1256:2
1 196:1 232:1 679:1 686:1 744:1 762:1 771:1 905:1 948:1 975:1 1010:1 1072:1 1215:1 1218:1 1222:1 1224:1 1227:1 1238:1 1239:1 1247:1 1248:1 1249:1 1252:1 1254:1 1256:2
1 196:1 232:1 679:4 686:1 744:1 762:1 771:1 905:2 945:1 948:1 975:1 1010:1 1072:1 1215:1 1218:1 1222:1 1224:2 1227:1 1238:1 1239:1 1247:1 1248:1 1249:4 1251:1 1252:1 1254:1 1256:9 1258:1
1 196:1 232:1 509:1 679:4 686:1 744:1 762:1 771:1 905:3 945:1 948:1 975:1 1010:1 1072:1 1215:1 1218:1 1222:1 1224:3 1227:1 1233:1 1238:1 1239:1 1247:1 1248:1 1249:4 1251:1 1252:1 1254:1 1256:9
1 504:1 679:1 771:1 1222:1 1230:1 1249:1 1256:3
1 196:1 232:1 504:1 679:1 686:1 744:1 762:1 771:1 905:1 948:1 969:1 975:1 1010:1 1072:1 1215:1 1218:1 1222:1 1223:1 1224:1 1227:1 1230:1 1238:1 1239:1 1247:1 1248:1 1249:1 1252:1 1254:1 1256:9
1 184:1 209:1 679:1 699:1 905:1 948:1 969:1 1072:1 1220:1 1221:1 1223:1 1224:1 1239:1 1249:1 1253:1 1254:1 1256:4
1 512:1 679:1 905:1 948:1 1072:1 1224:1 1236:1 1239:1 1249:1 1254:1 1256:2
1 196:1 232:1 679:1 686:1 744:1 762:1 771:1 905:1 948:1 975:1 1010:1 1072:1 1215:1 1218:1 1222:1 1224:1 1227:1 1238:1 1239:1 1247:1 1248:1 1249:1 1252:1 1254:1 1256:2
1 512:1 679:1 686:1 771:1 905:1 948:1 1072:1 1087:1 1222:1 1224:1 1236:1 1239:1 1249:1 1252:1 1254:1 1255:1 1256:2
1 679:1 1249:1 1256:8
1 196:1 232:1 679:1 686:1 744:1 762:1 771:1 905:1 945:1 948:1 975:1 1010:1 1072:1 1215:1 1218:1 1222:1 1224:1 1227:1 1238:1 1239:1 1247:1 1248:1 1249:1 1251:1 1252:1 1254:1 1256:8
1 196:1 232:1 679:1 686:1 744:1 762:1 771:1 905:1 948:1 975:1 1010:1 1072:1 1215:1 1218:1 1222:1 1224:1 1227:1 1238:1 1239:1 1247:1 1248:1 1249:1 1252:1 1254:1 1256:2
1 512:1 679:1 1236:1 1249:1 1256:2
1 196:1 232:1 504:1 679:1 686:1 744:1 762:1 771:1 905:1 948:1 969:1 975:1 1010:1 1072:1 1215:1 1218:1 1222:1 1223:1 1224:1 1227:1 1230:1 1238:1 1239:1 1247:1 1248:1 1249:1 1252:1 1254:1 1256:9
1 448:1 1241:1 1256:5
1 679:1 1072:1 1239:1 1249:1 1256:3
1 448:1 1241:1 1256:4
1 184:1 679:1 1249:1 1253:1 1256:5
1 184:1 209:1 679:1 699:1 905:1 948:1 969:1 1072:1 1220:1 1221:1 1223:1 1224:1 1239:1 1249:1 1253:1 1254:1 1256:2
1 196:1 232:1 679:4 686:1 744:1 762:1 771:1 905:2 945:1 948:1 975:1 1010:1 1072:1 1215:1 1218:1 1222:1 1224:2 1227:1 1238:1 1239:1 1247:1 1248:1 1249:4 1251:1 1252:1 1254:1 1256:9 1258:1
1 196:1 232:1 679:1 686:1 744:1 762:1 771:1 905:1 948:1 975:1 1010:1 1072:1 1215:1 1218:1 1222:1 1224:1 1227:1 1238:1 1239:1 1247:1 1248:1 1249:1 1252:1 1254:1 1256:2
1 196:1 232:1 679:3 686:1 744:1 762:1 771:1 905:1 948:1 975:1 1010:1 1072:1 1215:1 1218:1 1222:1 1224:1 1227:1 1238:1 1239:1 1247:1 1248:1 1249:3 1252:1 1254:1 1256:7
1 184:1 209:1 679:1 699:1 905:1 948:1 969:1 1072:1 1220:1 1221:1 1223:1 1224:1 1239:1 1249:1 1253:1 1254:1 1256:2
1 184:1 209:1 679:1 699:1 905:1 948:1 969:1 1072:1 1220:1 1221:1 1223:1 1224:1 1239:1 1249:1 1253:1 1254:1 1256:2
1 196:1 232:1 504:1 679:1 686:1 744:1 762:1 771:1 905:1 948:1 969:1 975:1 1010:1 1072:1 1215:1 1218:1 1222:1 1223:1 1224:1 1227:1 1230:1 1238:1 1239:1 1247:1 1248:1 1249:1 1252:1 1254:1 1256:9
1 168:1 196:1 679:1 686:1 771:1 1072:1 1215:1 1222:1 1239:1 1240:1 1249:1 1252:1 1256:8
1 679:1 771:1 1072:1 1222:1 1239:1 1249:1 1256:4
1 679:1 771:1 1072:1 1222:1 1239:1 1249:1 1256:4
1 196:1 232:1 679:1 686:1 744:1 762:1 771:1 905:1 948:1 975:1 1010:1 1072:1 1215:1 1218:1 1222:1 1224:1 1227:1 1238:1 1239:1 1247:1 1248:1 1249:1 1252:1 1254:1 1256:2
1 196:1 232:1 679:1 686:1 744:1 762:1 771:1 905:1 948:1 975:1 1010:1 1072:1 1215:1 1218:1 1222:1 1224:1 1227:1 1238:1 1239:1 1247:1 1248:1 1249:1 1252:1 1254:1 1256:2
1 184:1 679:1 1249:1 1253:1 1256:2
1 196:1 679:2 686:1 771:1 1072:1 1215:1 1222:1 1239:1 1249:2 1252:1 1256:6
1 184:1 679:1 905:1 1072:1 1224:1 1239:1 1249:1 1253:1 1256:4 1258:1
1 196:1 232:1 509:1 679:4 686:1 744:1 762:1 771:1 905:3 948:1 975:1 1010:1 1072:1 1215:1 1218:1 1222:1 1224:3 1227:1 1233:1 1238:1 1239:1 1247:1 1248:1 1249:4 1252:1 1254:1 1256:8
1 679:1 905:1 1224:1 1249:1 1256:1
1 184:1 209:1 679:1 699:1 905:1 948:1 969:1 1072:1 1220:1 1221:1 1223:1 1224:1 1239:1 1249:1 1253:1 1254:1 1256:2
1 196:1 232:1 679:1 686:1 744:1 762:1 771:1 905:1 945:1 948:1 975:1 1010:1 1072:1 1215:1 1218:1 1222:1 1224:1 1227:1 1238:1 1239:1 1247:1 1248:1 1249:1 1251:1 1252:1 1254:1 1256:2
1 184:1 209:1 679:1 699:1 905:1 948:1 969:1 1072:1 1220:1 1221:1 1223:1 1224:1 1239:1 1249:1 1253:1 1254:1 1256:2
1 184:1 209:1 679:1 699:1 905:1 948:1 969:1 1072:1 1220:1 1221:1 1223:1 1224:1 1239:1 1249:1 1253:1 1254:1 1256:2
1 184:1 679:1 1249:1 1253:1 1256:4 1258:1
1 679:1 1249:1 1256:8
1 196:1 232:1 679:3 686:1 744:1 762:1 771:1 905:1 948:1 975:1 1010:1 1072:1 1215:1 1218:1 1222:1 1224:1 1227:1 1238:1 1239:1 1247:1 1248:1 1249:3 1252:1 1254:1 1256:7
1 196:1 232:1 679:2 686:1 744:1 762:1 771:1 905:2 945:1 948:1 975:1 1010:1 1072:1 1215:1 1218:1 1222:1 1224:2 1227:1 1238:1 1239:1 1247:1 1248:1 1249:2 1251:1 1252:1 1254:1 1256:6
1 196:1 232:1 679:2 686:1 744:1 762:1 771:1 905:1 948:1 975:1 1010:1 1072:1 1215:1 1218:1 1222:1 1224:1 1227:1 1238:1 1239:1 1247:1 1248:1 1249:2 1252:1 1254:1 1256:6
1 196:1 232:1 679:1 686:1 744:1 762:1 771:1 905:1 948:1 975:1 1010:1 1072:1 1215:1 1218:1 1222:1 1224:1 1227:1 1238:1 1239:1 1247:1 1248:1 1249:1 1252:1 1254:1 1256:2
1 196:1 232:1 679:3 686:1 744:1 762:1 771:1 905:2 948:1 975:1 1010:1 1072:1 1215:1 1218:1 1222:1 1224:2 1227:1 1238:1 1239:1 1247:1 1248:1 1249:3 1252:1 1254:1 1256:8
1 184:1 679:1 1249:1 1253:1 1256:5
1 448:1 1241:1 1256:5
1 196:1 232:1 509:1 679:4 686:1 744:1 762:1 771:1 905:3 948:1 975:1 1010:1 1072:1 1215:1 1218:1 1222:1 1224:3 1227:1 1233:1 1238:1 1239:1 1247:1 1248:1 1249:4 1252:1 1254:1 1256:9
1 196:1 232:1 504:1 679:1 686:1 744:1 762:1 771:1 905:1 948:1 969:1 975:1 1010:1 1072:1 1215:1 1218:1 1222:1 1223:1 1224:1 1227:1 1230:1 1238:1 1239:1 1247:1 1248:1 1249:1 1252:1 1254:1 1256:9
1 196:1 679:2 686:1 771:1 1072:1 1215:1 1222:1 1239:1 1249:2 1252:1 1256:6
1 196:1 232:1 504:1 679:1 686:1 744:1 762:1 771:1 905:1 948:1 969:1 975:1 1010:1 1072:1 1215:1 1218:1 1222:1 1223:1 1224:1 1227:1 1230:1 1238:1 1239:1 1247:1 1248:1 1249:1 1252:1 1254:1 1256:9
1 196:1 232:1 679:3 686:1 744:1 762:1 771:1 905:1 948:1 975:1 1010:1 1072:1 1215:1 1218:1 1222:1 1224:1 1227:1 1238:1 1239:1 1247:1 1248:1 1249:3 1252:1 1254:1 1256:7
1 196:1 232:1 679:1 686:1 744:1 762:1 771:1 905:1 948:1 975:1 1010:1 1072:1 1215:1 1218:1 1222:1 1224:1 1227:1 1238:1 1239:1 1247:1 1248:1 1249:1 1252:1 1254:1 1256:2
1 196:1 232:1 679:2 686:1 744:1 762:1 771:1 905:1 948:1 975:1 1010:1 1072:1 1215:1 1218:1 1222:1 1224:1 1227:1 1238:1 1239:1 1247:1 1248:1 1249:2 1252:1 1254:1 1256:7
1 196:1 232:1 504:1 679:1 686:1 744:1 762:1 771:1 905:1 945:1 948:1 969:1 975:1 1010:1 1072:1 1215:1 1218:1 1222:1 1223:1 1224:1 1227:1 1230:1 1238:1 1239:1 1247:1 1248:1 1249:1 1251:1 1252:1 1254:1 1256:9
1 196:1 232:1 679:1 686:1 744:1 762:1 771:1 905:1 945:1 948:1 975:1 1010:1 1072:1 1215:1 1218:1 1222:1 1224:1 1227:1 1238:1 1239:1 1247:1 1248:1 1249:1 1251:1 1252:1 1254:1 1256:8
1 1256:2
1 196:1 232:1 679:1 686:1 744:1 762:1 771:1 905:1 945:1 948:1 975:1 1010:1 1072:1 1215:1 1218:1 1222:1 1224:1 1227:1 1238:1 1239:1 1247:1 1248:1 1249:1 1251:1 1252:1 1254:1 1256:8
1 196:1 232:1 679:1 686:1 744:1 762:1 771:1 905:1 948:1 975:1 1010:1 1072:1 1215:1 1218:1 1222:1 1224:1 1227:1 1238:1 1239:1 1247:1 1248:1 1249:1 1252:1 1254:1 1256:2
1 196:1 232:1 509:1 679:4 686:1 744:1 762:1 771:1 905:3 945:1 948:1 975:1 1010:1 1072:1 1215:1 1218:1 1222:1 1224:3 1227:1 1233:1 1238:1 1239:1 1247:1 1248:1 1249:4 1251:1 1252:1 1254:1 1256:9
1 184:1 209:1 679:1 699:1 905:1 948:1 969:1 1072:1 1220:1 1221:1 1223:1 1224:1 1239:1 1249:1 1253:1 1254:1 1256:2
1 196:1 232:1 679:1 686:1 744:1 762:1 771:1 905:1 948:1 975:1 1010:1 1072:1 1215:1 1218:1 1222:1 1224:1 1227:1 1238:1 1239:1 1247:1 1248:1 1249:1 1252:1 1254:1 1256:2
1 196:1 232:1 679:2 686:1 744:1 762:1 771:1 905:2 945:1 948:1 975:1 1010:1 1072:1 1215:1 1218:1 1222:1 1224:2 1227:1 1238:1 1239:1 1247:1 1248:1 1249:2 1251:1 1252:1 1254:1 1256:6
1 196:1 232:1 679:1 686:1 744:1 762:1 771:1 905:1 948:1 975:1 1010:1 1072:1 1215:1 1218:1 1222:1 1224:1 1227:1 1238:1 1239:1 1247:1 1248:1 1249:1 1252:1 1254:1 1256:2
1 679:1 1072:1 1239:1 1249:1 1256:2
1 196:1 232:1 679:1 686:1 744:1 762:1 771:1 905:1 948:1 975:1 1010:1 1072:1 1215:1 1218:1 1222:1 1224:1 1227:1 1238:1 1239:1 1247:1 1248:1 1249:1 1252:1 1254:1 1256:2
1 196:1 232:1 679:1 686:1 744:1 762:1 771:1 905:1 948:1 975:1 1010:1 1072:1 1215:1 1218:1 1222:1 1224:1 1227:1 1238:1 1239:1 1247:1 1248:1 1249:1 1252:1 1254:1 1256:2
1 196:1 232:1 679:1 686:1 744:1 762:1 771:1 905:1 948:1 975:1 1010:1 1072:1 1215:1 1218:1 1222:1 1224:1 1227:1 1238:1 1239:1 1247:1 1248:1 1249:1 1252:1 1254:1 1256:2
1 196:1 232:1 679:1 686:1 744:1 762:1 771:1 905:1 948:1 975:1 1010:1 1072:1 1215:1 1218:1 1222:1 1224:1 1227:1 1238:1 1239:1 1247:1 1248:1 1249:1 1252:1 1254:1 1256:2
1 679:1 1249:1 1256:8
1 196:1 232:1 679:1 686:1 744:1 762:1 771:1 905:1 948:1 975:1 1010:1 1072:1 1215:1 1218:1 1222:1 1224:1 1227:1 1238:1 1239:1 1247:1 1248:1 1249:1 1252:1 1254:1 1256:2
1 196:1 232:1 679:2 686:1 744:1 762:1 771:1 905:1 948:1 975:1 1010:1 1072:1 1215:1 1218:1 1222:1 1224:1 1227:1 1238:1 1239:1 1247:1 1248:1 1249:2 1252:1 1254:1 1256:7
1 196:1 232:1 504:1 679:1 686:1 744:1 762:1 771:1 905:1 945:1 948:1 969:1 975:1 1010:1 1072:1 1215:1 1218:1 1222:1 1223:1 1224:1 1227:1 1230:1 1238:1 1239:1 1247:1 1248:1 1249:1 1251:1 1252:1 1254:1 1256:9
1 196:1 232:1 679:1 686:1 744:1 762:1 771:1 905:1 948:1 975:1 1010:1 1072:1 1215:1 1218:1 1222:1 1224:1 1227:1 1238:1 1239:1 1247:1 1248:1 1249:1 1252:1 1254:1 1256:2
1 679:1 771:1 1072:1 1222:1 1239:1 1249:1 1256:4
1 196:1 232:1 679:1 686:1 744:1 762:1 771:1 905:1 948:1 975:1 1010:1 1072:1 1215:1 1218:1 1222:1 1224:1 1227:1 1238:1 1239:1 1247:1 1248:1 1249:1 1252:1 1254:1 1256:2
1 512:1 679:1 686:1 771:1 905:1 948:1 1072:1 1087:1 1222:1 1224:1 1236:1 1239:1 1249:1 1252:1 1254:1 1255:1 1256:2
1 196:1 232:1 679:1 686:1 744:1 762:1 771:1 905:1 948:1 975:1 1010:1 1072:1 1215:1 1218:1 1222:1 1224:1 1227:1 1238:1 1239:1 1247:1 1248:1 1249:1 1252:1 1254:1 1256:2
1 196:1 232:1 509:1 679:4 686:1 744:1 762:1 771:1 905:3 948:1 975:1 1010:1 1072:1 1215:1 1218:1 1222:1 1224:3 1227:1 1233:1 1238:1 1239:1 1247:1 1248:1 1249:4 1252:1 1254:1 1256:8
1 184:1 209:1 679:1 699:1 905:1 948:1 969:1 1072:1 1220:1 1221:1 1223:1 1224:1 1239:1 1249:1 1253:1 1254:1 1256:2
1 196:1 232:1 679:1 686:1 744:1 762:1 771:1 905:1 948:1 975:1 1010:1 1072:1 1215:1 1218:1 1222:1 1224:1 1227:1 1238:1 1239:1 1247:1 1248:1 1249:1 1252:1 1254:1 1256:3
1 679:1 1249:1 1256:7
1 679:1 1249:1 1256:8 1258:1
1 196:1 232:1 679:1 686:1 744:1 762:1 771:1 905:1 948:1 975:1 1010:1 1072:1 1215:1 1218:1 1222:1 1224:1 1227:1 1238:1 1239:1 1247:1 1248:1 1249:1 1252:1 1254:1 1256:2
1 196:1 232:1 679:1 686:1 744:1 762:1 771:1 905:1 948:1 975:1 1010:1 1072:1 1215:1 1218:1 1222:1 1224:1 1227:1 1238:1 1239:1 1247:1 1248:1 1249:1 1252:1 1254:1 1256:2
1 196:1 509:1 679:3 686:1 771:1 905:2 1072:1 1215:1 1222:1 1224:2 1233:1 1239:1 1249:3 1252:1 1256:6
1 184:1 679:1 1249:1 1253:1 1256:2
1 679:1 1249:1 1256:6
1 679:1 905:1 1224:1 1249:1 1256:1
1 184:1 209:1 679:1 699:1 905:1 948:1 969:1 1072:1 1220:1 1221:1 1223:1 1224:1 1239:1 1249:1 1253:1 1254:1 1256:2
1 679:1 1072:1 1239:1 1249:1 1256:2
1 679:1 771:1 905:1 1072:1 1222:1 1224:1 1239:1 1249:1 1256:4 1258:1
1 448:1 1241:1 1256:5
1 196:1 232:1 504:1 679:1 686:1 744:1 762:1 771:1 905:1 948:1 969:1 975:1 1010:1 1072:1 1215:1 1218:1 1222:1 1223:1 1224:1 1227:1 1230:1 1238:1 1239:1 1247:1 1248:1 1249:1 1252:1 1254:1 1256:8
1 196:1 232:1 504:1 679:1 686:1 744:1 762:1 771:1 905:1 948:1 969:1 975:1 1010:1 1072:1 1215:1 1218:1 1222:1 1223:1 1224:1 1227:1 1230:1 1238:1 1239:1 1247:1 1248:1 1249:1 1252:1 1254:1 1256:8
1 196:1 232:1 679:1 686:1 744:1 762:1 771:1 905:1 948:1 975:1 1010:1 1072:1 1215:1 1218:1 1222:1 1224:1 1227:1 1238:1 1239:1 1247:1 1248:1 1249:1 1252:1 1254:1 1256:2
1 679:1 1249:1 1256:4
1 196:1 232:1 679:2 686:1 744:1 762:1 771:1 905:1 948:1 975:1 1010:1 1072:1 1215:1 1218:1 1222:1 1224:1 1227:1 1238:1 1239:1 1247:1 1248:1 1249:2 1252:1 1254:1 1256:7
1 196:1 232:1 679:4 686:1 744:1 762:1 771:1 905:1 948:1 975:1 1010:1 1072:1 1215:1 1218:1 1222:1 1224:1 1227:1 1238:1 1239:1 1247:1 1248:1 1249:4 1252:1 1254:1 1256:10
1 196:1 232:1 679:1 686:1 744:1 762:1 771:1 905:1 948:1 975:1 1010:1 1072:1 1215:1 1218:1 1222:1 1224:1 1227:1 1238:1 1239:1 1247:1 1248:1 1249:1 1252:1 1254:1 1256:2
1 512:1 679:1 686:1 771:1 905:1 948:1 1072:1 1087:1 1222:1 1224:1 1236:1 1239:1 1249:1 1252:1 1254:1 1255:1 1256:2
1 184:1 679:1 1249:1 1253:1 1256:5 1258:1
1 679:1 1249:1 1256:8 1258:1
1 679:1 1249:1 1256:8
1 679:1 948:1 1249:1 1254:1 1256:2
1 196:1 232:1 679:3 686:1 744:1 762:1 771:1 905:1 948:1 975:1 1010:1 1072:1 1215:1 1218:1 1222:1 1224:1 1227:1 1238:1 1239:1 1247:1 1248:1 1249:3 1252:1 1254:1 1256:7
1 679:1 1249:1 1256:8
1 679:1 1249:1 1256:8
1 448:1 1241:1 1256:5
1 448:1 1241:1 1256:4
1 196:1 232:1 679:1 686:1 744:1 762:1 771:1 905:1 948:1 975:1 1010:1 1072:1 1215:1 1218:1 1222:1 1224:1 1227:1 1238:1 1239:1 1247:1 1248:1 1249:1 1252:1 1254:1 1256:2
1 196:1 232:1 509:1 679:3 686:1 744:1 762:1 771:1 905:3 948:1 975:1 1010:1 1072:1 1215:1 1218:1 1222:1 1224:3 1227:1 1233:1 1238:1 1239:1 1247:1 1248:1 1249:3 1252:1 1254:1 1256:7
1 196:1 232:1 679:1 686:1 744:1 762:1 771:1 905:1 948:1 975:1 1010:1 1072:1 1215:1 1218:1 1222:1 1224:1 1227:1 1238:1 1239:1 1247:1 1248:1 1249:1 1252:1 1254:1 1256:2
1 184:1 209:1 679:1 699:1 905:1 948:1 969:1 1072:1 1220:1 1221:1 1223:1 1224:1 1239:1 1249:1 1253:1 1254:1 1256:2
1 196:1 232:1 679:1 686:1 744:1 762:1 771:1 905:1 948:1 975:1 1010:1 1072:1 1215:1 1218:1 1222:1 1224:1 1227:1 1238:1 1239:1 1247:1 1248:1 1249:1 1252:1 1254:1 1256:2
1 679:2 686:1 771:1 905:1 1072:1 1222:1 1224:1 1239:1 1249:2 1252:1 1256:13
1 196:1 232:1 679:1 686:1 744:1 762:1 771:1 905:1 948:1 975:1 1010:1 1072:1 1215:1 1218:1 1222:1 1224:1 1227:1 1238:1 1239:1 1247:1 1248:1 1249:1 1252:1 1254:1 1256:2
1 196:1 232:1 679:2 686:1 744:1 762:1 771:1 905:1 948:1 975:1 1010:1 1072:1 1215:1 1218:1 1222:1 1224:1 1227:1 1238:1 1239:1 1247:1 1248:1 1249:2 1252:1 1254:1 1256:7
1 196:1 232:1 679:1 686:1 744:1 762:1 771:1 905:1 948:1 975:1 1010:1 1072:1 1215:1 1218:1 1222:1 1224:1 1227:1 1238:1 1239:1 1247:1 1248:1 1249:1 1252:1 1254:1 1256:2
1 184:1 209:1 679:1 699:1 905:1 948:1 969:1 1072:1 1220:1 1221:1 1223:1 1224:1 1239:1 1249:1 1253:1 1254:1 1256:2
1 184:1 209:1 679:1 699:1 905:1 948:1 969:1 1072:1 1220:1 1221:1 1223:1 1224:1 1239:1 1249:1 1253:1 1254:1 1256:2
1 679:1 1249:1 1256:8
1 196:1 232:1 679:1 686:1 744:1 762:1 771:1 905:1 948:1 975:1 1010:1 1072:1 1215:1 1218:1 1222:1 1224:1 1227:1 1238:1 1239:1 1247:1 1248:1 1249:1 1252:1 1254:1 1256:2
1 196:1 232:1 504:1 679:1 686:1 744:1 762:1 771:1 905:1 948:1 969:1 975:1 1010:1 1072:1 1215:1 1218:1 1222:1 1223:1 1224:1 1227:1 1230:1 1238:1 1239:1 1247:1 1248:1 1249:1 1252:1 1254:1 1256:9
1 196:1 679:1 686:1 771:1 1072:1 1215:1 1222:1 1239:1 1249:1 1252:1 1256:2
1 196:1 232:1 679:1 686:1 744:1 762:1 771:1 905:1 948:1 975:1 1010:1 1072:1 1215:1 1218:1 1222:1 1224:1 1227:1 1238:1 1239:1 1247:1 1248:1 1249:1 1252:1 1254:1 1256:2
1 196:1 232:1 509:1 679:4 686:1 744:1 762:1 771:1 905:3 948:1 975:1 1010:1 1072:1 1215:1 1218:1 1222:1 1224:3 1227:1 1233:1 1238:1 1239:1 1247:1 1248:1 1249:4 1252:1 1254:1 1256:9
1 679:1 905:1 1224:1 1249:1 1256:3
1 196:1 232:1 504:1 679:1 686:1 744:1 762:1 771:1 905:1 948:1 969:1 975:1 1010:1 1072:1 1215:1 1218:1 1222:1 1223:1 1224:1 1227:1 1230:1 1238:1 1239:1 1247:1 1248:1 1249:1 1252:1 1254:1 1256:9
1 196:1 232:1 679:3 686:1 744:1 762:1 771:1 905:1 948:1 975:1 1010:1 1072:1 1215:1 1218:1 1222:1 1224:1 1227:1 1238:1 1239:1 1247:1 1248:1 1249:3 1252:1 1254:1 1256:7
1 196:1 232:1 679:3 686:1 744:1 762:1 771:1 905:1 948:1 975:1 1010:1 1072:1 1215:1 1218:1 1222:1 1224:1 1227:1 1238:1 1239:1 1247:1 1248:1 1249:3 1252:1 1254:1 1256:7
1 679:1 1249:1 1256:7 1258:1
1 679:1 771:1 1072:1 1222:1 1239:1 1249:1 1256:4
1 196:1 232:1 679:2 686:1 744:1 762:1 771:1 905:1 948:1 975:1 1010:1 1072:1 1215:1 1218:1 1222:1 1224:1 1227:1 1238:1 1239:1 1247:1 1248:1 1249:2 1252:1 1254:1 1256:12
1 196:1 232:1 679:1 686:1 744:1 762:1 771:1 905:1 948:1 975:1 1010:1 1072:1 1215:1 1218:1 1222:1 1224:1 1227:1 1238:1 1239:1 1247:1 1248:1 1249:1 1252:1 1254:1 1256:2
1 679:1 948:1 1249:1 1254:1 1256:2
1 679:1 1249:1 1256:8
1 196:1 232:1 679:1 686:1 744:1 762:1 771:1 905:1 948:1 975:1 1010:1 1072:1 1215:1 1218:1 1222:1 1224:1 1227:1 1238:1 1239:1 1247:1 1248:1 1249:1 1252:1 1254:1 1256:2
1 196:1 232:1 679:2 686:1 744:1 762:1 771:1 905:1 945:1 948:1 975:1 1010:1 1072:1 1215:1 1218:1 1222:1 1224:1 1227:1 1238:1 1239:1 1247:1 1248:1 1249:2 1251:1 1252:1 1254:1 1256:7
1 196:1 232:1 679:1 686:1 744:1 762:1 771:1 905:1 948:1 975:1 1010:1 1072:1 1215:1 1218:1 1222:1 1224:1 1227:1 1238:1 1239:1 1247:1 1248:1 1249:1 1252:1 1254:1 1256:2
1 512:1 679:1 686:1 771:1 905:1 948:1 1072:1 1087:1 1222:1 1224:1 1236:1 1239:1 1249:1 1252:1 1254:1 1255:1 1256:2
1 184:1 209:1 679:1 699:1 905:1 948:1 969:1 1072:1 1220:1 1221:1 1223:1 1224:1 1239:1 1249:1 1253:1 1254:1 1256:2
1 196:1 232:1 504:1 679:1 686:1 744:1 762:1 771:1 905:1 948:1 969:1 975:1 1010:1 1072:1 1215:1 1218:1 1222:1 1223:1 1224:1 1227:1 1230:1 1238:1 1239:1 1247:1 1248:1 1249:1 1252:1 1254:1 1256:9
1 184:1 679:1 1249:1 1253:1 1256:5
1 196:1 232:1 679:1 686:1 744:1 762:1 771:1 905:1 948:1 975:1 1010:1 1072:1 1215:1 1218:1 1222:1 1224:1 1227:1 1238:1 1239:1 1247:1 1248:1 1249:1 1252:1 1254:1 1256:2
1 184:1 679:1 1249:1 1253:1 1256:5 1258:1
1 196:1 232:1 504:1 679:1 686:1 744:1 762:1 771:1 905:1 948:1 969:1 975:1 1010:1 1072:1 1215:1 1218:1 1222:1 1223:1 1224:1 1227:1 1230:1 1238:1 1239:1 1247:1 1248:1 1249:1 1252:1 1254:1 1256:9
1 196:1 232:1 679:1 686:1 744:1 762:1 771:1 905:1 948:1 975:1 1010:1 1072:1 1215:1 1218:1 1222:1 1224:1 1227:1 1238:1 1239:1 1247:1 1248:1 1249:1 1252:1 1254:1 1256:2
1 196:1 232:1 679:1 686:1 744:1 762:1 771:1 905:1 948:1 975:1 1010:1 1072:1 1215:1 1218:1 1222:1 1224:1 1227:1 1238:1 1239:1 1247:1 1248:1 1249:1 1252:1 1254:1 1256:2
1 196:1 232:1 679:1 686:1 744:1 762:1 771:1 905:1 948:1 975:1 1010:1 1072:1 1215:1 1218:1 1222:1 1224:1 1227:1 1238:1 1239:1 1247:1 1248:1 1249:1 1252:1 1254:1 1256:2
1 679:1 1072:1 1239:1 1249:1 1256:3
1 196:1 232:1 504:1 679:1 686:1 744:1 762:1 771:1 905:1 948:1 969:1 975:1 1010:1 1072:1 1215:1 1218:1 1222:1 1223:1 1224:1 1227:1 1230:1 1238:1 1239:1 1247:1 1248:1 1249:1 1252:1 1254:1 1256:9
1 184:1 679:1 1249:1 1253:1 1256:4 1258:1
1 679:1 1249:1 1256:5 1258:1
1 196:1 232:1 509:1 679:4 686:1 744:1 762:1 771:1 905:3 948:1 975:1 1010:1 1072:1 1215:1 1218:1 1222:1 1224:3 1227:1 1233:1 1238:1 1239:1 1247:1 1248:1 1249:4 1252:1 1254:1 1256:8
1 184:1 209:1 679:1 699:1 905:1 948:1 969:1 1072:1 1220:1 1221:1 1223:1 1224:1 1239:1 1249:1 1253:1 1254:1 1256:2
1 196:1 232:1 509:1 679:3 686:1 744:1 762:1 771:1 905:3 945:1 948:1 975:1 1010:1 1072:1 1215:1 1218:1 1222:1 1224:3 1227:1 1233:1 1238:1 1239:1 1247:1 1248:1 1249:3 1251:1 1252:1 1254:1 1256:6 1258:1
1 196:1 232:1 679:1 686:1 744:1 762:1 771:1 905:1 948:1 975:1 1010:1 1072:1 1215:1 1218:1 1222:1 1224:1 1227:1 1238:1 1239:1 1247:1 1248:1 1249:1 1252:1 1254:1 1256:2
1 196:1 232:1 679:1 686:1 744:1 762:1 771:1 905:1 948:1 975:1 1010:1 1072:1 1215:1 1218:1 1222:1 1224:1 1227:1 1238:1 1239:1 1247:1 1248:1 1249:1 1252:1 1254:1 1256:2
1 196:1 232:1 679:1 686:1 744:1 762:1 771:1 905:1 948:1 975:1 1010:1 1072:1 1215:1 1218:1 1222:1 1224:1 1227:1 1238:1 1239:1 1247:1 1248:1 1249:1 1252:1 1254:1 1256:2
1 448:1 1241:1 1256:4
1 196:1 232:1 679:1 686:1 744:1 762:1 771:1 905:1 948:1 975:1 1010:1 1072:1 1215:1 1218:1 1222:1 1224:1 1227:1 1238:1 1239:1 1247:1 1248:1 1249:1 1252:1 1254:1 1256:2
1 184:1 209:1 679:1 699:1 905:1 948:1 969:1 1072:1 1220:1 1221:1 1223:1 1224:1 1239:1 1249:1 1253:1 1254:1 1256:2
1 196:1 232:1 679:1 686:1 744:1 762:1 771:1 905:1 948:1 975:1 1010:1 1072:1 1215:1 1218:1 1222:1 1224:1 1227:1 1238:1 1239:1 1247:1 1248:1 1249:1 1252:1 1254:1 1256:2
1 448:1 1241:1 1256:3
1 196:1 232:1 679:1 686:1 744:1 762:1 771:1 905:1 948:1 975:1 1010:1 1072:1 1215:1 1218:1 1222:1 1224:1 1227:1 1238:1 1239:1 1247:1 1248:1 1249:1 1252:1 1254:1 1256:2
1 679:1 1249:1 1256:7 1258:1
1 679:1 948:1 1249:1 1254:1 1256:2
1 196:1 232:1 679:1 686:1 744:1 762:1 771:1 905:1 948:1 975:1 1010:1 1072:1 1215:1 1218:1 1222:1 1224:1 1227:1 1238:1 1239:1 1247:1 1248:1 1249:1 1252:1 1254:1 1256:2
1 196:1 232:1 504:1 679:1 686:1 744:1 762:1 771:1 905:1 948:1 969:1 975:1 1010:1 1072:1 1215:1 1218:1 1222:1 1223:1 1224:1 1227:1 1230:1 1238:1 1239:1 1247:1 1248:1 1249:1 1252:1 1254:1 1256:9
1 196:1 232:1 679:1 686:1 744:1 762:1 771:1 905:1 948:1 975:1 1010:1 1072:1 1215:1 1218:1 1222:1 1224:1 1227:1 1238:1 1239:1 1247:1 1248:1 1249:1 1252:1 1254:1 1256:2
1 448:1 1241:1 1256:5
1 184:1 679:1 1249:1 1253:1 1256:4 1258:1
1 196:1 232:1 509:1 679:4 686:1 744:1 762:1 771:1 905:3 948:1 975:1 1010:1 1072:1 1215:1 1218:1 1222:1 1224:3 1227:1 1233:1 1238:1 1239:1 1247:1 1248:1 1249:4 1252:1 1254:1 1256:8
1 512:1 679:1 771:1 905:1 948:1 1222:1 1224:1 1236:1 1249:1 1254:1 1256:2
1 196:1 232:1 679:3 686:1 744:1 762:1 771:1 905:1 945:1 948:1 975:1 1010:1 1072:1 1215:1 1218:1 1222:1 1224:1 1227:1 1238:1 1239:1 1247:1 1248:1 1249:3 1251:1 1252:1 1254:1 1256:7 1258:1
1 184:1 209:1 679:1 699:1 905:1 948:1 969:1 1072:1 1220:1 1221:1 1223:1 1224:1 1239:1 1249:1 1253:1 1254:1 1256:2
1 679:1 699:1 1220:1 1249:1 1256:6 1258:1
1 679:1 905:1 948:1 1072:1 1224:1 1239:1 1249:1 1254:1 1256:2
1 679:1 1249:1 1256:3
1 679:1 1249:1 1256:8
1 679:1 1249:1 1256:7
1 184:1 679:1 1249:1 1253:1 1256:2
1 196:1 232:1 679:1 686:1 744:1 762:1 771:1 905:1 948:1 975:1 1010:1 1072:1 1215:1 1218:1 1222:1 1224:1 1227:1 1238:1 1239:1 1247:1 1248:1 1249:1 1252:1 1254:1 1256:2
1 679:1 905:1 948:1 1072:1 1224:1 1239:1 1249:1 1254:1 1256:2
1 196:1 232:1 679:1 686:1 744:1 762:1 771:1 905:1 948:1 975:1 1010:1 1072:1 1215:1 1218:1 1222:1 1224:1 1227:1 1238:1 1239:1 1247:1 1248:1 1249:1 1252:1 1254:1 1256:2
1 196:1 232:1 679:1 686:1 744:1 762:1 771:1 905:1 948:1 975:1 1010:1 1072:1 1215:1 1218:1 1222:1 1224:1 1227:1 1238:1 1239:1 1247:1 1248:1 1249:1 1252:1 1254:1 1256:2
1 679:1 1249:1 1256:7 1258:1
1 196:1 232:1 679:1 686:1 744:1 762:1 771:1 905:1 948:1 975:1 1010:1 1072:1 1215:1 1218:1 1222:1 1224:1 1227:1 1238:1 1239:1 1247:1 1248:1 1249:1 1252:1 1254:1 1256:2
1 679:1 1249:1 1256:7
1 196:1 232:1 679:3 686:1 744:1 762:1 771:1 905:1 948:1 975:1 1010:1 1072:1 1215:1 1218:1 1222:1 1224:1 1227:1 1238:1 1239:1 1247:1 1248:1 1249:3 1252:1 1254:1 1256:7
1 448:1 1241:1 1256:4
1 184:1 209:1 679:1 699:1 905:1 948:1 969:1 1072:1 1220:1 1221:1 1223:1 1224:1 1239:1 1249:1 1253:1 1254:1 1256:2
1 184:1 679:1 905:1 1072:1 1224:1 1239:1 1249:1 1253:1 1256:3
1 196:1 232:1 679:1 686:1 744:1 762:1 771:1 905:1 948:1 975:1 1010:1 1072:1 1215:1 1218:1 1222:1 1224:1 1227:1 1238:1 1239:1 1247:1 1248:1 1249:1 1252:1 1254:1 1256:2
1 184:1 209:1 679:1 699:1 905:1 948:1 969:1 1072:1 1220:1 1221:1 1223:1 1224:1 1239:1 1249:1 1253:1 1254:1 1256:2
1 196:1 232:1 504:1 679:1 686:1 744:1 762:1 771:1 905:1 948:1 969:1 975:1 1010:1 1072:1 1215:1 1218:1 1222:1 1223:1 1224:1 1227:1 1230:1 1238:1 1239:1 1247:1 1248:1 1249:1 1252:1 1254:1 1256:8
1 196:1 232:1 679:1 686:1 744:1 762:1 771:1 905:1 948:1 975:1 1010:1 1072:1 1215:1 1218:1 1222:1 1224:1 1227:1 1238:1 1239:1 1247:1 1248:1 1249:1 1252:1 1254:1 1256:2
1 679:1 1249:1 1256:8
1 196:1 232:1 679:1 686:1 744:1 762:1 771:1 905:1 948:1 975:1 1010:1 1072:1 1215:1 1218:1 1222:1 1224:1 1227:1 1238:1 1239:1 1247:1 1248:1 1249:1 1252:1 1254:1 1256:2
1 196:1 232:1 504:1 679:1 686:1 744:1 762:1 771:1 905:1 945:1 948:1 969:1 975:1 1010:1 1072:1 1215:1 1218:1 1222:1 1223:1 1224:1 1227:1 1230:1 1238:1 1239:1 1247:1 1248:1 1249:1 1251:1 1252:1 1254:1 1256:9
1 196:1 232:1 679:2 686:1 744:1 762:1 771:1 905:2 948:1 975:1 1010:1 1072:1 1215:1 1218:1 1222:1 1224:2 1227:1 1238:1 1239:1 1247:1 1248:1 1249:2 1252:1 1254:1 1256:6
1 679:1 1249:1 1256:7 1258:1
1 196:1 232:1 679:1 686:1 744:1 762:1 771:1 905:1 948:1 975:1 1010:1 1072:1 1215:1 1218:1 1222:1 1224:1 1227:1 1238:1 1239:1 1247:1 1248:1 1249:1 1252:1 1254:1 1256:2
1 196:1 232:1 509:1 679:4 686:1 744:1 762:1 771:1 905:3 948:1 975:1 1010:1 1072:1 1215:1 1218:1 1222:1 1224:3 1227:1 1233:1 1238:1 1239:1 1247:1 1248:1 1249:4 1252:1 1254:1 1256:8
1 184:1 209:1 679:1 699:1 905:1 948:1 969:1 1072:1 1220:1 1221:1 1223:1 1224:1 1239:1 1249:1 1253:1 1254:1 1256:2
1 196:1 232:1 504:1 679:1 686:1 744:1 762:1 771:1 905:1 945:1 948:1 969:1 975:1 1010:1 1072:1 1215:1 1218:1 1222:1 1223:1 1224:1 1227:1 1230:1 1238:1 1239:1 1247:1 1248:1 1249:1 1251:1 1252:1 1254:1 1256:9
1 196:1 232:1 679:1 686:1 744:1 762:1 771:1 905:1 948:1 975:1 1010:1 1072:1 1215:1 1218:1 1222:1 1224:1 1227:1 1238:1 1239:1 1247:1 1248:1 1249:1 1252:1 1254:1 1256:2
1 679:1 1072:1 1239:1 1249:1 1256:3
1 448:1 1241:1 1256:5
1 196:1 232:1 679:1 686:1 744:1 762:1 771:1 905:1 948:1 975:1 1010:1 1072:1 1215:1 1218:1 1222:1 1224:1 1227:1 1238:1 1239:1 1247:1 1248:1 1249:1 1252:1 1254:1 1256:2
1 184:1 209:1 679:1 699:1 905:1 948:1 969:1 1072:1 1220:1 1221:1 1223:1 1224:1 1239:1 1249:1 1253:1 1254:1 1256:2
1 196:1 232:1 679:1 686:1 744:1 762:1 771:1 905:1 948:1 975:1 1010:1 1072:1 1215:1 1218:1 1222:1 1224:1 1227:1 1238:1 1239:1 1247:1 1248:1 1249:1 1252:1 1254:1 1256:2
1 448:1 1241:1 1256:4
1 196:1 232:1 679:2 686:1 744:1 762:1 771:1 905:1 948:1 975:1 1010:1 1072:1 1215:1 1218:1 1222:1 1224:1 1227:1 1238:1 1239:1 1247:1 1248:1 1249:2 1252:1 1254:1 1256:8
1 196:1 232:1 679:1 686:1 744:1 762:1 771:1 905:1 948:1 975:1 1010:1 1072:1 1215:1 1218:1 1222:1 1224:1 1227:1 1238:1 1239:1 1247:1 1248:1 1249:1 1252:1 1254:1 1256:2
1 196:1 232:1 679:1 686:1 744:1 762:1 771:1 905:1 945:1 948:1 975:1 1010:1 1072:1 1215:1 1218:1 1222:1 1224:1 1227:1 1238:1 1239:1 1247:1 1248:1 1249:1 1251:1 1252:1 1254:1 1256:8
1 196:1 232:1 679:1 686:1 744:1 762:1 771:1 905:1 948:1 975:1 1010:1 1072:1 1215:1 1218:1 1222:1 1224:1 1227:1 1238:1 1239:1 1247:1 1248:1 1249:1 1252:1 1254:1 1256:2
1 196:1 232:1 679:1 686:1 744:1 762:1 771:1 905:1 948:1 975:1 1010:1 1072:1 1215:1 1218:1 1222:1 1224:1 1227:1 1238:1 1239:1 1247:1 1248:1 1249:1 1252:1 1254:1 1256:2
1 679:1 1249:1 1256:4
1 196:1 232:1 679:1 686:1 744:1 762:1 771:1 905:1 948:1 975:1 1010:1 1072:1 1215:1 1218:1 1222:1 1224:1 1227:1 1238:1 1239:1 1247:1 1248:1 1249:1 1252:1 1254:1 1256:2
1 184:1 209:1 679:1 699:1 905:1 948:1 969:1 1072:1 1220:1 1221:1 1223:1 1224:1 1239:1 1249:1 1253:1 1254:1 1256:2
1 448:1 1241:1 1256:4
1 184:1 504:1 679:1 686:1 771:1 905:1 948:1 1072:1 1222:1 1224:1 1230:1 1239:1 1249:1 1252:1 1253:1 1254:1 1256:2
1 184:1 209:1 679:1 699:1 905:1 948:1 969:1 1072:1 1220:1 1221:1 1223:1 1224:1 1239:1 1249:1 1253:1 1254:1 1256:2
1 196:1 232:1 679:3 686:1 744:1 762:1 771:1 905:1 945:1 948:1 975:1 1010:1 1072:1 1215:1 1218:1 1222:1 1224:1 1227:1 1238:1 1239:1 1247:1 1248:1 1249:3 1251:1 1252:1 1254:1 1256:8
1 679:1 1249:1 1256:7
1 196:1 232:1 679:1 686:1 744:1 762:1 771:1 905:1 948:1 975:1 1010:1 1072:1 1215:1 1218:1 1222:1 1224:1 1227:1 1238:1 1239:1 1247:1 1248:1 1249:1 1252:1 1254:1 1256:9
1 679:1 1249:1 1256:5
1 679:1 1249:1 1256:8
1 196:1 232:1 679:1 686:1 744:1 762:1 771:1 905:1 948:1 975:1 1010:1 1072:1 1215:1 1218:1 1222:1 1224:1 1227:1 1238:1 1239:1 1247:1 1248:1 1249:1 1252:1 1254:1 1256:2
1 196:1 232:1 504:1 679:1 686:1 744:1 762:1 771:1 905:1 948:1 969:1 975:1 1010:1 1072:1 1215:1 1218:1 1222:1 1223:1 1224:1 1227:1 1230:1 1238:1 1239:1 1247:1 1248:1 1249:1 1252:1 1254:1 1256:8
1 196:1 232:1 679:1 686:1 744:1 762:1 771:1 905:1 948:1 975:1 1010:1 1072:1 1215:1 1218:1 1222:1 1224:1 1227:1 1238:1 1239:1 1247:1 1248:1 1249:1 1252:1 1254:1 1256:2
1 679:1 905:1 948:1 1224:1 1249:1 1254:1 1256:3
1 196:1 232:1 679:1 686:1 744:1 762:1 771:1 905:1 948:1 975:1 1010:1 1072:1 1215:1 1218:1 1222:1 1224:1 1227:1 1238:1 1239:1 1247:1 1248:1 1249:1 1252:1 1254:1 1256:2
1 184:1 679:1 1249:1 1253:1 1256:5
1 196:1 232:1 679:1 686:1 744:1 762:1 771:1 905:1 948:1 975:1 1010:1 1072:1 1215:1 1218:1 1222:1 1224:1 1227:1 1238:1 1239:1 1247:1 1248:1 1249:1 1252:1 1254:1 1256:2
1 196:1 232:1 679:1 686:1 744:1 762:1 771:1 905:1 948:1 975:1 1010:1 1072:1 1215:1 1218:1 1222:1 1224:1 1227:1 1238:1 1239:1 1247:1 1248:1 1249:1 1252:1 1254:1 1256:2
1 196:1 232:1 679:1 686:1 744:1 762:1 771:1 905:1 948:1 975:1 1010:1 1072:1 1215:1 1218:1 1222:1 1224:1 1227:1 1238:1 1239:1 1247:1 1248:1 1249:1 1252:1 1254:1 1256:2
1 196:1 232:1 679:1 686:1 744:1 762:1 771:1 905:1 948:1 975:1 1010:1 1072:1 1215:1 1218:1 1222:1 1224:1 1227:1 1238:1 1239:1 1247:1 1248:1 1249:1 1252:1 1254:1 1256:2
1 679:1 1249:1 1256:7
1 196:1 232:1 504:1 679:1 686:1 744:1 762:1 771:1 905:1 948:1 969:1 975:1 1010:1 1072:1 1215:1 1218:1 1222:1 1223:1 1224:1 1227:1 1230:1 1238:1 1239:1 1247:1 1248:1 1249:1 1252:1 1254:1 1256:9
1 196:1 232:1 504:1 679:1 686:1 744:1 762:1 771:1 905:1 945:1 948:1 969:1 975:1 1010:1 1072:1 1215:1 1218:1 1222:1 1223:1 1224:1 1227:1 1230:1 1238:1 1239:1 1247:1 1248:1 1249:1 1251:1 1252:1 1254:1 1256:9
1 196:1 232:1 679:1 686:1 744:1 762:1 771:1 905:1 948:1 975:1 1010:1 1072:1 1215:1 1218:1 1222:1 1224:1 1227:1 1238:1 1239:1 1247:1 1248:1 1249:1 1252:1 1254:1 1256:2
1 679:1 1249:1 1256:7
1 509:1 679:4 686:1 771:1 905:3 1072:1 1222:1 1224:3 1233:1 1239:1 1249:4 1252:1 1256:9
1 196:1 232:1 504:1 679:1 686:1 744:1 762:1 771:1 905:1 948:1 969:1 975:1 1010:1 1072:1 1215:1 1218:1 1222:1 1223:1 1224:1 1227:1 1230:1 1238:1 1239:1 1247:1 1248:1 1249:1 1252:1 1254:1 1256:9
1 679:1 1249:1 1256:7 1258:1
1 196:1 232:1 679:1 686:1 744:1 762:1 771:1 905:1 948:1 975:1 1010:1 1072:1 1215:1 1218:1 1222:1 1224:1 1227:1 1238:1 1239:1 1247:1 1248:1 1249:1 1252:1 1254:1 1256:2
1 184:1 679:1 1249:1 1253:1 1256:5
1 448:1 1241:1 1256:3
1 196:1 232:1 504:1 679:1 686:1 744:1 762:1 771:1 905:1 948:1 969:1 975:1 1010:1 1072:1 1215:1 1218:1 1222:1 1223:1 1224:1 1227:1 1230:1 1238:1 1239:1 1247:1 1248:1 1249:1 1252:1 1254:1 1256:9
1 196:1 232:1 679:1 686:1 744:1 762:1 771:1 905:1 948:1 975:1 1010:1 1072:1 1215:1 1218:1 1222:1 1224:1 1227:1 1238:1 1239:1 1247:1 1248:1 1249:1 1252:1 1254:1 1256:2
1 196:1 232:1 679:1 686:1 744:1 762:1 771:1 905:1 945:1 948:1 975:1 1010:1 1072:1 1215:1 1218:1 1222:1 1224:1 1227:1 1238:1 1239:1 1247:1 1248:1 1249:1 1251:1 1252:1 1254:1 1256:8
1 679:1 1072:1 1239:1 1249:1 1256:3
1 196:1 232:1 679:1 686:1 744:1 762:1 771:1 905:1 948:1 975:1 1010:1 1072:1 1215:1 1218:1 1222:1 1224:1 1227:1 1238:1 1239:1 1247:1 1248:1 1249:1 1252:1 1254:1 1256:2
1 196:1 232:1 679:1 686:1 744:1 762:1 771:1 905:1 948:1 975:1 1010:1 1072:1 1215:1 1218:1 1222:1 1224:1 1227:1 1238:1 1239:1 1247:1 1248:1 1249:1 1252:1 1254:1 1256:2
1 196:1 232:1 679:1 686:1 744:1 762:1 771:1 905:1 948:1 975:1 1010:1 1072:1 1215:1 1218:1 1222:1 1224:1 1227:1 1238:1 1239:1 1247:1 1248:1 1249:1 1252:1 1254:1 1256:2
1 184:1 679:1 1249:1 1253:1 1256:5
1 679:1 1072:1 1239:1 1249:1 1256:2
1 196:1 232:1 679:1 686:1 744:1 762:1 771:1 905:1 945:1 948:1 975:1 1010:1 1072:1 1215:1 1218:1 1222:1 1224:1 1227:1 1238:1 1239:1 1247:1 1248:1 1249:1 1251:1 1252:1 1254:1 1256:10 1258:1
1 196:1 232:1 679:1 686:1 744:1 762:1 771:1 905:1 948:1 975:1 1010:1 1072:1 1215:1 1218:1 1222:1 1224:1 1227:1 1238:1 1239:1 1247:1 1248:1 1249:1 1252:1 1254:1 1256:2
1 184:1 679:1 1249:1 1253:1 1256:5
1 196:1 232:1 679:1 686:1 744:1 762:1 771:1 905:1 948:1 975:1 1010:1 1072:1 1215:1 1218:1 1222:1 1224:1 1227:1 1238:1 1239:1 1247:1 1248:1 1249:1 1252:1 1254:1 1256:2
1 196:1 232:1 679:1 686:1 744:1 762:1 771:1 905:1 948:1 975:1 1010:1 1072:1 1215:1 1218:1 1222:1 1224:1 1227:1 1238:1 1239:1 1247:1 1248:1 1249:1 1252:1 1254:1 1256:2
1 184:1 209:1 679:1 699:1 905:1 948:1 969:1 1072:1 1220:1 1221:1 1223:1 1224:1 1239:1 1249:1 1253:1 1254:1 1256:2
1 184:1 679:1 1249:1 1253:1 1256:4 1258:1
1 196:1 232:1 679:1 686:1 744:1 762:1 771:1 905:1 948:1 975:1 1010:1 1072:1 1215:1 1218:1 1222:1 1224:1 1227:1 1238:1 1239:1 1247:1 1248:1 1249:1 1252:1 1254:1 1256:2
1 196:1 232:1 504:1 679:1 686:1 744:1 762:1 771:1 905:1 948:1 969:1 975:1 1010:1 1072:1 1215:1 1218:1 1222:1 1223:1 1224:1 1227:1 1230:1 1238:1 1239:1 1247:1 1248:1 1249:1 1252:1 1254:1 1256:9
1 196:1 232:1 679:3 686:1 744:1 762:1 771:1 905:1 948:1 975:1 1010:1 1072:1 1215:1 1218:1 1222:1 1224:1 1227:1 1238:1 1239:1 1247:1 1248:1 1249:3 1252:1 1254:1 1256:7
1 196:1 232:1 679:1 686:1 744:1 762:1 771:1 905:1 948:1 975:1 1010:1 1072:1 1215:1 1218:1 1222:1 1224:1 1227:1 1238:1 1239:1 1247:1 1248:1 1249:1 1252:1 1254:1 1256:2
1 679:1 1249:1 1256:8
1 679:1 1072:1 1239:1 1249:1 1256:3
1 448:1 1241:1 1256:4
1 184:1 209:1 679:1 699:1 905:1 948:1 969:1 1072:1 1220:1 1221:1 1223:1 1224:1 1239:1 1249:1 1253:1 1254:1 1256:2
1 196:1 232:1 504:1 679:1 686:1 744:1 762:1 771:1 905:1 948:1 969:1 975:1 1010:1 1072:1 1215:1 1218:1 1222:1 1223:1 1224:1 1227:1 1230:1 1238:1 1239:1 1247:1 1248:1 1249:1 1252:1 1254:1 1256:9
1 679:1 771:1 1072:1 1222:1 1239:1 1249:1 1256:4
1 196:1 509:1 679:3 686:1 771:1 905:2 1072:1 1215:1 1222:1 1224:2 1233:1 1239:1 1249:3 1252:1 1256:6
1 196:1 232:1 679:1 686:1 744:1 762:1 771:1 905:1 948:1 975:1 1010:1 1072:1 1215:1 1218:1 1222:1 1224:1 1227:1 1238:1 1239:1 1247:1 1248:1 1249:1 1252:1 1254:1 1256:2
1 196:1 232:1 679:3 686:1 744:1 762:1 771:1 905:2 948:1 975:1 1010:1 1072:1 1215:1 1218:1 1222:1 1224:2 1227:1 1238:1 1239:1 1247:1 1248:1 1249:3 1252:1 1254:1 1256:7
1 448:1 1241:1 1256:3
1 196:1 232:1 679:1 686:1 744:1 762:1 771:1 905:1 948:1 975:1 1010:1 1072:1 1215:1 1218:1 1222:1 1224:1 1227:1 1238:1 1239:1 1247:1 1248:1 1249:1 1252:1 1254:1 1256:2
1 196:1 232:1 679:1 686:1 744:1 762:1 771:1 905:1 948:1 975:1 1010:1 1072:1 1215:1 1218:1 1222:1 1224:1 1227:1 1238:1 1239:1 1247:1 1248:1 1249:1 1252:1 1254:1 1256:2
1 679:1 1249:1 1256:6 1258:1
1 679:1 1072:1 1239:1 1249:1 1256:3
1 448:1 1241:1 1256:4
1 679:1 1249:1 1256:5 1258:1
1 679:1 771:1 905:1 1072:1 1222:1 1224:1 1239:1 1249:1 1256:4 1258:1
1 184:1 679:1 905:1 1072:1 1224:1 1239:1 1249:1 1253:1 1256:3
1 184:1 679:1 1249:1 1253:1 1256:5
1 184:1 209:1 679:1 699:1 905:1 948:1 969:1 1072:1 1220:1 1221:1 1223:1 1224:1 1239:1 1249:1 1253:1 1254:1 1256:2
1 196:1 232:1 679:1 686:1 744:1 762:1 771:1 905:1 948:1 975:1 1010:1 1072:1 1215:1 1218:1 1222:1 1224:1 1227:1 1238:1 1239:1 1247:1 1248:1 1249:1 1252:1 1254:1 1256:2
1 196:1 232:1 679:3 686:1 744:1 762:1 771:1 905:2 948:1 975:1 1072:1 1215:1 1218:1 1222:1 1224:2 1227:1 1238:1 1239:1 1248:1 1249:3 1252:1 1254:1 1256:8
1 196:1 232:1 679:1 686:1 744:1 762:1 771:1 905:1 948:1 975:1 1010:1 1072:1 1215:1 1218:1 1222:1 1224:1 1227:1 1238:1 1239:1 1247:1 1248:1 1249:1 1252:1 1254:1 1256:2
1 196:1 232:1 679:1 686:1 744:1 762:1 771:1 905:1 945:1 948:1 975:1 1010:1 1072:1 1215:1 1218:1 1222:1 1224:1 1227:1 1238:1 1239:1 1247:1 1248:1 1249:1 1251:1 1252:1 1254:1 1256:9 1258:1
1 679:1 1249:1 1256:7
1 184:1 209:1 679:1 699:1 905:1 948:1 969:1 1072:1 1220:1 1221:1 1223:1 1224:1 1239:1 1249:1 1253:1 1254:1 1256:2
1 448:1 1241:1 1256:3
1 679:1 1249:1 1256:8
1 196:1 232:1 679:1 686:1 744:1 762:1 771:1 905:1 948:1 975:1 1010:1 1072:1 1215:1 1218:1 1222:1 1224:1 1227:1 1238:1 1239:1 1247:1 1248:1 1249:1 1252:1 1254:1 1256:2
1 679:1 948:1 1249:1 1254:1 1256:2
1 184:1 679:1 686:1 771:1 905:1 948:1 969:1 1072:1 1222:1 1223:1 1224:1 1239:1 1249:1 1252:1 1253:1 1254:1 1256:4
1 679:1 1249:1 1256:5
1 679:1 1249:1 1256:5
1 196:1 232:1 504:1 679:1 686:1 744:1 762:1 771:1 905:1 948:1 969:1 975:1 1010:1 1072:1 1215:1 1218:1 1222:1 1223:1 1224:1 1227:1 1230:1 1238:1 1239:1 1247:1 1248:1 1249:1 1252:1 1254:1 1256:9
1 196:1 232:1 679:3 686:1 744:1 762:1 771:1 905:2 948:1 975:1 1010:1 1072:1 1215:1 1218:1 1222:1 1224:2 1227:1 1238:1 1239:1 1247:1 1248:1 1249:3 1252:1 1254:1 1256:8
1 184:1 679:1 1249:1 1253:1 1256:5
1 196:1 232:1 504:1 679:1 686:1 744:1 762:1 771:1 905:1 948:1 969:1 975:1 1010:1 1072:1 1215:1 1218:1 1222:1 1223:1 1224:1 1227:1 1230:1 1238:1 1239:1 1247:1 1248:1 1249:1 1252:1 1254:1 1256:8
1 679:1 1249:1 1256:7
1 196:1 232:1 679:1 686:1 744:1 762:1 771:1 905:1 948:1 975:1 1010:1 1072:1 1215:1 1218:1 1222:1 1224:1 1227:1 1238:1 1239:1 1247:1 1248:1 1249:1 1252:1 1254:1 1256:2
1 184:1 679:1 686:1 771:1 905:1 948:1 969:1 1072:1 1222:1 1223:1 1224:1 1239:1 1249:1 1252:1 1253:1 1254:1 1256:4
1 196:1 232:1 679:2 686:1 744:1 762:1 771:1 905:1 948:1 975:1 1010:1 1072:1 1215:1 1218:1 1222:1 1224:1 1227:1 1238:1 1239:1 1247:1 1248:1 1249:2 1252:1 1254:1 1256:6
1 196:1 232:1 679:2 686:1 744:1 762:1 771:1 905:1 945:1 948:1 975:1 1010:1 1072:1 1215:1 1218:1 1222:1 1224:1 1227:1 1238:1 1239:1 1247:1 1248:1 1249:2 1251:1 1252:1 1254:1 1256:7
1 512:1 679:1 686:1 771:1 905:1 948:1 1072:1 1087:1 1222:1 1224:1 1236:1 1239:1 1249:1 1252:1 1254:1 1255:1 1256:2
1 196:1 232:1 679:1 686:1 744:1 762:1 771:1 905:1 945:1 948:1 975:1 1010:1 1072:1 1215:1 1218:1 1222:1 1224:1 1227:1 1238:1 1239:1 1247:1 1248:1 1249:1 1251:1 1252:1 1254:1 1256:7
1 448:1 1241:1 1256:3
1 679:1 1249:1 1256:5
1 196:1 232:1 679:2 686:1 744:1 762:1 771:1 905:1 948:1 975:1 1010:1 1072:1 1215:1 1218:1 1222:1 1224:1 1227:1 1238:1 1239:1 1247:1 1248:1 1249:2 1252:1 1254:1 1256:8
1 184:1 679:1 1249:1 1253:1 1256:5
1 512:1 679:1 1072:1 1236:1 1239:1 1249:1 1256:2
1 196:1 232:1 679:1 686:1 744:1 762:1 771:1 905:1 948:1 975:1 1010:1 1072:1 1215:1 1218:1 1222:1 1224:1 1227:1 1238:1 1239:1 1247:1 1248:1 1249:1 1252:1 1254:1 1256:2
1 184:1 679:1 1249:1 1253:1 1256:4 1258:1
1 679:1 1249:1 1256:8
1 196:1 232:1 509:1 679:3 686:1 744:1 762:1 771:1 905:3 945:1 948:1 975:1 1010:1 1072:1 1215:1 1218:1 1222:1 1224:3 1227:1 1233:1 1238:1 1239:1 1247:1 1248:1 1249:3 1251:1 1252:1 1254:1 1256:6 1258:1
1 196:1 232:1 679:1 686:1 744:1 762:1 771:1 905:1 948:1 975:1 1010:1 1072:1 1215:1 1218:1 1222:1 1224:1 1227:1 1238:1 1239:1 1247:1 1248:1 1249:1 1252:1 1254:1 1256:2
1 184:1 679:1 1249:1 1253:1 1256:5 1258:1
1 196:1 232:1 679:1 686:1 744:1 762:1 771:1 905:1 948:1 975:1 1010:1 1072:1 1215:1 1218:1 1222:1 1224:1 1227:1 1238:1 1239:1 1247:1 1248:1 1249:1 1252:1 1254:1 1256:2
1 679:1 1249:1 1256:7
1 184:1 209:1 679:1 699:1 905:1 948:1 969:1 1072:1 1220:1 1221:1 1223:1 1224:1 1239:1 1249:1 1253:1 1254:1 1256:2
1 196:1 232:1 679:1 686:1 744:1 762:1 771:1 905:1 948:1 975:1 1010:1 1072:1 1215:1 1218:1 1222:1 1224:1 1227:1 1238:1 1239:1 1247:1 1248:1 1249:1 1252:1 1254:1 1256:2
1 196:1 232:1 679:1 686:1 744:1 762:1 771:1 905:1 948:1 975:1 1010:1 1072:1 1215:1 1218:1 1222:1 1224:1 1227:1 1238:1 1239:1 1247:1 1248:1 1249:1 1252:1 1254:1 1256:2
1 196:1 232:1 679:1 686:1 744:1 762:1 771:1 905:1 948:1 975:1 1010:1 1072:1 1215:1 1218:1 1222:1 1224:1 1227:1 1238:1 1239:1 1247:1 1248:1 1249:1 1252:1 1254:1 1256:2
1 196:1 232:1 679:3 686:1 744:1 762:1 771:1 905:1 948:1 975:1 1010:1 1072:1 1215:1 1218:1 1222:1 1224:1 1227:1 1238:1 1239:1 1247:1 1248:1 1249:3 1252:1 1254:1 1256:7
1 448:1 1241:1 1256:4
1 679:1 1072:1 1239:1 1249:1 1256:3
1 196:1 232:1 679:1 686:1 744:1 762:1 771:1 905:1 948:1 975:1 1010:1 1072:1 1215:1 1218:1 1222:1 1224:1 1227:1 1238:1 1239:1 1247:1 1248:1 1249:1 1252:1 1254:1 1256:2
1 679:1 905:1 1224:1 1249:1 1256:2
1 679:1 1249:1 1256:8
1 679:1 1249:1 1256:8
1 184:1 679:1 1249:1 1253:1 1256:3
1 196:1 232:1 679:1 686:1 744:1 762:1 771:1 905:1 948:1 975:1 1010:1 1072:1 1215:1 1218:1 1222:1 1224:1 1227:1 1238:1 1239:1 1247:1 1248:1 1249:1 1252:1 1254:1 1256:2
1 196:1 232:1 679:1 686:1 744:1 762:1 771:1 905:1 948:1 975:1 1010:1 1072:1 1215:1 1218:1 1222:1 1224:1 1227:1 1238:1 1239:1 1247:1 1248:1 1249:1 1252:1 1254:1 1256:2
1 679:1 905:1 948:1 1224:1 1249:1 1254:1 1256:2
1 184:1 209:1 679:1 699:1 905:1 948:1 969:1 1072:1 1220:1 1221:1 1223:1 1224:1 1239:1 1249:1 1253:1 1254:1 1256:2
1 196:1 232:1 679:1 686:1 744:1 762:1 771:1 905:1 948:1 975:1 1010:1 1072:1 1215:1 1218:1 1222:1 1224:1 1227:1 1238:1 1239:1 1247:1 1248:1 1249:1 1252:1 1254:1 1256:2
1 196:1 232:1 679:1 686:1 744:1 762:1 771:1 905:1 948:1 975:1 1010:1 1072:1 1215:1 1218:1 1222:1 1224:1 1227:1 1238:1 1239:1 1247:1 1248:1 1249:1 1252:1 1254:1 1256:2
1 184:1 209:1 679:1 699:1 905:1 948:1 969:1 1072:1 1220:1 1221:1 1223:1 1224:1 1239:1 1249:1 1253:1 1254:1 1256:2
1 196:1 232:1 679:1 686:1 744:1 762:1 771:1 905:1 948:1 975:1 1010:1 1072:1 1215:1 1218:1 1222:1 1224:1 1227:1 1238:1 1239:1 1247:1 1248:1 1249:1 1252:1 1254:1 1256:2
1 679:1 771:1 1072:1 1222:1 1239:1 1249:1 1256:4
1 196:1 232:1 509:1 679:4 686:1 744:1 762:1 771:1 905:3 945:1 948:1 975:1 1010:1 1072:1 1215:1 1218:1 1222:1 1224:3 1227:1 1233:1 1238:1 1239:1 1247:1 1248:1 1249:4 1251:1 1252:1 1254:1 1256:9
1 679:1 1249:1 1256:7 1258:1
1 196:1 232:1 679:1 686:1 744:1 762:1 771:1 905:1 948:1 975:1 1010:1 1072:1 1215:1 1218:1 1222:1 1224:1 1227:1 1238:1 1239:1 1247:1 1248:1 1249:1 1252:1 1254:1 1256:2
1 196:1 232:1 679:1 686:1 744:1 762:1 771:1 905:1 948:1 975:1 1010:1 1072:1 1215:1 1218:1 1222:1 1224:1 1227:1 1238:1 1239:1 1247:1 1248:1 1249:1 1252:1 1254:1 1256:2
1 196:1 232:1 679:1 686:1 744:1 762:1 771:1 905:1 948:1 975:1 1010:1 1072:1 1215:1 1218:1 1222:1 1224:1 1227:1 1238:1 1239:1 1247:1 1248:1 1249:1 1252:1 1254:1 1256:2
1 196:1 232:1 679:1 686:1 744:1 762:1 771:1 905:1 948:1 975:1 1010:1 1072:1 1215:1 1218:1 1222:1 1224:1 1227:1 1238:1 1239:1 1247:1 1248:1 1249:1 1252:1 1254:1 1256:2
1 184:1 679:1 1249:1 1253:1 1256:4
1 679:1 948:1 1249:1 1254:1 1256:2
1 184:1 209:1 679:1 699:1 905:1 948:1 969:1 1072:1 1220:1 1221:1 1223:1 1224:1 1239:1 1249:1 1253:1 1254:1 1256:2
1 196:1 232:1 504:1 679:1 686:1 744:1 762:1 771:1 905:1 948:1 969:1 975:1 1010:1 1072:1 1215:1 1218:1 1222:1 1223:1 1224:1 1227:1 1230:1 1238:1 1239:1 1247:1 1248:1 1249:1 1252:1 1254:1 1256:9
1 196:1 232:1 679:1 686:1 744:1 762:1 771:1 905:1 948:1 975:1 1010:1 1072:1 1215:1 1218:1 1222:1 1224:1 1227:1 1238:1 1239:1 1247:1 1248:1 1249:1 1252:1 1254:1 1256:2
1 184:1 679:1 1249:1 1253:1 1256:5
1 679:1 771:1 1072:1 1222:1 1239:1 1249:1 1256:4
1 196:1 232:1 679:1 686:1 744:1 762:1 771:1 905:1 948:1 975:1 1010:1 1072:1 1215:1 1218:1 1222:1 1224:1 1227:1 1238:1 1239:1 1247:1 1248:1 1249:1 1252:1 1254:1 1256:2
1 196:1 232:1 679:1 686:1 744:1 762:1 771:1 905:1 948:1 975:1 1010:1 1072:1 1215:1 1218:1 1222:1 1224:1 1227:1 1238:1 1239:1 1247:1 1248:1 1249:1 1252:1 1254:1 1256:2
1 184:1 209:1 679:1 699:1 905:1 948:1 969:1 1072:1 1220:1 1221:1 1223:1 1224:1 1239:1 1249:1 1253:1 1254:1 1256:2
1 679:1 686:1 905:1 948:1 1224:1 1249:1 1252:1 1254:1 1256:3
1 196:1 232:1 679:1 686:1 744:1 762:1 771:1 905:1 945:1 948:1 975:1 1010:1 1072:1 1215:1 1218:1 1222:1 1224:1 1227:1 1238:1 1239:1 1247:1 1248:1 1249:1 1251:1 1252:1 1254:1 1256:2 1258:1
1 196:1 232:1 679:2 686:1 744:1 762:1 771:1 905:1 948:1 975:1 1010:1 1072:1 1215:1 1218:1 1222:1 1224:1 1227:1 1238:1 1239:1 1247:1 1248:1 1249:2 1252:1 1254:1 1256:6
1 679:1 905:1 1224:1 1249:1 1256:2
1 679:1 1249:1 1256:8
1 184:1 679:1 1249:1 1253:1 1256:5
1 448:1 1241:1 1256:3
1 184:1 209:1 679:1 699:1 905:1 948:1 969:1 1072:1 1220:1 1221:1 1223:1 1224:1 1239:1 1249:1 1253:1 1254:1 1256:2
1 196:1 232:1 679:1 686:1 744:1 762:1 771:1 905:1 945:1 948:1 975:1 1010:1 1072:1 1215:1 1218:1 1222:1 1224:1 1227:1 1238:1 1239:1 1247:1 1248:1 1249:1 1251:1 1252:1 1254:1 1256:8
1 196:1 232:1 679:1 686:1 744:1 762:1 771:1 905:1 945:1 948:1 975:1 1010:1 1072:1 1215:1 1218:1 1222:1 1224:1 1227:1 1238:1 1239:1 1247:1 1248:1 1249:1 1251:1 1252:1 1254:1 1256:8
1 184:1 679:1 1249:1 1253:1 1256:2
1 184:1 679:1 1249:1 1253:1 1256:4 1258:1
1 196:1 232:1 504:1 679:1 686:1 744:1 762:1 771:1 905:1 948:1 969:1 975:1 1010:1 1072:1 1215:1 1218:1 1222:1 1223:1 1224:1 1227:1 1230:1 1238:1 1239:1 1247:1 1248:1 1249:1 1252:1 1254:1 1256:9
1 184:1 209:1 679:1 699:1 905:1 948:1 969:1 1072:1 1220:1 1221:1 1223:1 1224:1 1239:1 1249:1 1253:1 1254:1 1256:2
1 196:1 232:1 679:1 686:1 744:1 762:1 771:1 905:1 948:1 975:1 1010:1 1072:1 1215:1 1218:1 1222:1 1224:1 1227:1 1238:1 1239:1 1247:1 1248:1 1249:1 1252:1 1254:1 1256:2
1 679:1 905:1 1224:1 1249:1 1256:3
1 196:1 232:1 679:2 686:1 744:1 762:1 771:1 905:1 948:1 975:1 1010:1 1072:1 1215:1 1218:1 1222:1 1224:1 1227:1 1238:1 1239:1 1247:1 1248:1 1249:2 1252:1 1254:1 1256:6
1 184:1 679:1 905:1 1072:1 1224:1 1239:1 1249:1 1253:1 1256:3
1 448:1 1241:1 1256:4
1 196:1 232:1 679:2 686:1 744:1 762:1 771:1 905:1 945:1 948:1 975:1 1010:1 1072:1 1215:1 1218:1 1222:1 1224:1 1227:1 1238:1 1239:1 1247:1 1248:1 1249:2 1251:1 1252:1 1254:1 1256:7
1 448:1 1241:1 1256:5
1 196:1 232:1 504:1 679:1 686:1 744:1 762:1 771:1 905:1 948:1 969:1 975:1 1010:1 1072:1 1215:1 1218:1 1222:1 1223:1 1224:1 1227:1 1230:1 1238:1 1239:1 1247:1 1248:1 1249:1 1252:1 1254:1 1256:9
1 679:1 1249:1 1256:8
1 196:1 232:1 679:1 686:1 744:1 762:1 771:1 905:1 945:1 948:1 975:1 1010:1 1072:1 1215:1 1218:1 1222:1 1224:1 1227:1 1238:1 1239:1 1247:1 1248:1 1249:1 1251:1 1252:1 1254:1 1256:9
1 196:1 232:1 679:1 686:1 744:1 762:1 771:1 905:1 948:1 975:1 1010:1 1072:1 1215:1 1218:1 1222:1 1224:1 1227:1 1238:1 1239:1 1247:1 1248:1 1249:1 1252:1 1254:1 1256:2
1 196:1 232:1 679:1 686:1 744:1 762:1 771:1 905:1 948:1 975:1 1010:1 1072:1 1215:1 1218:1 1222:1 1224:1 1227:1 1238:1 1239:1 1247:1 1248:1 1249:1 1252:1 1254:1 1256:2
1 196:1 232:1 504:1 679:1 686:1 744:1 762:1 771:1 905:1 948:1 969:1 975:1 1010:1 1072:1 1215:1 1218:1 1222:1 1223:1 1224:1 1227:1 1230:1 1238:1 1239:1 1247:1 1248:1 1249:1 1252:1 1254:1 1256:8
1 196:1 232:1 679:1 686:1 744:1 762:1 771:1 905:1 948:1 975:1 1010:1 1072:1 1215:1 1218:1 1222:1 1224:1 1227:1 1238:1 1239:1 1247:1 1248:1 1249:1 1252:1 1254:1 1256:2
1 679:1 1249:1 1256:8
1 512:1 679:1 686:1 771:1 905:1 948:1 1072:1 1087:1 1222:1 1224:1 1236:1 1239:1 1249:1 1252:1 1254:1 1255:1 1256:2
1 196:1 232:1 679:1 686:1 744:1 762:1 771:1 905:1 948:1 975:1 1010:1 1072:1 1215:1 1218:1 1222:1 1224:1 1227:1 1238:1 1239:1 1247:1 1248:1 1249:1 1252:1 1254:1 1256:2
1 196:1 232:1 679:2 686:1 744:1 762:1 771:1 905:1 948:1 975:1 1010:1 1072:1 1215:1 1218:1 1222:1 1224:1 1227:1 1238:1 1239:1 1247:1 1248:1 1249:2 1252:1 1254:1 1256:7
1 196:1 232:1 679:3 686:1 744:1 762:1 771:1 905:2 945:1 948:1 975:1 1010:1 1072:1 1215:1 1218:1 1222:1 1224:2 1227:1 1238:1 1239:1 1247:1 1248:1 1249:3 1251:1 1252:1 1254:1 1256:8 1258:1
1 196:1 232:1 679:1 686:1 744:1 762:1 771:1 905:1 948:1 975:1 1010:1 1072:1 1215:1 1218:1 1222:1 1224:1 1227:1 1238:1 1239:1 1247:1 1248:1 1249:1 1252:1 1254:1 1256:2
1 679:1 905:1 948:1 1072:1 1224:1 1239:1 1249:1 1254:1 1256:2
1 196:1 232:1 679:1 686:1 744:1 762:1 771:1 905:1 948:1 975:1 1010:1 1072:1 1215:1 1218:1 1222:1 1224:1 1227:1 1238:1 1239:1 1247:1 1248:1 1249:1 1252:1 1254:1 1256:2
1 184:1 209:1 679:1 699:1 905:1 948:1 969:1 1072:1 1220:1 1221:1 1223:1 1224:1 1239:1 1249:1 1253:1 1254:1 1256:2
1 679:1 1249:1 1256:6 1258:1
1 196:1 232:1 679:1 686:1 744:1 762:1 771:1 905:1 948:1 975:1 1010:1 1072:1 1215:1 1218:1 1222:1 1224:1 1227:1 1238:1 1239:1 1247:1 1248:1 1249:1 1252:1 1254:1 1256:2
1 196:1 232:1 504:1 679:1 686:1 744:1 762:1 771:1 905:1 948:1 969:1 975:1 1010:1 1072:1 1215:1 1218:1 1222:1 1223:1 1224:1 1227:1 1230:1 1238:1 1239:1 1247:1 1248:1 1249:1 1252:1 1254:1 1256:9
1 184:1 209:1 679:1 699:1 905:1 948:1 969:1 1072:1 1220:1 1221:1 1223:1 1224:1 1239:1 1249:1 1253:1 1254:1 1256:2
1 184:1 209:1 679:1 699:1 905:1 948:1 969:1 1072:1 1220:1 1221:1 1223:1 1224:1 1239:1 1249:1 1253:1 1254:1 1256:2
1 196:1 232:1 679:1 686:1 744:1 762:1 771:1 905:1 948:1 975:1 1010:1 1072:1 1215:1 1218:1 1222:1 1224:1 1227:1 1238:1 1239:1 1247:1 1248:1 1249:1 1252:1 1254:1 1256:2
1 196:1 232:1 679:2 686:1 744:1 762:1 771:1 905:1 948:1 975:1 1010:1 1072:1 1215:1 1218:1 1222:1 1224:1 1227:1 1238:1 1239:1 1247:1 1248:1 1249:2 1252:1 1254:1 1256:6
1 679:1 1249:1 1256:8
1 679:1 1249:1 1256:3
1 196:1 232:1 509:1 679:4 686:1 744:1 762:1 771:1 905:3 945:1 948:1 975:1 1010:1 1072:1 1215:1 1218:1 1222:1 1224:3 1227:1 1233:1 1238:1 1239:1 1247:1 1248:1 1249:4 1251:1 1252:1 1254:1 1256:9
1 196:1 232:1 504:1 679:1 686:1 744:1 762:1 771:1 905:1 948:1 969:1 975:1 1010:1 1072:1 1215:1 1218:1 1222:1 1223:1 1224:1 1227:1 1230:1 1238:1 1239:1 1247:1 1248:1 1249:1 1252:1 1254:1 1256:9
1 196:1 232:1 679:1 686:1 744:1 762:1 771:1 905:1 948:1 975:1 1010:1 1072:1 1215:1 1218:1 1222:1 1224:1 1227:1 1238:1 1239:1 1247:1 1248:1 1249:1 1252:1 1254:1 1256:2
1 184:1 679:1 1249:1 1253:1 1256:5
1 196:1 232:1 504:1 679:1 686:1 744:1 762:1 771:1 905:1 948:1 969:1 975:1 1010:1 1072:1 1215:1 1218:1 1222:1 1223:1 1224:1 1227:1 1230:1 1238:1 1239:1 1247:1 1248:1 1249:1 1252:1 1254:1 1256:8
1 184:1 679:1 1249:1 1253:1 1256:5 1258:1
1 184:1 209:1 679:1 699:1 905:1 948:1 969:1 1072:1 1220:1 1221:1 1223:1 1224:1 1239:1 1249:1 1253:1 1254:1 1256:2
1 196:1 232:1 679:4 686:1 744:1 762:1 771:1 905:2 945:1 948:1 975:1 1010:1 1072:1 1215:1 1218:1 1222:1 1224:2 1227:1 1238:1 1239:1 1247:1 1248:1 1249:4 1251:1 1252:1 1254:1 1256:9 1258:1
1 196:1 232:1 679:1 686:1 744:1 762:1 771:1 905:1 948:1 975:1 1010:1 1072:1 1215:1 1218:1 1222:1 1224:1 1227:1 1238:1 1239:1 1247:1 1248:1 1249:1 1252:1 1254:1 1256:2
1 679:1 905:1 948:1 1072:1 1224:1 1239:1 1249:1 1254:1 1256:2
1 184:1 209:1 679:1 699:1 905:1 948:1 969:1 1072:1 1220:1 1221:1 1223:1 1224:1 1239:1 1249:1 1253:1 1254:1 1256:2
1 196:1 232:1 679:2 686:1 744:1 762:1 771:1 905:2 945:1 948:1 975:1 1010:1 1072:1 1215:1 1218:1 1222:1 1224:2 1227:1 1238:1 1239:1 1247:1 1248:1 1249:2 1251:1 1252:1 1254:1 1256:6
1 679:1 1249:1 1256:5 1258:1
1 196:1 232:1 679:1 686:1 744:1 762:1 771:1 905:1 945:1 948:1 975:1 1010:1 1072:1 1215:1 1218:1 1222:1 1224:1 1227:1 1238:1 1239:1 1247:1 1248:1 1249:1 1251:1 1252:1 1254:1 1256:9
1 184:1 679:1 1249:1 1253:1 1256:5 1258:1
1 448:1 1241:1 1256:4
1 196:1 232:1 679:1 686:1 744:1 762:1 771:1 905:1 948:1 975:1 1010:1 1072:1 1215:1 1218:1 1222:1 1224:1 1227:1 1238:1 1239:1 1247:1 1248:1 1249:1 1252:1 1254:1 1256:2
1 196:1 232:1 679:1 686:1 744:1 762:1 771:1 905:1 945:1 948:1 975:1 1010:1 1072:1 1215:1 1218:1 1222:1 1224:1 1227:1 1238:1 1239:1 1247:1 1248:1 1249:1 1251:1 1252:1 1254:1 1256:8
1 184:1 209:1 679:1 699:1 905:1 948:1 969:1 1072:1 1220:1 1221:1 1223:1 1224:1 1239:1 1249:1 1253:1 1254:1 1256:2
1 196:1 232:1 509:1 679:3 686:1 744:1 762:1 771:1 905:3 945:1 948:1 975:1 1010:1 1072:1 1215:1 1218:1 1222:1 1224:3 1227:1 1233:1 1238:1 1239:1 1247:1 1248:1 1249:3 1251:1 1252:1 1254:1 1256:6 1258:1
1 448:1 1241:1 1256:4
1 184:1 314:1 477:1 504:1 679:1 686:1 709:1 771:1 905:1 948:1 975:1 1072:1 1214:1 1222:1 1224:1 1226:1 1227:1 1230:1 1239:1 1245:1 1249:1 1252:1 1253:1 1254:1 1256:3
1 196:1 232:1 679:1 686:1 744:1 762:1 771:1 905:1 948:1 975:1 1010:1 1072:1 1215:1 1218:1 1222:1 1224:1 1227:1 1238:1 1239:1 1247:1 1248:1 1249:1 1252:1 1254:1 1256:2
1 196:1 232:1 679:3 686:1 744:1 762:1 771:1 905:1 948:1 975:1 1010:1 1072:1 1215:1 1218:1 1222:1 1224:1 1227:1 1238:1 1239:1 1247:1 1248:1 1249:3 1252:1 1254:1 1256:7
1 679:1 1249:1 1256:7 1258:1
1 196:1 232:1 504:1 679:1 686:1 744:1 762:1 771:1 905:1 948:1 969:1 975:1 1010:1 1072:1 1215:1 1218:1 1222:1 1223:1 1224:1 1227:1 1230:1 1238:1 1239:1 1247:1 1248:1 1249:1 1252:1 1254:1 1256:9
1 196:1 232:1 679:1 686:1 744:1 762:1 771:1 905:1 948:1 975:1 1010:1 1072:1 1215:1 1218:1 1222:1 1224:1 1227:1 1238:1 1239:1 1247:1 1248:1 1249:1 1252:1 1254:1 1256:2
1 196:1 232:1 679:1 686:1 744:1 762:1 771:1 905:1 948:1 975:1 1010:1 1072:1 1215:1 1218:1 1222:1 1224:1 1227:1 1238:1 1239:1 1247:1 1248:1 1249:1 1252:1 1254:1 1256:2
1 679:1 1249:1 1256:8 1258:1
1 679:1 1249:1 1256:8
1 184:1 209:1 679:1 699:1 905:1 948:1 969:1 1072:1 1220:1 1221:1 1223:1 1224:1 1239:1 1249:1 1253:1 1254:1 1256:2
1 184:1 679:1 1249:1 1253:1 1256:5 1258:1
1 196:1 232:1 679:1 686:1 744:1 762:1 771:1 905:1 948:1 975:1 1010:1 1072:1 1215:1 1218:1 1222:1 1224:1 1227:1 1238:1 1239:1 1247:1 1248:1 1249:1 1252:1 1254:1 1256:2
1 184:1 679:1 1249:1 1253:1 1256:5
1 512:1 679:1 686:1 771:1 905:1 948:1 1072:1 1087:1 1222:1 1224:1 1236:1 1239:1 1249:1 1252:1 1254:1 1255:1 1256:2
1 196:1 232:1 679:1 686:1 744:1 762:1 771:1 905:1 948:1 975:1 1010:1 1072:1 1215:1 1218:1 1222:1 1224:1 1227:1 1238:1 1239:1 1247:1 1248:1 1249:1 1252:1 1254:1 1256:2
1 679:1 1249:1 1256:7 1258:1
1 184:1 679:1 686:1 771:1 905:1 948:1 1072:1 1222:1 1224:1 1239:1 1249:1 1252:1 1253:1 1254:1 1256:3
1 196:1 232:1 504:1 679:1 686:1 744:1 762:1 771:1 905:1 948:1 969:1 975:1 1010:1 1072:1 1215:1 1218:1 1222:1 1223:1 1224:1 1227:1 1230:1 1238:1 1239:1 1247:1 1248:1 1249:1 1252:1 1254:1 1256:9
1 196:1 232:1 679:1 686:1 744:1 762:1 771:1 905:1 948:1 975:1 1010:1 1072:1 1215:1 1218:1 1222:1 1224:1 1227:1 1238:1 1239:1 1247:1 1248:1 1249:1 1252:1 1254:1 1256:2
1 184:1 679:1 686:1 771:1 905:1 948:1 1072:1 1222:1 1224:1 1239:1 1249:1 1252:1 1253:1 1254:1 1256:3
1 448:1 1241:1 1256:4
1 196:1 232:1 504:1 679:1 686:1 744:1 762:1 771:1 905:1 948:1 969:1 975:1 1010:1 1072:1 1215:1 1218:1 1222:1 1223:1 1224:1 1227:1 1230:1 1238:1 1239:1 1247:1 1248:1 1249:1 1252:1 1254:1 1256:8
1 679:1 1072:1 1239:1 1249:1 1256:3
1 184:1 209:1 679:1 699:1 905:1 948:1 969:1 1072:1 1220:1 1221:1 1223:1 1224:1 1239:1 1249:1 1253:1 1254:1 1256:2
1 679:1 1249:1 1256:7
1 184:1 209:1 679:1 699:1 905:1 948:1 969:1 1072:1 1220:1 1221:1 1223:1 1224:1 1239:1 1249:1 1253:1 1254:1 1256:2
1 196:1 232:1 679:1 686:1 744:1 762:1 771:1 905:1 948:1 975:1 1010:1 1072:1 1215:1 1218:1 1222:1 1224:1 1227:1 1238:1 1239:1 1247:1 1248:1 1249:1 1252:1 1254:1 1256:2
1 196:1 232:1 679:2 686:1 744:1 762:1 771:1 905:1 948:1 975:1 1010:1 1072:1 1215:1 1218:1 1222:1 1224:1 1227:1 1238:1 1239:1 1247:1 1248:1 1249:2 1252:1 1254:1 1256:7
1 184:1 679:1 1249:1 1253:1 1256:5
1 196:1 232:1 679:1 686:1 744:1 762:1 771:1 905:1 945:1 948:1 975:1 1010:1 1072:1 1215:1 1218:1 1222:1 1224:1 1227:1 1238:1 1239:1 1247:1 1248:1 1249:1 1251:1 1252:1 1254:1 1256:8
1 168:1 679:3 686:1 1072:1 1239:1 1240:1 1249:3 1252:1 1256:10
1 196:1 232:1 679:1 686:1 744:1 762:1 771:1 905:1 948:1 975:1 1010:1 1072:1 1215:1 1218:1 1222:1 1224:1 1227:1 1238:1 1239:1 1247:1 1248:1 1249:1 1252:1 1254:1 1256:2
1 196:1 679:1 686:1 771:1 1072:1 1215:1 1222:1 1239:1 1249:1 1252:1 1256:8
1 679:1 1072:1 1239:1 1249:1 1256:2
1 184:1 679:1 1249:1 1253:1 1256:5 1258:1
1 196:1 232:1 679:1 686:1 744:1 762:1 771:1 905:1 948:1 975:1 1010:1 1072:1 1215:1 1218:1 1222:1 1224:1 1227:1 1238:1 1239:1 1247:1 1248:1 1249:1 1252:1 1254:1 1256:2
1 196:1 232:1 504:1 679:1 686:1 744:1 762:1 771:1 905:1 948:1 969:1 975:1 1010:1 1072:1 1215:1 1218:1 1222:1 1223:1 1224:1 1227:1 1230:1 1238:1 1239:1 1247:1 1248:1 1249:1 1252:1 1254:1 1256:9
1 679:1 1249:1 1256:8 1258:1
1 196:1 232:1 679:3 686:1 744:1 762:1 771:1 905:2 948:1 975:1 1010:1 1072:1 1215:1 1218:1 1222:1 1224:2 1227:1 1238:1 1239:1 1247:1 1248:1 1249:3 1252:1 1254:1 1256:10
1 679:1 1249:1 1256:6
1 184:1 209:1 679:1 699:1 905:1 948:1 969:1 1072:1 1220:1 1221:1 1223:1 1224:1 1239:1 1249:1 1253:1 1254:1 1256:2
1 448:1 1241:1 1256:4
1 679:1 948:1 1249:1 1254:1 1256:3
1 448:1 1241:1 1256:4
1 196:1 679:1 686:1 771:1 1072:1 1215:1 1222:1 1239:1 1249:1 1252:1 1256:9
1 448:1 1241:1 1256:6
1 679:1 1072:1 1239:1 1249:1 1256:2
1 679:3 686:1 771:1 905:1 1072:1 1222:1 1224:1 1239:1 1249:3 1252:1 1256:10
1 448:1 1241:1 1256:4
1 184:1 679:1 905:1 1072:1 1224:1 1239:1 1249:1 1253:1 1256:3
1 679:1 1249:1 1256:8
1 184:1 679:1 1249:1 1253:1 1256:5
1 196:1 232:1 504:1 679:1 686:1 744:1 762:1 771:1 905:1 948:1 969:1 975:1 1010:1 1072:1 1215:1 1218:1 1222:1 1223:1 1224:1 1227:1 1230:1 1238:1 1239:1 1247:1 1248:1 1249:1 1252:1 1254:1 1256:9
1 196:1 232:1 679:1 686:1 744:1 762:1 771:1 905:1 948:1 975:1 1010:1 1072:1 1215:1 1218:1 1222:1 1224:1 1227:1 1238:1 1239:1 1247:1 1248:1 1249:1 1252:1 1254:1 1256:2
1 196:1 232:1 679:1 686:1 744:1 762:1 771:1 905:1 948:1 975:1 1010:1 1072:1 1215:1 1218:1 1222:1 1224:1 1227:1 1238:1 1239:1 1247:1 1248:1 1249:1 1252:1 1254:1 1256:2
1 679:1 1249:1 1256:5 1258:1
1 196:1 232:1 679:1 686:1 744:1 762:1 771:1 905:1 945:1 948:1 975:1 1010:1 1072:1 1215:1 1218:1 1222:1 1224:1 1227:1 1238:1 1239:1 1247:1 1248:1 1249:1 1251:1 1252:1 1254:1 1256:8
1 196:1 232:1 679:1 686:1 744:1 762:1 771:1 905:1 948:1 975:1 1010:1 1072:1 1215:1 1218:1 1222:1 1224:1 1227:1 1238:1 1239:1 1247:1 1248:1 1249:1 1252:1 1254:1 1256:2
1 679:1 1249:1 1256:6 1258:1
-1 679:1 801:1 1249:1 1256:1
-1 679:1 801:1 1249:1 1256:1
-1 679:1 801:1 1249:1 1256:1
-1 679:1 801:1 1249:1 1256:1
-1 679:1 801:1 1249:1 1256:1
-1 679:1 801:1 1249:1 1256:1
-1 679:1 801:1 1249:1 1256:1
-1 679:1 801:1 1249:1 1256:1
-1 679:1 801:1 1249:1 1256:1
-1 196:1 283:1 679:1 686:1 699:1 905:1 948:1 1072:1 1144:1 1215:1 1220:1 1224:1 1228:1 1239:1 1249:1 1252:1 1254:1 1256:2
-1 679:1 801:1 1249:1 1256:1
-1 679:1 801:1 1249:1 1256:1
-1 679:1 801:1 1249:1 1256:1
-1 679:1 801:1 831:1 905:1 948:1 1224:1 1249:1 1254:1 1256:1
-1 679:1 801:1 1249:1 1256:1
-1 679:1 801:1 1249:1 1256:1
-1 679:1 801:1 1003:1 1249:1 1256:1
-1 679:1 801:1 1249:1 1256:1
-1 679:1 801:1 1249:1 1256:1
-1 679:1 801:1 1249:1 1256:1
-1 679:1 801:1 1249:1 1256:1
-1 679:1 801:1 1249:1 1256:1
-1 679:1 801:1 1003:1 1141:1 1249:1 1256:1
-1 679:1 801:1 1003:1 1141:1 1249:1 1256:1
-1 679:1 801:1 1003:1 1249:1 1256:1
-1 679:1 801:1 1249:1 1256:1
-1 172:1 184:1 372:1 679:1 686:1 831:1 905:1 948:1 975:1 1072:1 1224:1 1227:1 1239:1 1249:1 1252:1 1253:1 1254:1 1256:2
-1 679:1 801:1 1154:1 1249:1 1256:2
-1 372:1 383:1 420:1 472:1 562:1 679:1 831:1 877:1 883:1 1246:1 1249:1 1256:1 1258:1
-1 679:1 686:1 699:1 771:1 905:1 1072:1 1220:1 1222:1 1224:1 1239:1 1249:1 1252:1 1256:3
-1 504:1 679:1 905:1 1224:1 1230:1 1249:1 1256:4
-1 504:1 679:1 699:1 905:1 1072:1 1220:1 1224:1 1230:1 1239:1 1249:1 1256:2
-1 184:1 504:1 679:1 686:1 699:1 771:1 905:1 948:1 987:1 1072:1 1102:1 1216:1 1220:1 1222:1 1224:1 1230:1 1235:1 1239:1 1249:1 1252:1 1253:1 1254:1 1256:3
-1 184:1 504:1 679:1 686:1 699:1 771:1 905:1 1072:1 1102:1 1216:1 1220:1 1222:1 1224:1 1230:1 1239:1 1249:1 1252:1 1253:1 1256:4
-1 448:1 1241:1 1256:3
-1 448:1 1241:1 1256:3
-1 244:1 504:1 550:1 679:1 686:1 771:1 833:1 905:1 907:1 948:1 967:1 1055:1 1072:1 1093:1 1222:1 1224:1 1225:1 1230:1 1239:1 1249:1 1252:1 1254:1 1256:1
-1 448:1 1241:1 1256:3
-1 311:1 543:1 679:1 905:1 948:1 969:1 1072:1 1102:1 1216:1 1223:1 1224:1 1239:1 1249:1 1254:1 1256:2
-1 184:1 311:1 504:1 679:1 686:1 699:1 771:1 905:1 948:1 987:1 1072:1 1102:1 1216:1 1220:1 1222:1 1224:1 1230:1 1235:1 1239:1 1249:1 1252:1 1253:1 1254:1 1256:1
-1 131:1 184:1 679:1 771:1 905:1 948:1 969:1 1102:1 1216:1 1222:1 1223:1 1224:1 1249:1 1253:1 1254:1 1256:2
-1 184:1 314:1 395:1 477:1 504:1 679:1 686:1 771:1 905:1 948:1 1072:1 1102:1 1214:1 1216:1 1222:1 1224:1 1230:1 1239:1 1245:1 1249:1 1252:1 1253:1 1254:1 1256:2
-1 1256:1
-1 175:1 188:1 235:1 246:1 253:1 447:1 519:1 561:1 579:1 699:1 844:1 848:1 865:1 910:1 941:1 1012:1 1123:1 1131:1 1150:1 1220:1 1256:1 1258:3
-1 679:1 1249:1 1256:3
-1 184:1 383:1 504:2 679:4 905:2 948:1 1072:2 1102:1 1216:1 1224:2 1230:2 1239:2 1246:1 1249:4 1253:1 1254:1 1256:6
-1 184:1 504:2 679:4 686:2 905:2 948:1 969:1 1072:2 1223:1 1224:2 1230:2 1239:2 1249:4 1252:2 1253:1 1254:1 1256:6
-1 383:1 679:1 699:2 1220:2 1246:1 1249:1 1256:2
-1 244:1 679:1 686:1 905:1 967:1 1072:1 1224:1 1239:1 1249:1 1252:1 1256:1
-1 175:1 188:1 235:1 246:1 253:1 406:1 480:1 486:1 519:1 535:1 561:1 579:1 590:1 634:1 699:1 844:1 848:1 865:1 910:1 941:1 1012:1 1123:1 1150:1 1220:1 1256:2
-1 244:1 346:1 679:1 1249:1 1256:1
-1 448:1 1241:1 1256:2
-1 254:1 679:1 699:1 905:1 1220:1 1224:1 1249:1 1256:2
-1 196:1 679:1 686:1 699:2 905:1 948:1 1072:1 1127:1 1215:1 1220:2 1224:1 1239:1 1249:1 1252:1 1254:1 1256:2
-1 448:1 1241:1 1256:2
-1 448:1 1241:1 1256:2
-1 448:1 1241:1 1256:2
-1 384:1 679:1 699:1 905:1 948:1 1102:1 1216:1 1220:1 1224:1 1249:1 1254:1 1256:2
-1 679:1 699:1 905:1 1220:1 1224:1 1249:1 1256:5
-1 184:1 311:1 504:1 638:1 667:1 679:1 686:1 771:1 885:1 905:1 948:1 969:1 1072:1 1102:1 1216:1 1222:1 1223:1 1224:1 1230:1 1239:1 1249:1 1252:1 1253:1 1254:1 1256:1
-1 679:1 699:1 1220:1 1249:1 1256:2
-1 184:1 196:1 504:1 638:1 679:1 686:1 905:1 907:1 948:1 969:1 975:1 1072:1 1102:1 1215:1 1216:1 1223:1 1224:1 1225:1 1227:1 1230:1 1239:1 1249:1 1252:1 1253:1 1254:1 1256:1
-1 1014:1 1256:1
-1 679:1 699:1 1220:1 1249:1 1256:4
-1 679:1 699:1 905:1 1220:1 1224:1 1249:1 1256:4
-1 168:1 196:1 244:1 315:1 504:1 550:1 679:1 686:1 744:1 771:1 841:1 904:1 905:1 967:1 975:1 987:1 1072:1 1215:1 1222:1 1224:1 1227:1 1230:1 1235:1 1239:1 1240:1 1248:1 1249:1 1252:1 1256:1
-1 504:1 679:1 686:1 699:1 771:1 905:1 948:1 1144:1 1220:1 1222:1 1224:1 1230:1 1249:1 1252:1 1254:1 1256:2
-1 448:1 1241:1 1256:3
-1 504:1 667:1 679:1 771:1 885:1 905:1 948:1 1072:1 1102:1 1216:1 1222:1 1224:1 1230:1 1239:1 1249:1 1254:1 1256:1
-1 184:1 504:1 679:2 905:2 1072:2 1224:2 1230:1 1239:2 1249:2 1253:1 1256:7
-1 184:1 196:1 679:1 686:1 699:2 905:1 948:1 1072:1 1102:1 1215:1 1216:1 1220:2 1224:1 1239:1 1249:1 1252:1 1253:1 1254:1 1256:5
-1 448:1 1241:1 1256:3
-1 448:1 1241:1 1256:2
-1 504:1 679:1 686:1 744:1 771:1 905:1 948:1 969:1 1072:1 1222:1 1223:1 1224:1 1230:1 1239:1 1248:1 1249:1 1252:1 1254:1 1256:2
-1 504:1 667:1 679:1 686:1 699:1 735:1 766:1 771:1 969:1 1072:1 1220:1 1222:1 1223:1 1230:1 1239:1 1249:1 1252:1 1256:1
-1 679:1 686:1 744:1 771:1 905:1 1003:1 1072:1 1141:1 1222:1 1224:1 1239:1 1248:1 1249:1 1252:1 1256:1
-1 448:1 1241:1 1256:4
-1 448:1 1241:1 1256:3
-1 184:1 504:1 679:1 686:1 771:1 905:1 948:1 1072:1 1102:1 1216:1 1222:1 1224:1 1230:1 1239:1 1249:1 1252:1 1253:1 1254:1 1256:1 1258:1
-1 679:1 905:1 975:1 1224:1 1227:1 1249:1 1256:1
-1 1014:1 1256:1
-1 448:1 504:1 679:1 699:1 771:1 975:1 1010:1 1072:1 1220:1 1222:1 1227:1 1230:1 1239:1 1241:1 1247:1 1249:1 1256:3 1258:4
-1 184:1 301:1 504:1 679:1 686:1 905:1 948:1 1072:1 1102:1 1216:1 1224:1 1230:1 1239:1 1249:1 1252:1 1253:1 1254:1 1256:11
-1 448:1 1241:1 1256:3
-1 448:1 1241:1 1256:2
-1 196:1 236:1 383:1 504:1 679:1 686:1 771:1 905:1 948:1 1072:1 1215:1 1222:1 1224:1 1230:1 1239:1 1246:1 1249:1 1252:1 1254:1 1256:2
-1 679:1 686:1 771:1 905:1 948:1 1072:1 1222:1 1224:1 1239:1 1249:1 1252:1 1254:1 1256:2
-1 184:1 383:1 504:3 679:4 686:1 699:1 771:1 869:1 905:3 948:1 969:1 1072:2 1087:1 1220:1 1222:1 1223:1 1224:3 1230:3 1239:2 1243:1 1246:1 1249:4 1252:1 1253:1 1254:1 1255:1 1256:5
-1 184:1 504:3 679:4 686:1 699:1 771:1 869:1 905:3 948:1 969:1 1072:2 1087:1 1220:1 1222:1 1223:1 1224:3 1230:3 1239:2 1243:1 1249:4 1252:1 1253:1 1254:1 1255:1 1256:5
-1 448:1 1241:1 1256:3
-1 448:1 1241:1 1256:3
-1 246:1 253:1 406:1 437:1 519:1 561:1 580:1 585:1 590:1 615:1 617:1 699:1 741:1 844:1 865:1 870:1 921:1 941:1 1012:1 1123:1 1131:1 1220:1 1256:1
-1 168:1 184:1 477:1 504:1 679:1 686:1 771:1 905:1 948:1 975:1 1072:1 1102:1 1214:1 1216:1 1222:1 1224:1 1227:1 1230:1 1239:1 1240:1 1249:1 1252:1 1253:1 1254:1 1256:2
-1 184:1 679:1 686:1 771:1 868:1 869:1 905:1 948:1 1072:1 1102:1 1216:1 1222:1 1224:1 1239:1 1243:1 1249:1 1252:1 1253:1 1254:1 1256:2
-1 448:1 1241:1 1256:3
-1 679:1 699:1 869:1 1220:1 1243:1 1249:1 1256:6
-1 383:1 679:1 1246:1 1249:1 1256:2
-1 322:1 679:1 699:1 905:1 1144:1 1220:1 1224:1 1249:1 1256:2
-1 383:1 610:1 679:1 1029:1 1246:1 1249:1 1256:3
-1 383:1 504:1 679:1 686:1 762:1 771:1 905:1 948:1 975:1 1072:1 1102:1 1216:1 1218:1 1222:1 1224:1 1227:1 1230:1 1239:1 1246:1 1249:1 1252:1 1254:1 1256:1
-1 130:1 165:1 346:1 372:1 505:1 521:1 548:1 598:1 679:1 831:1 915:1 1076:1 1154:1 1249:1 1256:2
-1 168:1 184:1 383:1 477:1 504:1 679:1 686:1 771:1 905:1 948:1 969:1 975:1 1072:1 1102:1 1214:1 1216:1 1222:1 1223:1 1224:1 1227:1 1230:1 1239:1 1240:1 1246:1 1249:1 1252:1 1253:1 1254:1 1256:1
-1 679:1 1249:1 1256:2
-1 1256:4
-1 679:1 1072:1 1239:1 1249:1 1256:3
-1 504:1 679:1 771:1 905:1 1222:1 1224:1 1230:1 1249:1 1256:3
-1 184:1 285:1 509:1 679:1 686:1 771:1 905:1 948:1 1072:1 1222:1 1224:1 1233:1 1239:1 1249:1 1252:1 1253:1 1254:1 1256:3
-1 188:1 235:1 246:1 253:1 386:1 519:1 561:1 579:1 595:1 617:1 634:1 699:1 753:1 844:1 848:1 865:1 910:1 941:1 1012:1 1123:1 1150:1 1220:1 1256:1
-1 163:1 246:1 253:1 406:1 519:1 561:1 617:1 643:1 699:1 806:1 844:1 865:1 889:1 921:1 941:1 1010:1 1012:1 1220:1 1247:1 1256:3
-1 163:1 218:1 246:1 253:1 268:1 406:1 486:1 519:1 561:1 569:1 579:1 617:1 638:1 643:1 696:1 699:1 844:1 865:1 866:1 889:1 921:1 941:1 1010:1 1012:1 1119:1 1146:1 1150:1 1217:1 1220:1 1247:1 1256:2
-1 679:1 699:1 1010:1 1072:1 1220:1 1239:1 1247:1 1249:1 1256:1
-1 184:1 477:1 504:1 679:1 771:1 905:1 948:1 975:1 1072:1 1102:1 1214:1 1216:1 1222:1 1224:1 1227:1 1230:1 1239:1 1249:1 1253:1 1254:1 1256:1
-1 448:1 504:1 596:1 679:1 905:1 1072:1 1224:1 1230:1 1239:1 1241:1 1249:1 1256:1
-1 175:1 188:1 246:1 253:1 519:1 561:1 579:1 698:1 699:1 844:1 848:1 865:1 941:1 1012:1 1220:1 1256:2
-1 168:1 232:1 283:1 318:1 383:1 403:1 504:1 679:1 686:1 709:1 771:1 883:1 905:1 948:1 969:1 975:1 1005:1 1072:1 1087:1 1222:1 1223:1 1224:1 1226:1 1227:1 1228:1 1230:1 1238:1 1239:1 1240:1 1246:1 1249:1 1252:1 1254:1 1255:1 1256:2 1258:919
-1 504:1 667:1 679:1 686:1 699:1 771:1 1072:1 1220:1 1222:1 1230:1 1239:1 1249:1 1252:1 1256:1
-1 150:1 246:1 253:1 504:1 561:1 579:1 621:1 634:1 679:1 771:1 844:1 848:1 865:1 905:1 986:1 1010:1 1012:1 1062:1 1072:1 1150:1 1173:1 1219:1 1222:1 1224:1 1230:1 1239:1 1247:1 1249:1 1256:2
-1 150:1 168:1 220:1 268:1 311:1 504:1 509:1 522:1 621:1 679:1 693:1 771:1 905:1 1072:1 1173:1 1217:1 1219:1 1222:1 1224:1 1230:1 1233:1 1239:1 1240:1 1249:1 1256:1
-1 679:1 771:1 1072:1 1222:1 1239:1 1249:1 1256:1
-1 150:1 621:1 679:1 771:1 1072:1 1173:1 1219:1 1222:1 1239:1 1249:1 1256:1
-1 268:1 638:1 679:1 771:1 858:1 1072:1 1217:1 1222:1 1239:1 1249:1 1256:1
-1 150:1 621:1 679:1 905:1 907:1 1072:1 1173:1 1219:1 1224:1 1225:1 1239:1 1249:1 1256:1
-1 150:1 268:1 621:1 638:1 679:1 686:1 771:1 905:1 1072:1 1173:1 1217:1 1219:1 1222:1 1224:1 1239:1 1249:1 1252:1 1256:1
-1 448:1 1241:1 1256:3
-1 184:1 209:1 504:1 638:1 679:1 686:1 905:1 969:1 975:1 1072:1 1221:1 1223:1 1224:1 1227:1 1230:1 1239:1 1249:1 1252:1 1253:1 1256:1 1258:3
-1 679:1 1249:1 1256:3
-1 184:1 504:1 679:2 905:2 1072:2 1224:2 1230:1 1239:2 1249:2 1253:1 1256:7
-1 196:1 383:1 679:1 1010:1 1072:1 1215:1 1239:1 1246:1 1247:1 1249:1 1256:4
-1 679:1 686:1 699:1 905:1 1072:1 1220:1 1224:1 1239:1 1249:1 1252:1 1256:3
-1 679:1 686:1 699:1 905:1 1072:1 1220:1 1224:1 1239:1 1249:1 1252:1 1256:3
-1 184:1 237:1 280:1 383:1 504:3 679:5 686:2 771:2 869:1 905:2 948:1 969:1 1072:2 1102:1 1216:1 1222:2 1223:1 1224:2 1230:3 1239:2 1243:1 1246:1 1249:5 1252:2 1253:1 1254:1 1256:6
-1 420:1 562:1 679:1 691:1 699:2 746:1 804:1 1106:1 1220:2 1249:1 1256:3
-1 188:1 196:1 246:1 253:1 266:1 283:1 486:1 519:1 561:1 699:1 844:1 865:1 889:1 1010:1 1012:1 1123:1 1178:1 1215:1 1220:1 1228:1 1247:1 1256:2
-1 679:1 1249:1 1256:2
-1 184:1 504:1 679:3 771:1 905:2 948:1 1072:2 1222:1 1224:2 1230:1 1239:2 1249:3 1253:1 1254:1 1256:6
-1 448:1 1241:1 1256:3
-1 448:1 1241:1 1256:3
-1 372:1 679:1 831:1 1122:1 1249:1 1256:2
-1 679:1 699:1 905:1 1220:1 1224:1 1249:1 1256:5
-1 318:1 576:1 679:1 771:1 905:1 968:1 969:1 1072:1 1222:1 1223:1 1224:1 1239:1 1249:1 1256:3
-1 234:1 302:1 349:1 408:1 421:1 604:1 621:1 642:1 652:1 666:1 679:1 905:1 991:1 1047:1 1185:1 1219:1 1224:1 1229:1 1231:1 1234:1 1237:1 1242:1 1249:1 1250:1 1256:3
-1 679:1 699:2 1072:1 1220:2 1239:1 1249:1 1256:3
-1 679:1 699:1 905:1 965:1 1020:1 1102:1 1216:1 1220:1 1224:1 1249:1 1256:2
-1 679:1 699:1 944:1 1220:1 1249:1 1256:2
-1 448:1 1241:1 1256:2
-1 448:1 1241:1 1256:2
-1 596:1 679:1 771:1 1025:1 1072:1 1222:1 1239:1 1249:1 1256:1
-1 448:1 1241:1 1256:2
-1 196:1 448:1 585:1 596:1 679:1 771:1 1025:1 1072:1 1215:1 1222:1 1239:1 1241:1 1249:1 1256:1 1258:9
-1 596:1 679:1 1025:1 1072:1 1239:1 1249:1 1256:3 1258:26
-1 1014:1 1256:1
-1 175:1 235:1 246:1 253:1 447:1 537:1 561:1 579:1 699:1 844:1 865:1 910:1 941:1 1012:1 1131:1 1220:1 1256:1
-1 448:1 1241:1 1256:4
-1 679:1 1249:1 1256:1
-1 592:1 679:1 686:1 699:1 905:1 975:1 1010:1 1072:1 1220:1 1224:1 1227:1 1239:1 1244:1 1247:1 1249:1 1252:1 1256:1
-1 141:1 246:1 253:1 561:1 679:1 699:1 844:1 865:1 986:1 1010:1 1012:1 1072:1 1135:1 1220:1 1239:1 1247:1 1249:1 1256:1
-1 271:1 383:1 679:1 905:1 948:1 1224:1 1246:1 1249:1 1254:1 1256:2
-1 1014:1 1256:1
-1 184:1 477:1 504:1 679:1 686:1 771:1 850:1 905:1 948:1 1072:1 1102:1 1214:1 1216:1 1222:1 1224:1 1230:1 1239:1 1249:1 1252:1 1253:1 1254:1 1256:2
-1 679:1 699:1 1072:1 1220:1 1239:1 1249:1 1256:2
-1 246:1 253:1 519:1 561:1 699:1 844:1 865:1 1010:1 1012:1 1188:1 1220:1 1247:1 1256:2
-1 207:1 679:1 905:1 948:1 1224:1 1249:1 1254:1 1256:3
-1 383:1 575:1 639:1 673:1 679:1 686:1 719:1 771:1 905:1 975:1 1058:1 1102:1 1147:1 1189:1 1216:1 1222:1 1224:1 1227:1 1246:1 1249:1 1252:1 1256:2 1258:3660
-1 184:1 504:1 679:4 905:2 1072:3 1224:2 1230:1 1239:3 1249:4 1253:1 1256:5
-1 184:1 504:1 679:4 905:2 1072:3 1224:2 1230:1 1239:3 1249:4 1253:1 1256:4
-1 165:1 346:1 372:1 521:1 548:1 679:1 831:1 915:1 1003:1 1076:1 1141:1 1154:1 1249:1 1256:1
-1 383:1 392:1 616:1 679:1 771:1 905:1 1039:1 1072:1 1222:1 1224:1 1239:1 1246:1 1249:1 1256:2
-1 383:1 679:1 699:1 771:1 905:1 948:1 1039:1 1072:1 1144:1 1220:1 1222:1 1224:1 1239:1 1246:1 1249:1 1254:1 1256:2
-1 184:1 504:1 679:2 905:2 1072:2 1224:2 1230:1 1239:2 1249:2 1253:1 1256:7
-1 246:1 253:1 255:1 343:1 406:1 437:1 519:1 561:1 580:1 617:1 695:1 699:1 741:1 797:1 824:1 844:1 848:1 865:1 870:1 889:1 941:1 1010:1 1012:1 1123:1 1150:1 1220:1 1247:1 1256:2
-1 448:1 1241:1 1256:4
-1 184:1 679:1 686:1 771:1 905:1 948:1 969:1 1072:1 1222:1 1223:1 1224:1 1239:1 1249:1 1252:1 1253:1 1254:1 1256:3
-1 184:1 679:1 686:1 771:1 905:1 948:1 969:1 1072:1 1222:1 1223:1 1224:1 1239:1 1249:1 1252:1 1253:1 1254:1 1256:3
-1 125:1 141:1 177:1 246:1 253:1 255:1 362:1 406:1 458:1 486:1 504:1 519:1 561:1 579:1 599:1 617:1 645:1 699:1 824:1 840:1 844:1 865:1 889:1 896:1 921:1 941:1 1010:1 1012:1 1100:1 1119:1 1123:1 1220:1 1230:1 1247:1 1256:3
-1 188:1 246:1 253:1 266:1 486:1 519:1 561:1 645:1 671:1 687:1 699:1 716:1 844:1 865:1 889:1 896:1 1010:1 1012:1 1097:1 1123:1 1220:1 1247:1 1256:1
-1 679:1 699:1 771:1 905:1 1010:1 1072:1 1220:1 1222:1 1224:1 1239:1 1247:1 1249:1 1256:2
-1 679:1 686:1 699:2 905:1 907:1 948:1 975:1 1220:2 1224:1 1225:1 1227:1 1249:1 1252:1 1254:1 1256:5
-1 175:1 235:1 246:1 253:1 255:1 351:1 406:1 486:1 561:1 579:1 590:1 617:1 699:1 824:1 840:1 844:1 848:1 865:1 889:1 941:1 1010:1 1012:1 1091:1 1123:1 1150:1 1179:1 1220:1 1247:1 1256:2
-1 1010:1 1247:1 1256:1
-1 196:1 679:1 699:1 905:1 1072:1 1215:1 1220:1 1224:1 1239:1 1249:1 1256:4
-1 1010:1 1247:1 1256:1
-1 679:1 1249:1 1256:2
-1 1010:1 1247:1 1256:1
-1 184:1 383:1 504:1 679:1 686:1 771:1 869:1 905:1 948:1 969:1 1072:1 1102:1 1216:1 1222:1 1223:1 1224:1 1230:1 1239:1 1243:1 1246:1 1249:1 1252:1 1253:1 1254:1 1256:4
-1 168:1 522:1 679:1 686:1 709:1 744:1 771:1 905:1 948:1 1222:1 1224:1 1226:1 1240:1 1248:1 1249:1 1252:1 1254:1 1256:2 1258:2
-1 679:1 686:1 905:1 948:1 1072:1 1102:1 1216:1 1224:1 1239:1 1249:1 1252:1 1254:1 1256:1
-1 504:1 679:1 699:1 771:1 905:1 1144:1 1220:1 1222:1 1224:1 1230:1 1249:1 1256:3
-1 448:1 1241:1 1256:2
-1 383:1 679:1 686:1 905:1 948:1 1072:1 1224:1 1239:1 1246:1 1249:1 1252:1 1254:1 1256:1
-1 184:1 504:1 512:1 679:1 686:1 744:1 771:1 905:1 948:1 969:1 975:1 1072:1 1102:1 1216:1 1222:1 1223:1 1224:1 1227:1 1230:1 1236:1 1239:1 1248:1 1249:1 1252:1 1253:1 1254:1 1256:1
-1 448:1 1241:1 1256:3
-1 448:1 1241:1 1256:2
-1 184:1 207:1 679:1 905:1 948:1 1102:1 1216:1 1224:1 1249:1 1253:1 1254:1 1256:3
-1 679:1 1006:1 1024:1 1057:1 1166:1 1249:1 1256:4
-1 448:1 1241:1 1256:3
-1 448:1 1241:1 1256:2
-1 244:1 420:1 562:1 679:1 1249:1 1256:1
-1 184:1 504:2 679:4 686:1 905:2 948:1 1072:2 1224:2 1230:2 1239:2 1249:4 1252:1 1253:1 1254:1 1256:6
-1 168:1 184:1 383:1 504:3 679:4 686:1 771:1 905:2 948:1 958:1 969:1 1072:2 1222:1 1223:1 1224:2 1230:3 1239:2 1240:1 1246:1 1249:4 1252:1 1253:1 1254:1 1256:6
-1 448:1 1241:1 1256:3
-1 679:1 868:1 1249:1 1256:2
-1 577:1 679:2 686:2 905:1 948:1 987:1 1169:1 1224:1 1235:1 1249:2 1252:2 1254:1 1256:4
-1 383:1 679:1 686:1 905:1 969:1 1072:1 1223:1 1224:1 1239:1 1246:1 1249:1 1252:1 1256:2
-1 383:1 679:1 686:1 905:1 969:1 1072:1 1223:1 1224:1 1239:1 1246:1 1249:1 1252:1 1256:2
-1 448:1 1241:1 1256:3
-1 420:1 562:1 679:1 699:1 746:1 1106:1 1220:1 1249:1 1256:2
-1 504:1 679:1 686:1 905:1 1224:1 1230:1 1249:1 1252:1 1256:3
-1 679:1 1249:1 1256:2
-1 184:1 189:1 234:1 278:1 286:1 302:1 314:1 349:1 383:1 408:1 476:1 504:1 604:1 621:1 628:1 642:1 652:1 666:1 679:1 686:1 771:1 905:1 907:1 948:1 969:1 975:1 991:1 1072:1 1087:1 1099:1 1185:1 1219:1 1222:1 1223:1 1224:1 1225:1 1227:1 1229:1 1230:1 1231:1 1234:1 1237:1 1239:1 1242:1 1245:1 1246:1 1249:1 1250:1 1252:1 1253:1 1254:1 1255:1 1256:2 1258:124
-1 123:1 168:1 184:1 196:1 232:1 234:1 278:1 286:1 302:1 314:1 349:1 383:1 421:1 445:1 497:1 504:1 509:1 512:1 518:1 604:1 621:1 628:1 638:1 642:1 646:1 652:1 666:1 679:1 686:1 718:1 744:1 767:1 771:1 826:1 847:1 878:1 905:1 907:1 948:1 964:1 969:1 975:1 991:1 1010:1 1036:1 1047:1 1059:1 1072:1 1087:1 1089:1 1099:1 1185:1 1215:1 1219:1 1222:1 1223:1 1224:1 1225:1 1227:1 1229:1 1230:1 1231:1 1233:1 1234:1 1236:1 1237:1 1238:1 1239:1 1240:1 1242:1 1245:1 1246:1 1247:1 1248:1 1249:1 1250:1 1252:1 1253:1 1254:1 1255:1 1256:4 1258:190
-1 349:1 621:1 642:1 652:1 666:1 679:1 1010:1 1185:1 1219:1 1229:1 1231:1 1234:1 1242:1 1247:1 1249:1 1256:1
-1 184:1 196:1 504:1 679:1 686:1 744:1 762:1 771:1 905:1 948:1 975:1 1010:1 1072:1 1215:1 1218:1 1222:1 1224:1 1227:1 1230:1 1239:1 1247:1 1248:1 1249:1 1252:1 1253:1 1254:1 1256:1
-1 184:1 477:1 504:1 679:1 686:1 771:1 905:1 948:1 975:1 1072:1 1102:1 1214:1 1216:1 1222:1 1224:1 1227:1 1230:1 1239:1 1249:1 1252:1 1253:1 1254:1 1256:3
-1 318:1 372:1 576:1 679:1 831:1 1122:1 1154:1 1249:1 1256:2
-1 184:1 679:1 686:1 771:1 905:1 948:1 969:1 1072:1 1222:1 1223:1 1224:1 1239:1 1249:1 1252:1 1253:1 1254:1 1256:4
-1 184:1 679:1 686:1 771:1 905:1 948:1 969:1 1072:1 1222:1 1223:1 1224:1 1239:1 1249:1 1252:1 1253:1 1254:1 1256:4
-1 306:1 679:1 699:1 1144:1 1220:1 1249:1 1256:2
-1 184:1 504:1 679:2 905:2 1072:2 1224:2 1230:1 1239:2 1249:2 1253:1 1256:7
-1 679:1 699:2 1220:2 1249:1 1256:2
-1 610:1 679:1 1071:1 1249:1 1256:2
-1 184:1 679:1 686:1 771:1 905:1 948:1 969:1 1072:1 1222:1 1223:1 1224:1 1239:1 1249:1 1252:1 1253:1 1254:1 1256:3
-1 1256:3
-1 679:1 1249:1 1256:2
-1 246:1 253:1 561:1 579:1 679:1 686:1 699:1 735:1 744:1 844:1 865:1 905:1 1012:1 1220:1 1224:1 1248:1 1249:1 1252:1 1256:2
-1 184:1 504:1 679:2 905:2 1072:2 1224:2 1230:1 1239:2 1249:2 1253:1 1256:7
-1 383:1 679:1 1246:1 1249:1 1256:2
-1 347:1 372:1 558:1 679:1 680:1 686:1 699:1 831:1 905:1 948:1 1220:1 1224:1 1249:1 1252:1 1254:1 1256:2
-1 679:1 699:2 1220:2 1249:1 1256:2
-1 184:1 579:1 679:1 681:1 686:1 699:1 905:1 1072:1 1220:1 1224:1 1239:1 1249:1 1252:1 1253:1 1256:3 1258:39
-1 184:1 236:1 679:1 686:1 699:1 905:1 948:1 1072:1 1102:1 1216:1 1220:1 1224:1 1239:1 1249:1 1252:1 1253:1 1254:1 1256:4
-1 314:1 504:1 679:1 771:1 905:1 1140:1 1222:1 1224:1 1230:1 1245:1 1249:1 1256:2
-1 1014:1 1256:2
-1 235:1 246:1 253:1 561:1 634:1 699:1 844:1 865:1 1012:1 1220:1 1256:2
-1 175:1 235:1 246:1 253:1 561:1 579:1 634:1 699:1 844:1 865:1 1012:1 1150:1 1220:1 1256:2
-1 448:1 1241:1 1256:4
-1 184:1 679:1 699:1 905:1 1220:1 1224:1 1249:1 1253:1 1256:2
-1 184:1 314:1 383:1 504:1 679:1 686:1 771:1 905:1 948:1 969:1 1072:1 1087:1 1102:1 1216:1 1222:1 1223:1 1224:1 1230:1 1239:1 1245:1 1246:1 1249:1 1252:1 1253:1 1254:1 1255:1 1256:5
-1 184:1 504:1 679:2 905:2 1072:2 1224:2 1230:1 1239:2 1249:2 1253:1 1256:7
-1 184:1 504:1 679:2 905:2 1072:2 1224:2 1230:1 1239:2 1249:2 1253:1 1256:7
-1 448:1 1241:1 1256:3
-1 350:1 679:1 762:1 868:1 891:1 905:1 948:1 977:1 1204:1 1218:1 1224:1 1249:1 1254:1 1256:1
-1 184:1 195:1 244:1 679:1 757:1 785:1 905:1 948:1 967:1 1152:1 1224:1 1249:1 1253:1 1254:1 1256:1
-1 184:1 383:1 504:1 679:3 771:1 905:2 948:1 1072:2 1222:1 1224:2 1230:1 1239:2 1246:1 1249:3 1253:1 1254:1 1256:6
-1 448:1 1241:1 1256:4
-1 184:1 504:1 679:2 905:2 1072:2 1224:2 1230:1 1239:2 1249:2 1253:1 1256:7
-1 184:1 344:1 679:1 771:1 869:1 905:1 948:1 969:1 980:1 1072:1 1084:1 1155:1 1222:1 1223:1 1224:1 1239:1 1243:1 1249:1 1253:1 1254:1 1256:2
-1 168:1 184:1 196:1 268:1 283:1 477:1 504:1 509:1 512:1 638:1 679:1 686:1 735:1 744:1 771:1 885:1 905:1 907:1 948:1 969:1 975:1 1072:1 1102:1 1214:1 1215:1 1216:1 1217:1 1222:1 1223:1 1224:1 1225:1 1227:1 1228:1 1230:1 1233:1 1236:1 1239:1 1240:1 1248:1 1249:1 1252:1 1253:1 1254:1 1256:1
-1 123:1 193:1 196:1 232:1 236:1 268:1 504:1 509:1 658:1 679:1 686:1 709:1 744:1 771:1 905:1 907:1 948:1 969:1 975:1 1072:1 1215:1 1217:1 1222:1 1223:1 1224:1 1225:1 1226:1 1227:1 1230:1 1233:1 1238:1 1239:1 1248:1 1249:1 1252:1 1254:1 1256:1
-1 184:1 504:1 679:2 905:2 1072:2 1224:2 1230:1 1239:2 1249:2 1253:1 1256:7
-1 699:1 1220:1 1256:3
-1 184:1 383:1 424:1 679:1 686:1 699:1 771:1 869:1 905:1 948:1 1072:1 1102:1 1216:1 1220:1 1222:1 1224:1 1239:1 1243:1 1246:1 1249:1 1252:1 1253:1 1254:1 1256:4
-1 116:1 121:1 175:1 188:1 232:1 235:1 238:1 246:1 253:1 310:1 386:1 409:1 410:1 437:1 486:1 488:1 519:1 535:1 561:1 564:1 579:1 588:1 590:1 597:1 617:1 634:1 686:1 699:1 744:1 780:1 844:1 848:1 865:1 866:1 870:1 889:1 905:1 910:1 921:1 923:1 937:1 941:1 948:1 1008:1 1010:1 1012:1 1094:1 1097:1 1114:1 1118:1 1150:1 1212:1 1220:1 1224:1 1238:1 1247:1 1248:1 1252:1 1254:1 1256:2
-1 638:1 679:1 699:1 965:1 975:1 1010:1 1072:1 1220:1 1227:1 1239:1 1247:1 1249:1 1256:2
-1 126:1 255:1 266:1 312:1 361:1 486:1 561:1 617:1 624:1 643:1 676:1 697:1 699:1 763:1 844:1 941:1 1010:1 1012:1 1013:1 1123:1 1167:1 1220:1 1247:1 1256:2 1258:23
-1 184:1 360:1 504:1 679:1 699:1 771:1 905:1 948:1 1072:1 1220:1 1222:1 1224:1 1230:1 1239:1 1249:1 1253:1 1254:1 1256:2
-1 184:1 330:1 638:1 679:1 681:1 686:1 699:1 771:1 905:1 1010:1 1072:1 1220:1 1222:1 1224:1 1239:1 1247:1 1249:1 1252:1 1253:1 1256:1 1258:39
-1 246:1 253:1 561:1 579:1 644:1 679:1 686:1 699:1 755:1 844:1 865:1 1012:1 1199:1 1220:1 1249:1 1252:1 1256:3
-1 268:1 504:1 509:1 579:1 638:1 679:1 686:1 699:1 905:1 1072:1 1217:1 1220:1 1224:1 1230:1 1233:1 1239:1 1249:1 1252:1 1256:1
-1 235:1 330:1 340:1 634:1 679:1 681:1 686:1 699:1 771:1 905:1 975:1 1072:1 1210:1 1220:1 1222:1 1224:1 1227:1 1239:1 1249:1 1252:1 1256:3 1258:39
-1 417:1 679:1 686:1 699:1 1220:1 1249:1 1252:1 1256:3
-1 168:1 196:1 283:1 512:1 679:1 686:1 762:1 771:1 869:1 885:1 905:1 907:1 948:1 975:1 1072:1 1215:1 1218:1 1222:1 1224:1 1225:1 1227:1 1228:1 1236:1 1239:1 1240:1 1243:1 1249:1 1252:1 1254:1 1256:2
-1 184:1 504:1 679:2 905:2 1072:2 1224:2 1230:1 1239:2 1249:2 1253:1 1256:7
-1 1014:1 1256:1
-1 504:2 679:4 699:1 905:2 1072:1 1220:1 1224:2 1230:2 1239:1 1249:4 1256:5
-1 679:1 1249:1 1256:2
-1 679:1 1249:1 1256:2
-1 184:1 504:1 638:1 679:1 686:1 744:1 762:1 771:1 905:1 948:1 969:1 1072:1 1218:1 1222:1 1223:1 1224:1 1230:1 1239:1 1248:1 1249:1 1252:1 1253:1 1254:1 1256:2
-1 699:1 1220:1 1256:3
-1 184:1 372:1 395:1 477:1 504:1 679:1 686:1 771:1 831:1 905:1 948:1 1072:1 1102:1 1214:1 1216:1 1222:1 1224:1 1230:1 1239:1 1249:1 1252:1 1253:1 1254:1 1256:2
-1 638:1 679:1 686:1 699:1 965:1 975:1 1010:1 1072:1 1220:1 1227:1 1239:1 1247:1 1249:1 1252:1 1256:2
-1 448:1 1241:1 1256:3
-1 184:1 236:1 314:1 383:1 504:1 592:1 679:1 686:1 762:1 771:1 869:1 905:1 948:1 969:1 975:1 1072:1 1087:1 1102:1 1178:1 1216:1 1218:1 1222:1 1223:1 1224:1 1227:1 1230:1 1239:1 1243:1 1244:1 1245:1 1246:1 1249:1 1252:1 1253:1 1254:1 1255:1 1256:1
-1 184:1 504:3 679:4 686:2 771:1 905:2 948:1 969:1 1072:2 1102:1 1216:1 1222:1 1223:1 1224:2 1230:3 1239:2 1249:4 1252:2 1253:1 1254:1 1256:6
-1 679:1 699:2 869:1 1220:2 1243:1 1249:1 1256:3
-1 679:1 1249:1 1256:2
-1 679:1 1249:1 1256:2
-1 679:1 1249:1 1256:3
-1 448:1 1241:1 1256:3
-1 679:1 1249:1 1256:3
-1 679:1 699:1 1220:1 1249:1 1256:3
-1 679:1 686:1 699:2 771:1 869:1 905:1 948:1 1220:2 1222:1 1224:1 1243:1 1249:1 1252:1 1254:1 1256:2
-1 175:1 188:1 235:1 246:1 253:1 447:1 519:1 537:1 561:1 579:1 699:1 844:1 848:1 865:1 910:1 941:1 1012:1 1123:1 1131:1 1220:1 1256:1 1258:3
-1 679:1 1249:1 1256:3
-1 235:1 246:1 253:1 328:1 340:1 561:1 579:1 634:1 679:1 699:1 772:1 844:1 865:1 1010:1 1012:1 1072:1 1168:1 1220:1 1239:1 1247:1 1249:1 1256:1
-1 184:1 592:1 679:1 686:1 699:1 762:1 771:1 905:1 948:1 975:1 1010:1 1212:1 1218:1 1220:1 1222:1 1224:1 1227:1 1244:1 1247:1 1249:1 1252:1 1253:1 1254:1 1256:2
-1 316:1 679:1 686:1 699:1 771:1 1220:1 1222:1 1249:1 1252:1 1256:3
-1 316:1 679:1 686:1 699:1 771:1 1220:1 1222:1 1249:1 1252:1 1256:3
-1 117:1 406:1 486:1 566:1 569:1 593:1 611:1 617:1 644:1 699:1 865:1 889:1 917:1 1097:1 1146:1 1220:1 1256:2
-1 184:1 383:1 679:1 686:1 771:1 905:1 948:1 961:1 969:1 975:1 1072:1 1102:1 1216:1 1222:1 1223:1 1224:1 1227:1 1239:1 1246:1 1249:1 1252:1 1253:1 1254:1 1256:2 1258:69
-1 346:1 372:1 521:1 679:1 699:2 831:1 1220:2 1249:1 1256:3
-1 184:1 504:1 638:1 679:1 686:1 771:1 905:1 948:1 969:1 1072:1 1222:1 1223:1 1224:1 1230:1 1239:1 1249:1 1252:1 1253:1 1254:1 1256:3
-1 679:1 699:2 905:1 1102:1 1216:1 1220:2 1224:1 1249:1 1256:2
-1 448:1 1241:1 1256:3
-1 196:1 298:1 679:1 955:1 1072:1 1109:1 1215:1 1239:1 1249:1 1256:1
-1 196:1 298:1 679:1 955:1 1072:1 1109:1 1215:1 1239:1 1249:1 1256:1
-1 1014:1 1256:1
-1 196:1 236:1 383:1 504:1 679:1 686:1 699:2 771:1 905:1 948:1 1072:1 1102:1 1215:1 1216:1 1220:2 1222:1 1224:1 1230:1 1239:1 1246:1 1249:1 1252:1 1254:1 1256:2
-1 196:1 346:1 372:1 521:1 679:1 699:2 831:1 905:1 1054:1 1215:1 1220:2 1224:1 1249:1 1256:2
-1 167:1 291:1 679:1 868:1 905:1 948:1 1224:1 1249:1 1254:1 1256:1 1258:5
-1 196:1 246:1 253:1 311:1 561:1 566:1 644:1 679:1 699:1 741:1 844:1 865:1 905:1 987:1 1010:1 1012:1 1072:1 1179:1 1215:1 1220:1 1224:1 1235:1 1239:1 1247:1 1249:1 1256:2
-1 138:1 188:1 246:1 253:1 255:1 515:1 519:1 561:1 617:1 699:1 844:1 848:1 865:1 889:1 905:1 941:1 986:1 1010:1 1012:1 1179:1 1220:1 1224:1 1247:1 1256:2
-1 679:1 699:1 1010:1 1072:1 1220:1 1239:1 1247:1 1249:1 1256:1
-1 448:1 1241:1 1256:3
-1 196:1 679:1 686:1 905:1 1215:1 1224:1 1249:1 1252:1 1256:2
-1 184:1 504:1 679:2 905:2 1072:2 1224:2 1230:1 1239:2 1249:2 1253:1 1256:7
-1 448:1 1241:1 1256:2
-1 184:1 679:1 686:1 771:1 905:1 948:1 969:1 1072:1 1222:1 1223:1 1224:1 1239:1 1249:1 1252:1 1253:1 1254:1 1256:2
-1 184:1 504:2 679:5 905:2 948:1 969:1 1072:2 1223:1 1224:2 1230:2 1239:2 1249:5 1253:1 1254:1 1256:6
-1 679:1 699:1 771:1 1072:1 1220:1 1222:1 1239:1 1249:1 1256:1
-1 187:1 196:1 236:1 283:1 383:1 504:1 512:1 576:1 679:1 686:1 718:1 771:1 831:1 905:1 948:1 969:1 975:1 1072:1 1215:1 1222:1 1223:1 1224:1 1227:1 1228:1 1230:1 1236:1 1239:1 1246:1 1249:1 1252:1 1254:1 1256:2 1258:59
-1 228:1 232:1 679:1 699:1 905:1 948:1 1072:1 1220:1 1224:1 1238:1 1239:1 1249:1 1254:1 1256:1
-1 184:1 314:1 383:1 504:1 679:1 686:1 771:1 905:1 948:1 969:1 1072:1 1087:1 1102:1 1216:1 1222:1 1223:1 1224:1 1230:1 1239:1 1245:1 1246:1 1249:1 1252:1 1253:1 1254:1 1255:1 1256:5
-1 184:1 504:1 679:1 686:1 905:1 948:1 969:1 1072:1 1102:1 1216:1 1223:1 1224:1 1230:1 1239:1 1249:1 1252:1 1253:1 1254:1 1256:5
-1 246:1 253:1 389:1 486:1 519:1 561:1 579:1 699:1 700:1 844:1 865:1 889:1 908:1 941:1 1012:1 1097:1 1150:1 1220:1 1256:3
-1 448:1 1241:1 1256:4
-1 448:1 1241:1 1256:4
-1 679:1 1249:1 1256:2
-1 679:1 699:1 1035:1 1072:1 1220:1 1239:1 1249:1 1256:3
-1 448:1 1241:1 1256:3
-1 448:1 1241:1 1256:3
-1 168:1 184:1 504:1 679:1 771:1 905:1 948:1 1072:1 1222:1 1224:1 1230:1 1239:1 1240:1 1249:1 1253:1 1254:1 1256:1
-1 184:1 504:2 679:5 905:2 948:1 969:1 1072:2 1102:1 1216:1 1223:1 1224:2 1230:2 1239:2 1249:5 1253:1 1254:1 1256:7
-1 184:1 383:2 504:2 679:3 771:1 905:2 948:1 1072:1 1102:1 1216:1 1222:1 1224:2 1230:2 1239:1 1246:2 1249:3 1253:1 1254:1 1256:6
-1 679:1 1249:1 1256:2
-1 184:1 383:1 504:3 679:4 771:1 905:2 948:1 969:1 1072:2 1222:1 1223:1 1224:2 1230:3 1239:2 1246:1 1249:4 1253:1 1254:1 1256:6
-1 184:1 383:1 504:3 679:4 771:1 905:2 948:1 969:1 1072:2 1102:1 1216:1 1222:1 1223:1 1224:2 1230:3 1239:2 1246:1 1249:4 1253:1 1254:1 1256:6
-1 188:1 246:1 253:1 437:1 486:1 504:1 519:1 561:1 579:1 617:1 638:1 643:1 699:1 824:1 844:1 848:1 865:1 889:1 921:1 941:1 958:1 1010:1 1012:1 1097:1 1123:1 1150:1 1220:1 1230:1 1247:1 1256:2
-1 679:1 699:1 1095:1 1220:1 1249:1 1256:8
-1 227:1 679:1 699:1 720:1 789:1 1220:1 1249:1 1256:6
-1 679:1 699:2 831:1 905:1 948:1 1220:2 1224:1 1249:1 1254:1 1256:2
-1 184:1 504:2 679:3 686:2 771:1 905:2 948:1 1072:2 1102:1 1216:1 1222:1 1224:2 1230:2 1239:2 1249:3 1252:2 1253:1 1254:1 1256:6
-1 184:1 504:2 679:4 686:1 771:1 905:2 948:1 1072:2 1102:1 1216:1 1222:1 1224:2 1230:2 1239:2 1249:4 1252:1 1253:1 1254:1 1256:6
-1 227:1 679:1 699:1 720:1 789:1 1220:1 1249:1 1256:6
-1 184:1 679:1 905:1 948:1 1072:1 1102:1 1216:1 1224:1 1239:1 1249:1 1253:1 1254:1 1256:1
-1 188:1 246:1 253:1 255:1 266:1 486:1 519:1 561:1 580:1 618:1 645:1 699:1 750:1 844:1 865:1 889:1 921:1 941:1 1010:1 1012:1 1097:1 1123:1 1220:1 1247:1 1256:2
-1 184:1 504:3 679:4 686:3 771:1 905:2 948:1 969:1 1072:2 1087:1 1102:1 1216:1 1222:1 1223:1 1224:2 1230:3 1239:2 1249:4 1252:3 1253:1 1254:1 1255:1 1256:6
-1 175:1 235:1 253:1 561:1 634:1 679:1 686:1 699:1 865:1 1072:1 1220:1 1239:1 1249:1 1252:1 1256:2
-1 448:1 1241:1 1256:3
-1 448:1 1241:1 1256:4
-1 448:1 1241:1 1256:3
-1 448:1 1241:1 1256:3
-1 448:1 1241:1 1256:3
-1 448:1 1241:1 1256:3
-1 448:1 1241:1 1256:3
-1 175:1 235:1 236:1 330:1 579:1 634:1 679:1 699:1 905:1 1072:1 1220:1 1224:1 1239:1 1249:1 1256:3
-1 679:1 686:1 771:1 905:1 948:1 1222:1 1224:1 1249:1 1252:1 1254:1 1256:1
-1 168:1 522:1 679:1 686:1 709:1 744:1 771:1 905:1 948:1 1222:1 1224:1 1226:1 1240:1 1248:1 1249:1 1252:1 1254:1 1256:2 1258:2
-1 1014:1 1256:1
-1 184:1 679:1 686:1 771:1 905:1 948:1 969:1 1072:1 1222:1 1223:1 1224:1 1239:1 1249:1 1252:1 1253:1 1254:1 1256:3
-1 383:1 679:1 699:1 905:1 948:1 1220:1 1224:1 1246:1 1249:1 1254:1 1256:2
-1 679:1 699:1 1220:1 1249:1 1256:2
-1 184:1 679:1 686:1 699:1 771:1 869:1 905:1 948:1 1072:1 1102:1 1216:1 1220:1 1222:1 1224:1 1239:1 1243:1 1249:1 1252:1 1253:1 1254:1 1256:2
-1 679:1 699:1 905:1 948:1 1220:1 1224:1 1249:1 1254:1 1256:2
-1 448:1 1241:1 1256:2
-1 246:1 253:1 255:1 406:1 480:1 486:1 535:1 561:1 590:1 617:1 699:1 824:1 840:1 844:1 865:1 870:1 910:1 921:1 941:1 986:1 1012:1 1150:1 1220:1 1256:3
-1 322:1 397:1 504:1 508:1 679:1 686:1 699:1 905:1 1144:1 1220:1 1224:1 1230:1 1249:1 1252:1 1256:2
-1 184:1 395:1 679:1 699:1 771:1 905:1 948:1 1144:1 1220:1 1222:1 1224:1 1249:1 1253:1 1254:1 1256:3
-1 448:1 1241:1 1256:3
-1 679:1 686:1 699:1 905:1 1072:1 1220:1 1224:1 1239:1 1249:1 1252:1 1256:3
-1 679:1 1249:1 1256:1
-1 184:1 196:1 679:1 686:1 905:1 948:1 1215:1 1224:1 1249:1 1252:1 1253:1 1254:1 1256:2
-1 679:1 699:2 768:1 789:1 1220:2 1249:1 1256:5
-1 679:1 869:1 1243:1 1249:1 1256:2
-1 449:1 679:1 686:1 699:2 768:1 789:1 1220:2 1249:1 1252:1 1256:5
-1 184:1 383:1 679:1 686:1 905:1 948:1 1072:1 1224:1 1239:1 1246:1 1249:1 1252:1 1253:1 1254:1 1256:2
-1 679:1 699:2 1220:2 1249:1 1256:2
-1 184:1 311:1 504:1 509:1 586:1 638:1 679:1 735:1 744:1 762:1 771:1 905:1 948:1 975:1 1072:1 1218:1 1222:1 1224:1 1227:1 1230:1 1233:1 1239:1 1248:1 1249:1 1253:1 1254:1 1256:1
-1 1148:1 1256:3
-1 449:1 679:1 699:2 768:1 789:1 1207:1 1220:2 1249:1 1256:6
-1 244:1 679:1 1249:1 1256:2
-1 448:1 1241:1 1256:4
-1 383:1 610:1 679:1 1246:1 1249:1 1256:2
-1 184:1 504:1 679:2 905:2 1072:2 1224:2 1230:1 1239:2 1249:2 1253:1 1256:7
-1 299:1 350:1 354:1 374:1 376:1 411:1 565:1 567:1 679:1 721:1 762:1 771:1 868:1 881:1 886:1 891:1 905:1 948:1 977:1 995:1 1026:1 1042:1 1190:1 1204:1 1218:1 1222:1 1224:1 1249:1 1254:1 1256:1
-1 610:1 679:1 1249:1 1256:2
-1 679:1 699:2 952:1 1220:2 1249:1 1256:2
-1 184:1 504:1 679:2 905:2 1072:2 1224:2 1230:1 1239:2 1249:2 1253:1 1256:6
-1 184:1 383:1 504:3 679:7 686:3 771:1 905:2 948:1 969:1 1072:2 1087:1 1102:1 1216:1 1222:1 1223:1 1224:2 1230:3 1239:2 1246:1 1249:7 1252:3 1253:1 1254:1 1255:1 1256:6
-1 448:1 1241:1 1256:4
-1 383:1 679:1 905:1 1072:1 1224:1 1239:1 1246:1 1249:1 1256:3
-1 383:1 679:1 905:1 1072:1 1224:1 1239:1 1246:1 1249:1 1256:3
-1 184:1 314:1 477:1 504:1 679:1 686:1 771:1 905:1 948:1 969:1 975:1 1072:1 1102:1 1214:1 1216:1 1222:1 1223:1 1224:1 1227:1 1230:1 1239:1 1245:1 1249:1 1252:1 1253:1 1254:1 1256:1
-1 1014:1 1256:1
-1 188:1 246:1 253:1 255:1 295:1 386:1 409:1 437:1 458:1 519:1 561:1 617:1 699:1 760:1 844:1 848:1 865:1 889:1 921:1 941:1 1012:1 1123:1 1176:1 1220:1 1256:2
-1 137:1 168:1 185:1 220:1 232:1 504:1 522:1 638:1 679:1 699:1 744:1 771:1 885:1 905:1 948:1 1010:1 1063:1 1072:1 1220:1 1222:1 1224:1 1230:1 1232:1 1238:1 1239:1 1240:1 1247:1 1248:1 1249:1 1254:1 1256:2
-1 184:1 185:1 209:1 220:1 232:1 311:1 504:1 522:1 638:1 679:1 686:1 699:1 744:1 771:1 852:1 885:1 905:1 948:1 969:1 1010:1 1036:1 1063:1 1072:1 1220:1 1221:1 1222:1 1223:1 1224:1 1230:1 1232:1 1238:1 1239:1 1247:1 1248:1 1249:1 1252:1 1253:1 1254:1 1256:1
-1 184:1 679:1 686:1 905:1 948:1 1072:1 1224:1 1239:1 1249:1 1252:1 1253:1 1254:1 1256:3
-1 679:1 699:2 1220:2 1249:1 1256:2
-1 448:1 1241:1 1256:3
-1 448:1 1241:1 1256:2
-1 679:1 1249:1 1256:1
-1 679:1 699:1 827:1 905:1 1220:1 1224:1 1249:1 1256:2
-1 246:1 253:1 561:1 579:1 634:1 679:1 699:1 844:1 865:1 986:1 1012:1 1072:1 1220:1 1239:1 1249:1 1256:3
-1 448:1 1241:1 1256:3
-1 184:1 246:1 253:1 561:1 579:1 600:1 679:1 699:1 771:1 844:1 865:1 905:1 948:1 1012:1 1072:1 1220:1 1222:1 1224:1 1239:1 1249:1 1253:1 1254:1 1256:1
-1 1014:1 1256:1
-1 448:1 1241:1 1256:3
-1 448:1 1241:1 1256:3
-1 196:1 246:1 253:1 266:1 406:1 432:1 561:1 580:1 699:1 844:1 865:1 889:1 924:1 941:1 1010:1 1012:1 1097:1 1215:1 1220:1 1247:1 1256:2
-1 127:1 184:1 314:1 383:1 504:1 522:1 679:1 686:1 699:1 723:1 762:1 771:1 905:1 948:1 975:1 1010:1 1039:1 1064:1 1072:1 1126:1 1218:1 1220:1 1222:1 1224:1 1227:1 1230:1 1239:1 1245:1 1246:1 1247:1 1249:1 1252:1 1253:1 1254:1 1256:1
-1 679:1 699:1 827:1 905:1 1010:1 1220:1 1224:1 1247:1 1249:1 1256:1
-1 617:1 679:1 699:1 905:1 1010:1 1220:1 1224:1 1247:1 1249:1 1256:2
-1 448:1 1241:1 1256:3
-1 679:1 699:1 905:1 1010:1 1072:1 1220:1 1224:1 1239:1 1247:1 1249:1 1256:1
-1 253:1 370:1 519:1 561:1 699:1 844:1 1010:1 1170:1 1188:1 1220:1 1247:1 1256:2
-1 370:1 679:1 699:1 905:1 1010:1 1072:1 1188:1 1220:1 1224:1 1239:1 1247:1 1249:1 1256:2
-1 184:1 360:1 504:1 679:1 699:1 771:1 905:1 948:1 1072:1 1220:1 1222:1 1224:1 1230:1 1239:1 1249:1 1253:1 1254:1 1256:2
-1 679:1 1249:1 1256:1
-1 196:1 679:1 699:1 905:1 969:1 975:1 1010:1 1215:1 1220:1 1223:1 1224:1 1227:1 1247:1 1249:1 1256:2
-1 152:1 268:1 383:1 512:1 679:1 686:1 905:1 907:1 969:1 1072:1 1217:1 1223:1 1224:1 1225:1 1236:1 1239:1 1246:1 1249:1 1252:1 1256:3 1258:2
-1 184:1 205:1 383:1 504:1 679:1 686:1 771:1 905:1 948:1 969:1 1072:1 1102:1 1216:1 1222:1 1223:1 1224:1 1230:1 1239:1 1246:1 1249:1 1252:1 1253:1 1254:1 1256:5
-1 448:1 1241:1 1256:3
-1 175:1 235:1 504:1 537:1 634:1 679:1 686:1 699:1 771:1 905:1 1010:1 1072:1 1156:1 1220:1 1222:1 1224:1 1230:1 1239:1 1247:1 1249:1 1252:1 1256:1
-1 175:1 235:1 504:1 537:1 634:1 679:1 686:1 699:1 771:1 905:1 1010:1 1072:1 1156:1 1220:1 1222:1 1224:1 1230:1 1239:1 1247:1 1249:1 1252:1 1256:1
-1 175:1 235:1 246:1 253:1 447:1 537:1 561:1 579:1 679:1 699:1 771:1 844:1 865:1 910:1 941:1 1012:1 1123:1 1150:1 1220:1 1222:1 1249:1 1256:1 1258:3
-1 192:1 638:1 679:1 699:1 744:1 816:1 852:1 905:1 959:1 1010:1 1072:1 1212:1 1220:1 1224:1 1239:1 1247:1 1248:1 1249:1 1256:3
-1 196:1 679:1 699:1 1048:1 1072:1 1215:1 1220:1 1239:1 1249:1 1256:1
-1 227:1 679:1 699:1 720:1 789:1 1220:1 1249:1 1256:6
-1 384:1 679:1 699:1 745:1 1220:1 1249:1 1256:3
-1 184:1 324:1 679:1 783:1 902:1 905:1 948:1 969:1 1102:1 1216:1 1223:1 1224:1 1249:1 1253:1 1254:1 1256:2 1258:2
-1 451:1 679:1 699:1 905:1 1220:1 1224:1 1249:1 1256:2
-1 448:1 1241:1 1256:4
-1 184:1 477:1 504:3 679:5 686:1 771:1 905:2 948:1 969:1 1072:2 1102:1 1214:1 1216:1 1222:1 1223:1 1224:2 1230:3 1239:2 1249:5 1252:1 1253:1 1254:1 1256:6
-1 184:1 504:3 679:5 686:2 771:1 905:2 948:1 969:1 1072:2 1222:1 1223:1 1224:2 1230:3 1239:2 1249:5 1252:2 1253:1 1254:1 1256:6
-1 184:1 188:1 246:1 253:1 255:1 313:1 386:1 504:1 519:1 561:1 579:1 617:1 679:1 686:1 699:1 771:1 844:1 848:1 865:1 889:1 905:1 921:1 941:1 948:1 975:1 1010:1 1012:1 1123:1 1150:1 1220:1 1222:1 1224:1 1227:1 1230:1 1247:1 1249:1 1252:1 1253:1 1254:1 1256:2
-1 679:1 686:1 699:1 905:1 1144:1 1220:1 1224:1 1249:1 1252:1 1256:3
-1 184:1 504:2 679:4 686:2 771:1 905:2 948:1 969:1 1072:2 1222:1 1223:1 1224:2 1230:2 1239:2 1249:4 1252:2 1253:1 1254:1 1256:6
-1 448:1 1241:1 1256:3
-1 679:1 699:1 905:1 1220:1 1224:1 1249:1 1256:2
-1 165:1 346:1 372:1 548:1 679:1 831:1 915:1 1003:1 1141:1 1154:1 1249:1 1256:1
-1 196:1 679:1 699:1 905:1 969:1 975:1 1010:1 1072:1 1215:1 1220:1 1223:1 1224:1 1227:1 1239:1 1247:1 1249:1 1256:2
-1 184:1 504:1 679:1 905:1 1072:1 1224:1 1230:1 1239:1 1249:1 1253:1 1256:5
-1 188:1 235:1 246:1 253:1 255:1 377:1 379:1 386:1 437:1 486:1 504:1 519:1 561:1 572:1 578:1 579:1 590:1 595:1 617:1 634:1 638:1 643:1 697:1 699:1 744:1 840:1 844:1 848:1 865:1 866:1 871:1 889:1 910:1 921:1 941:1 1010:1 1012:1 1063:1 1097:1 1114:1 1123:1 1150:1 1212:1 1220:1 1230:1 1232:1 1247:1 1248:1 1256:3
-1 184:1 383:1 679:1 686:1 771:1 905:1 948:1 1072:1 1102:1 1216:1 1222:1 1224:1 1239:1 1246:1 1249:1 1252:1 1253:1 1254:1 1256:4
-1 184:1 679:1 686:1 771:1 905:1 948:1 969:1 1072:1 1222:1 1223:1 1224:1 1239:1 1249:1 1252:1 1253:1 1254:1 1256:2
-1 679:1 686:1 699:1 905:1 1072:1 1220:1 1224:1 1239:1 1249:1 1252:1 1256:3
-1 175:1 188:1 235:1 246:1 253:1 406:1 519:1 535:1 561:1 579:1 590:1 617:1 634:1 698:1 699:1 844:1 848:1 865:1 910:1 941:1 1012:1 1150:1 1220:1 1256:2
-1 235:1 246:1 253:1 255:1 561:1 579:1 592:1 679:1 699:1 844:1 865:1 889:1 905:1 975:1 1010:1 1012:1 1072:1 1220:1 1224:1 1227:1 1239:1 1244:1 1247:1 1249:1 1256:2
-1 175:1 188:1 235:1 246:1 253:1 255:1 330:1 406:1 504:1 519:1 535:1 561:1 579:1 590:1 617:1 634:1 699:1 771:1 778:1 840:1 844:1 848:1 865:1 889:1 905:1 910:1 941:1 975:1 1010:1 1012:1 1123:1 1150:1 1220:1 1222:1 1224:1 1227:1 1230:1 1247:1 1256:3
-1 679:1 699:1 1220:1 1249:1 1256:2
-1 679:1 699:2 1220:2 1249:1 1256:2
-1 184:1 336:1 679:1 686:1 699:1 771:1 853:1 905:1 948:1 969:1 1072:1 1102:1 1216:1 1220:1 1222:1 1223:1 1224:1 1239:1 1249:1 1252:1 1253:1 1254:1 1256:1
-1 184:1 209:1 679:1 699:1 905:1 948:1 969:1 1072:1 1220:1 1221:1 1223:1 1224:1 1239:1 1249:1 1253:1 1254:1 1256:2
-1 188:1 246:1 253:1 255:1 266:1 386:1 406:1 409:1 437:1 486:1 519:1 561:1 580:1 595:1 617:1 643:1 699:1 733:1 840:1 844:1 849:1 865:1 889:1 921:1 941:1 1010:1 1012:1 1050:1 1119:1 1123:1 1131:1 1220:1 1247:1 1256:2
-1 188:1 246:1 253:1 255:1 266:1 406:1 519:1 561:1 617:1 699:1 803:1 840:1 844:1 865:1 889:1 921:1 1012:1 1123:1 1220:1 1256:3
-1 184:1 209:1 260:1 512:1 679:1 699:1 853:1 905:1 976:1 1072:1 1220:1 1221:1 1224:1 1236:1 1239:1 1249:1 1253:1 1256:2
-1 679:1 699:2 1072:1 1220:2 1239:1 1249:1 1256:4
-1 571:1 679:1 773:1 783:1 905:1 1224:1 1249:1 1256:3 1258:2
-1 232:1 477:1 504:1 679:1 686:1 771:1 845:1 905:1 907:1 948:1 975:1 1072:1 1102:1 1214:1 1216:1 1222:1 1224:1 1225:1 1227:1 1230:1 1238:1 1239:1 1249:1 1252:1 1254:1 1256:1
-1 184:1 679:1 686:1 905:1 1080:1 1224:1 1249:1 1252:1 1253:1 1256:2
-1 184:1 232:1 395:1 477:1 504:1 679:1 771:1 905:1 948:1 1072:1 1102:1 1214:1 1216:1 1222:1 1224:1 1230:1 1238:1 1239:1 1249:1 1253:1 1254:1 1256:2
-1 448:1 1241:1 1256:3
-1 679:1 699:1 853:1 905:1 948:1 1220:1 1224:1 1249:1 1254:1 1256:2
-1 184:1 679:1 686:1 771:1 905:1 948:1 969:1 1072:1 1222:1 1223:1 1224:1 1239:1 1249:1 1252:1 1253:1 1254:1 1256:3
-1 679:1 686:1 699:1 771:1 853:1 905:1 969:1 1072:1 1220:1 1222:1 1223:1 1224:1 1239:1 1249:1 1252:1 1256:1
-1 1014:1 1256:1
-1 184:1 341:1 449:1 679:1 686:1 692:1 699:2 768:1 789:1 905:1 1088:1 1207:1 1220:2 1224:1 1249:1 1252:1 1253:1 1256:5 1258:35
-1 184:1 383:1 504:1 679:1 686:1 771:1 905:1 948:1 969:1 987:1 1072:1 1102:1 1136:1 1216:1 1222:1 1223:1 1224:1 1230:1 1235:1 1239:1 1246:1 1249:1 1252:1 1253:1 1254:1 1256:5
-1 184:1 355:1 679:1 699:1 905:1 969:1 1010:1 1072:1 1220:1 1223:1 1224:1 1239:1 1247:1 1249:1 1253:1 1256:2
-1 679:1 699:2 1220:2 1249:1 1256:3
-1 679:1 699:2 1220:2 1249:1 1256:2
-1 372:1 679:1 831:1 1122:1 1249:1 1256:2
-1 372:1 679:1 699:2 831:1 905:1 948:1 1172:1 1220:2 1224:1 1249:1 1254:1 1256:2
-1 679:1 699:1 727:1 1220:1 1249:1 1256:3
-1 1014:1 1256:1
-1 1014:1 1256:1
-1 448:1 1241:1 1256:3
-1 184:1 459:31 504:1 679:1 686:1 699:2 771:1 905:1 948:1 1072:1 1102:1 1216:1 1220:2 1222:1 1224:1 1230:1 1239:1 1249:1 1252:1 1253:1 1254:1 1256:2
-1 188:1 246:1 253:1 255:1 266:1 458:1 486:1 519:1 561:1 597:1 617:1 643:1 645:1 699:1 844:1 865:1 889:1 921:1 941:1 1010:1 1012:1 1123:1 1220:1 1247:1 1256:1
-1 448:1 1241:1 1256:3
-1 504:1 679:1 699:1 771:1 975:1 1010:1 1072:1 1220:1 1222:1 1227:1 1230:1 1239:1 1247:1 1249:1 1256:1
-1 679:1 699:1 1010:1 1188:1 1220:1 1247:1 1249:1 1256:2
-1 679:1 699:1 905:1 1144:1 1220:1 1224:1 1249:1 1256:2
-1 579:1 679:1 686:1 1010:1 1247:1 1249:1 1252:1 1256:1
-1 679:1 905:1 1102:1 1216:1 1224:1 1249:1 1256:4
-1 184:1 322:1 504:1 679:1 686:1 699:1 771:1 905:1 948:1 958:1 969:1 975:1 1072:1 1102:1 1216:1 1220:1 1222:1 1223:1 1224:1 1227:1 1230:1 1239:1 1249:1 1252:1 1253:1 1254:1 1256:2
-1 184:1 318:1 395:1 679:1 686:1 771:1 825:1 905:1 948:1 969:1 1072:1 1102:1 1216:1 1222:1 1223:1 1224:1 1239:1 1249:1 1252:1 1253:1 1254:1 1256:2
-1 246:1 253:1 561:1 679:1 699:1 844:1 865:1 905:1 948:1 975:1 1012:1 1220:1 1224:1 1227:1 1249:1 1254:1 1256:2
-1 246:1 253:1 504:1 561:1 579:1 679:1 699:1 844:1 865:1 1012:1 1220:1 1230:1 1249:1 1256:2
-1 448:1 1241:1 1256:2
-1 679:1 699:2 1220:2 1249:1 1256:2
-1 679:1 699:2 1220:2 1249:1 1256:2
-1 184:1 504:1 679:4 905:2 1072:3 1224:2 1230:1 1239:3 1249:4 1253:1 1256:4
-1 679:1 1249:1 1256:2
-1 448:1 1241:1 1256:3
-1 448:1 1241:1 1256:2
-1 246:1 253:1 268:1 504:1 509:1 519:1 561:1 644:1 679:1 686:1 699:1 735:1 744:1 771:1 844:1 848:1 865:1 905:1 975:1 1009:1 1010:1 1012:1 1072:1 1217:1 1220:1 1222:1 1224:1 1227:1 1230:1 1233:1 1239:1 1247:1 1248:1 1249:1 1252:1 1256:1
-1 448:1 1241:1 1256:3
-1 679:1 1249:1 1256:1
-1 246:1 253:1 255:1 519:1 561:1 699:1 844:1 865:1 1010:1 1012:1 1131:1 1150:1 1220:1 1247:1 1256:2
-1 184:1 679:1 686:1 771:1 905:1 948:1 1072:1 1222:1 1224:1 1239:1 1249:1 1252:1 1253:1 1254:1 1256:2
-1 448:1 1241:1 1256:3
-1 448:1 1241:1 1256:3
-1 184:1 188:1 210:1 235:1 246:1 253:1 255:1 268:1 406:1 437:1 458:1 486:1 509:1 519:1 561:1 566:1 579:1 590:1 617:1 634:1 640:1 699:1 710:1 744:1 844:1 848:1 865:1 870:1 889:1 905:1 913:1 921:1 941:1 948:1 1010:1 1012:1 1087:1 1097:1 1131:1 1150:1 1217:1 1220:1 1224:1 1233:1 1247:1 1248:1 1253:1 1254:1 1255:1 1256:3
-1 448:1 1241:1 1256:3
-1 679:1 699:1 1220:1 1249:1 1256:5
-1 448:1 1241:1 1256:2
-1 246:1 253:1 561:1 579:1 679:1 686:1 699:1 844:1 865:1 905:1 975:1 1012:1 1072:1 1220:1 1224:1 1227:1 1239:1 1249:1 1252:1 1256:2
-1 448:1 1241:1 1256:4
-1 289:1 699:1 1220:1 1256:1
-1 679:1 699:1 905:1 1102:1 1216:1 1220:1 1224:1 1249:1 1256:2
-1 679:1 771:1 1222:1 1249:1 1256:2
-1 504:1 679:1 869:1 905:1 948:1 1072:1 1224:1 1230:1 1239:1 1243:1 1249:1 1254:1 1256:2
-1 184:1 504:1 679:1 686:1 771:1 905:1 948:1 969:1 1072:1 1087:1 1222:1 1223:1 1224:1 1230:1 1239:1 1249:1 1252:1 1253:1 1254:1 1255:1 1256:4
-1 168:1 184:1 383:1 679:1 686:1 699:1 771:1 905:1 948:1 1039:1 1072:1 1102:1 1216:1 1220:1 1222:1 1224:1 1239:1 1240:1 1246:1 1249:1 1252:1 1253:1 1254:1 1256:2
-1 184:1 504:3 679:5 686:2 771:1 905:2 948:1 969:1 1072:3 1102:1 1216:1 1222:1 1223:1 1224:2 1230:3 1239:3 1249:5 1252:2 1253:1 1254:1 1256:6
-1 184:1 196:1 383:1 679:1 686:1 905:1 948:1 975:1 987:1 1072:1 1102:1 1215:1 1216:1 1224:1 1227:1 1235:1 1239:1 1246:1 1249:1 1252:1 1253:1 1254:1 1256:2
-1 184:1 196:1 311:1 383:1 679:1 686:1 905:1 948:1 975:1 987:1 1072:1 1102:1 1215:1 1216:1 1224:1 1227:1 1235:1 1239:1 1246:1 1249:1 1252:1 1253:1 1254:1 1256:2
-1 679:1 699:1 905:1 1072:1 1220:1 1224:1 1239:1 1249:1 1256:2
-1 679:1 905:1 948:1 969:1 1072:1 1102:1 1216:1 1223:1 1224:1 1239:1 1249:1 1254:1 1256:2
-1 679:1 762:1 868:1 891:1 905:1 948:1 1218:1 1224:1 1249:1 1254:1 1256:1
-1 1014:1 1256:1
-1 168:1 184:1 318:1 504:1 638:1 679:1 686:1 694:1 717:1 762:1 771:1 868:1 905:1 948:1 969:1 975:1 1072:1 1102:1 1216:1 1218:1 1222:1 1223:1 1224:1 1227:1 1230:1 1239:1 1240:1 1249:1 1252:1 1253:1 1254:1 1256:1
-1 448:1 1241:1 1256:3
-1 679:1 686:1 905:1 948:1 1072:1 1224:1 1239:1 1249:1 1252:1 1254:1 1256:2
-1 679:1 1249:1 1256:1
-1 184:1 383:1 504:2 679:4 905:2 948:1 1072:2 1102:1 1216:1 1224:2 1230:2 1239:2 1246:1 1249:4 1253:1 1254:1 1256:6
-1 679:1 699:2 1220:2 1249:1 1256:2
-1 322:1 383:1 397:1 679:1 699:1 771:1 869:1 905:1 948:1 1039:1 1072:1 1220:1 1222:1 1224:1 1239:1 1243:1 1246:1 1249:1 1254:1 1256:3 1258:9
-1 679:1 699:1 905:1 1144:1 1220:1 1224:1 1249:1 1256:2
-1 184:1 504:1 679:2 905:2 1072:2 1224:2 1230:1 1239:2 1249:2 1253:1 1256:6
-1 383:1 504:1 679:1 686:1 771:1 905:1 948:1 969:1 975:1 1072:1 1222:1 1223:1 1224:1 1227:1 1230:1 1239:1 1246:1 1249:1 1252:1 1254:1 1256:2
-1 679:1 883:1 905:1 1224:1 1249:1 1256:2
-1 196:1 236:1 383:1 504:1 679:1 686:1 771:1 831:1 905:1 948:1 1072:1 1215:1 1222:1 1224:1 1230:1 1239:1 1246:1 1249:1 1252:1 1254:1 1256:2 1258:40
-1 168:1 184:1 278:1 286:1 302:1 349:1 445:1 604:1 621:1 628:1 642:1 652:1 666:1 679:1 686:1 878:1 905:1 948:1 975:1 1072:1 1185:1 1219:1 1224:1 1227:1 1229:1 1231:1 1234:1 1237:1 1239:1 1240:1 1242:1 1249:1 1250:1 1252:1 1253:1 1254:1 1256:2
-1 448:1 1241:1 1256:3
-1 237:1 384:1 679:1 699:1 905:1 948:1 1102:1 1216:1 1220:1 1224:1 1249:1 1254:1 1256:2
-1 384:1 679:1 699:1 905:1 948:1 1102:1 1216:1 1220:1 1224:1 1249:1 1254:1 1256:2
-1 384:1 679:1 699:1 905:1 948:1 1102:1 1216:1 1220:1 1224:1 1249:1 1254:1 1256:2
-1 679:1 1249:1 1256:2
-1 184:1 679:1 686:1 771:1 905:1 948:1 969:1 1072:1 1222:1 1223:1 1224:1 1239:1 1249:1 1252:1 1253:1 1254:1 1256:2
-1 1014:1 1256:1
-1 184:1 504:1 679:3 686:1 771:1 905:2 948:1 969:1 987:1 1072:2 1102:1 1216:1 1222:1 1223:1 1224:2 1230:1 1235:1 1239:2 1249:3 1252:1 1253:1 1254:1 1256:6
-1 679:1 699:1 905:1 1144:1 1220:1 1224:1 1249:1 1256:3
-1 175:1 235:1 246:1 253:1 486:1 504:1 561:1 579:1 634:1 679:1 699:1 844:1 865:1 889:1 905:1 975:1 1010:1 1012:1 1072:1 1123:1 1220:1 1224:1 1227:1 1230:1 1239:1 1247:1 1249:1 1256:3
-1 141:1 184:1 246:1 253:1 362:1 561:1 638:1 679:1 686:1 699:1 744:1 844:1 865:1 905:1 913:1 948:1 1010:1 1012:1 1072:1 1102:1 1216:1 1220:1 1224:1 1239:1 1247:1 1248:1 1249:1 1252:1 1253:1 1254:1 1256:2
-1 184:1 350:1 619:1 679:1 686:1 762:1 868:1 891:1 905:1 948:1 977:1 1072:1 1102:1 1216:1 1218:1 1224:1 1239:1 1249:1 1252:1 1253:1 1254:1 1256:1
-1 504:1 596:1 679:1 771:1 905:1 907:1 975:1 1072:1 1222:1 1224:1 1225:1 1227:1 1230:1 1239:1 1249:1 1256:2
-1 504:1 679:1 699:1 771:1 905:1 969:1 1072:1 1220:1 1222:1 1223:1 1224:1 1230:1 1239:1 1249:1 1256:1 1258:1
-1 227:1 679:1 699:1 720:1 789:1 1220:1 1249:1 1256:6
-1 448:1 1241:1 1256:5
-1 184:1 322:1 372:1 383:1 444:1 679:1 686:1 699:1 771:1 825:1 831:1 869:1 905:1 948:1 1039:1 1072:1 1102:1 1216:1 1220:1 1222:1 1224:1 1239:1 1243:1 1246:1 1249:1 1252:1 1253:1 1254:1 1256:2 1258:61
-1 184:1 679:1 686:1 771:1 905:1 948:1 969:1 1072:1 1222:1 1223:1 1224:1 1239:1 1249:1 1252:1 1253:1 1254:1 1256:3
-1 169:1 1010:1 1247:1 1256:2
-1 679:1 1010:1 1247:1 1249:1 1256:1
-1 184:1 504:1 679:1 686:1 699:1 771:1 905:1 948:1 1072:1 1102:1 1216:1 1220:1 1222:1 1224:1 1230:1 1239:1 1249:1 1252:1 1253:1 1254:1 1256:4
-1 679:1 699:1 913:1 1220:1 1249:1 1256:2
-1 679:1 905:1 948:1 1072:1 1102:1 1216:1 1224:1 1239:1 1249:1 1254:1 1256:1
-1 448:1 1241:1 1256:3
-1 184:1 232:1 246:1 253:1 314:1 504:1 561:1 579:1 592:1 679:1 699:1 771:1 844:1 865:1 905:1 914:1 948:1 1010:1 1012:1 1072:1 1220:1 1222:1 1224:1 1230:1 1238:1 1239:1 1244:1 1245:1 1247:1 1249:1 1253:1 1254:1 1256:1
-1 504:1 679:1 699:1 771:1 905:1 1072:1 1220:1 1222:1 1224:1 1230:1 1239:1 1249:1 1256:2
-1 547:1 679:1 1249:1 1256:2
-1 679:1 699:1 905:1 1220:1 1224:1 1249:1 1256:4
-1 196:1 679:1 699:2 869:1 1215:1 1220:2 1243:1 1249:1 1256:3
-1 205:1 679:1 771:1 905:1 1222:1 1224:1 1249:1 1256:2
-1 205:1 679:1 771:1 905:1 1222:1 1224:1 1249:1 1256:2
-1 353:1 420:1 562:1 679:1 699:1 746:1 905:1 1220:1 1224:1 1249:1 1256:3
-1 372:1 649:1 679:1 699:1 831:1 1220:1 1249:1 1256:2
-1 679:1 869:1 1072:1 1239:1 1243:1 1249:1 1256:2
-1 596:1 679:1 1072:1 1239:1 1249:1 1256:1
-1 679:1 699:2 869:1 1220:2 1243:1 1249:1 1256:3
-1 184:1 504:2 679:4 686:1 771:1 869:1 905:2 948:1 969:1 987:1 1072:2 1222:1 1223:1 1224:2 1230:2 1235:1 1239:2 1243:1 1249:4 1252:1 1253:1 1254:1 1256:6
-1 184:1 504:2 679:4 869:1 905:2 948:1 969:1 1072:2 1102:1 1216:1 1223:1 1224:2 1230:2 1239:2 1243:1 1249:4 1253:1 1254:1 1256:6
-1 168:1 184:1 196:1 283:1 383:1 504:1 522:1 638:1 679:1 686:1 718:1 735:1 744:1 762:1 771:1 905:1 907:1 948:1 958:1 969:1 975:1 1072:1 1087:1 1215:1 1218:1 1222:1 1223:1 1224:1 1225:1 1227:1 1228:1 1230:1 1239:1 1240:1 1246:1 1248:1 1249:1 1252:1 1253:1 1254:1 1255:1 1256:2
-1 448:1 1241:1 1256:3
-1 448:1 1241:1 1256:2
-1 254:1 346:1 504:2 679:4 905:2 1072:1 1224:2 1230:2 1239:1 1249:4 1256:5
-1 184:1 372:1 504:3 679:4 771:1 831:2 905:2 948:1 969:1 1072:2 1102:1 1216:1 1222:1 1223:1 1224:2 1230:3 1239:2 1249:4 1253:1 1254:1 1256:6
-1 346:1 372:1 442:1 679:1 831:1 1122:1 1249:1 1256:4
-1 184:1 679:1 686:1 771:1 905:1 948:1 1072:1 1222:1 1224:1 1239:1 1249:1 1252:1 1253:1 1254:1 1256:2
-1 246:1 253:1 486:1 519:1 535:1 561:1 617:1 638:1 699:1 824:1 844:1 865:1 889:1 941:1 1012:1 1097:1 1123:1 1132:1 1150:1 1220:1 1256:2
-1 679:1 699:1 1220:1 1249:1 1256:5
-1 679:1 699:2 1220:2 1249:1 1256:3
-1 448:1 1241:1 1256:4
-1 1014:1 1256:1
-1 121:1 175:1 188:1 235:1 243:1 246:1 253:1 334:1 406:1 410:1 480:1 486:1 519:1 535:1 561:1 579:1 590:1 597:1 617:1 634:1 685:1 698:1 699:1 700:1 769:1 806:1 844:1 848:1 865:1 866:1 884:1 889:1 905:1 908:1 910:1 914:1 921:1 941:1 972:1 1008:1 1010:1 1012:1 1107:1 1150:1 1176:1 1220:1 1224:1 1247:1 1256:3
-1 188:1 246:1 253:1 406:1 519:1 561:1 617:1 699:1 844:1 848:1 865:1 941:1 1012:1 1220:1 1256:2
-1 448:1 1241:1 1256:2
-1 184:1 196:1 679:1 686:1 905:1 948:1 987:1 1072:1 1102:1 1215:1 1216:1 1224:1 1235:1 1239:1 1249:1 1252:1 1253:1 1254:1 1256:1
-1 1014:1 1256:1
-1 184:1 504:1 679:2 905:2 1072:2 1224:2 1230:1 1239:2 1249:2 1253:1 1256:7
-1 184:1 504:1 579:1 679:1 686:1 699:1 754:1 762:1 850:1 905:1 948:1 1010:1 1072:1 1218:1 1220:1 1224:1 1230:1 1239:1 1247:1 1249:1 1252:1 1253:1 1254:1 1256:2
-1 184:1 679:1 686:1 771:1 905:1 948:1 969:1 1072:1 1222:1 1223:1 1224:1 1239:1 1249:1 1252:1 1253:1 1254:1 1256:3
-1 1014:1 1256:1
-1 1256:3
-1 679:1 699:1 905:1 1010:1 1220:1 1224:1 1247:1 1249:1 1256:2
-1 184:1 196:1 283:1 383:1 509:1 592:1 679:1 686:1 699:1 771:1 905:1 948:1 965:1 975:1 1072:1 1102:1 1215:1 1216:1 1220:1 1222:1 1224:1 1227:1 1228:1 1233:1 1239:1 1244:1 1246:1 1249:1 1252:1 1253:1 1254:1 1256:4
-1 448:1 1241:1 1256:3
-1 184:1 504:2 679:4 686:1 905:2 948:1 969:1 1072:2 1223:1 1224:2 1230:2 1239:2 1249:4 1252:1 1253:1 1254:1 1256:6
-1 679:1 699:1 771:1 842:1 1220:1 1222:1 1249:1 1256:1
-1 332:1 504:1 683:1 771:1 1222:1 1230:1 1256:2
-1 679:1 699:2 1220:2 1249:1 1256:5
-1 679:1 686:1 905:1 1072:1 1224:1 1239:1 1249:1 1252:1 1256:3
-1 448:1 1241:1 1256:2
-1 177:1 188:1 246:1 253:1 255:1 266:1 453:1 519:1 561:1 579:1 590:1 617:1 643:1 699:1 761:1 824:1 844:1 865:1 889:1 921:1 941:1 1010:1 1012:1 1062:1 1097:1 1119:1 1220:1 1247:1 1256:3
-1 184:1 679:1 686:1 771:1 905:1 948:1 969:1 1072:1 1222:1 1223:1 1224:1 1239:1 1249:1 1252:1 1253:1 1254:1 1256:3
-1 448:1 1241:1 1256:3
-1 184:1 236:1 504:3 679:5 686:1 771:2 831:3 905:2 948:1 969:1 987:1 1072:2 1087:1 1102:1 1216:1 1222:2 1223:1 1224:2 1230:3 1235:1 1239:2 1249:5 1252:1 1253:1 1254:1 1255:1 1256:6
-1 448:1 1241:1 1256:3
-1 285:1 679:1 1249:1 1256:3
-1 250:1 258:1 372:1 679:1 831:1 1122:1 1249:1 1256:1
-1 258:1 372:1 679:1 831:1 1122:1 1249:1 1256:1
-1 250:1 258:1 372:1 679:1 831:1 1122:1 1249:1 1256:1
-1 198:1 244:1 469:1 679:1 905:1 967:1 1162:1 1197:1 1224:1 1249:1 1256:1
-1 1014:1 1256:1
-1 679:1 1249:1 1256:2
-1 132:1 279:1 420:1 562:1 679:1 699:2 746:1 947:1 1106:1 1220:2 1249:1 1256:2
-1 679:1 686:1 905:1 948:1 1072:1 1102:1 1216:1 1224:1 1239:1 1249:1 1252:1 1254:1 1256:1
-1 610:1 679:1 1249:1 1256:3
-1 610:1 679:1 1249:1 1256:3
-1 610:1 679:1 1249:1 1256:3
-1 610:1 679:1 1249:1 1256:3
-1 483:1 679:1 905:1 948:1 1064:1 1072:1 1165:1 1224:1 1239:1 1249:1 1254:1 1256:2
-1 184:1 236:1 504:2 679:5 686:2 692:1 771:1 869:1 905:3 948:1 969:1 1072:2 1102:1 1216:1 1222:1 1223:1 1224:3 1230:2 1239:2 1243:1 1249:5 1252:2 1253:1 1254:1 1256:6
-1 679:1 686:1 699:1 905:1 975:1 1220:1 1224:1 1227:1 1249:1 1252:1 1256:6
-1 138:1 141:1 177:1 188:1 246:1 253:1 255:1 378:1 386:1 406:1 422:1 429:1 430:1 437:1 453:1 458:1 486:1 504:1 519:1 561:1 579:1 590:1 617:1 634:1 643:1 644:1 699:1 705:1 744:1 750:1 751:1 824:1 844:1 848:1 865:1 889:1 921:1 941:1 1008:1 1009:1 1010:1 1012:1 1050:1 1114:1 1119:1 1123:1 1131:1 1150:1 1176:1 1212:1 1220:1 1230:1 1247:1 1248:1 1256:2
-1 246:1 253:1 255:1 458:1 486:1 519:1 561:1 679:1 686:1 699:1 844:1 865:1 921:1 941:1 1010:1 1012:1 1220:1 1247:1 1249:1 1252:1 1256:2
-1 175:1 188:1 235:1 246:1 253:1 255:1 386:1 406:1 486:1 504:1 519:1 535:1 561:1 579:1 580:1 617:1 634:1 645:1 696:1 699:1 715:1 722:1 840:1 844:1 848:1 865:1 889:1 921:1 931:1 941:1 1010:1 1012:1 1110:1 1123:1 1131:1 1150:1 1220:1 1230:1 1247:1 1256:2
-1 246:1 561:1 579:1 679:1 699:1 844:1 865:1 975:1 1012:1 1072:1 1096:1 1220:1 1227:1 1239:1 1249:1 1256:1
-1 246:1 253:1 561:1 679:1 699:1 844:1 865:1 905:1 1012:1 1220:1 1224:1 1249:1 1256:3
-1 1014:1 1256:1
-1 184:1 679:1 686:1 771:1 905:1 948:1 969:1 1072:1 1222:1 1223:1 1224:1 1239:1 1249:1 1252:1 1253:1 1254:1 1256:3
-1 448:1 1241:1 1256:3
-1 232:1 504:1 679:1 699:1 771:1 905:1 1010:1 1072:1 1220:1 1222:1 1224:1 1230:1 1238:1 1239:1 1247:1 1249:1 1256:2
-1 679:1 1249:1 1256:1
-1 184:1 504:1 579:1 679:1 686:1 699:1 761:1 905:1 948:1 1010:1 1072:1 1220:1 1224:1 1230:1 1239:1 1247:1 1249:1 1252:1 1253:1 1254:1 1256:1
-1 448:1 1241:1 1256:2
-1 679:1 699:1 1072:1 1220:1 1239:1 1249:1 1256:3
-1 184:1 383:1 395:1 477:1 504:1 679:1 771:1 905:1 948:1 1072:1 1102:1 1155:1 1214:1 1216:1 1222:1 1224:1 1230:1 1239:1 1246:1 1249:1 1253:1 1254:1 1256:2
-1 184:1 383:1 395:1 477:1 504:1 679:1 771:1 905:1 948:1 1072:1 1102:1 1155:1 1214:1 1216:1 1222:1 1224:1 1230:1 1239:1 1246:1 1249:1 1253:1 1254:1 1256:2
-1 150:1 243:1 246:1 253:1 455:1 486:1 504:1 519:1 535:1 561:1 569:1 579:1 590:1 617:1 621:1 643:1 835:1 844:1 848:1 865:1 889:1 921:1 941:1 1012:1 1062:1 1123:1 1173:1 1195:1 1219:1 1230:1 1256:1
-1 635:1 679:1 686:1 699:1 905:1 948:1 1072:1 1220:1 1224:1 1239:1 1249:1 1252:1 1254:1 1256:2
-1 184:1 383:1 504:2 635:1 679:4 905:2 948:1 969:1 1072:2 1223:1 1224:2 1230:2 1239:2 1246:1 1249:4 1253:1 1254:1 1256:6
-1 184:1 322:1 679:1 686:1 699:1 905:1 948:1 1072:1 1144:1 1220:1 1224:1 1239:1 1249:1 1252:1 1253:1 1254:1 1256:2
-1 184:1 504:2 679:4 686:1 869:1 905:2 948:1 1072:2 1224:2 1230:2 1239:2 1243:1 1249:4 1252:1 1253:1 1254:1 1256:6
-1 679:1 1249:1 1256:1
-1 679:1 1249:1 1256:2
-1 448:1 1241:1 1256:3
-1 1148:1 1256:2
-1 184:1 679:1 686:1 699:2 771:1 869:1 905:1 948:1 1072:1 1102:1 1216:1 1220:2 1222:1 1224:1 1239:1 1243:1 1249:1 1252:1 1253:1 1254:1 1256:2
-1 679:1 699:1 1220:1 1249:1 1256:2
-1 184:1 209:1 313:1 504:1 638:1 679:1 686:1 771:1 905:1 948:1 969:1 975:1 1072:1 1102:1 1216:1 1221:1 1222:1 1223:1 1224:1 1227:1 1230:1 1239:1 1249:1 1252:1 1253:1 1254:1 1256:2
-1 184:1 504:1 679:1 686:1 771:1 905:1 948:1 969:1 1072:1 1102:1 1216:1 1222:1 1223:1 1224:1 1230:1 1239:1 1249:1 1252:1 1253:1 1254:1 1256:1
-1 579:1 638:1 679:1 699:1 905:1 969:1 1072:1 1220:1 1223:1 1224:1 1239:1 1249:1 1256:1
-1 188:1 246:1 253:1 255:1 266:1 519:1 617:1 621:1 643:1 844:1 848:1 865:1 921:1 941:1 1010:1 1012:1 1062:1 1145:1 1173:1 1219:1 1247:1 1256:2
-1 196:1 579:1 679:1 699:1 905:1 969:1 1010:1 1072:1 1215:1 1220:1 1223:1 1224:1 1239:1 1247:1 1249:1 1256:1 1258:3
-1 138:1 246:1 253:1 255:1 519:1 561:1 579:1 617:1 634:1 638:1 643:1 697:1 699:1 744:1 844:1 865:1 921:1 941:1 1010:1 1012:1 1150:1 1220:1 1247:1 1248:1 1256:1
-1 184:1 504:1 679:1 686:1 771:1 905:1 948:1 1072:1 1102:1 1216:1 1222:1 1224:1 1230:1 1239:1 1249:1 1252:1 1253:1 1254:1 1256:1
-1 448:1 1241:1 1256:4
-1 504:1 544:1 611:1 699:1 818:1 912:1 917:1 1010:1 1021:1 1030:1 1220:1 1230:1 1247:1 1256:1
-1 153:1 243:1 290:1 312:1 325:1 415:1 490:1 504:1 561:1 629:1 659:1 699:1 805:1 867:1 875:1 876:1 941:1 973:1 1010:1 1012:1 1013:1 1115:1 1123:1 1128:1 1137:1 1220:1 1230:1 1247:1 1256:1
-1 177:1 246:1 253:1 255:1 266:1 378:1 437:1 458:1 504:1 519:1 561:1 579:1 584:1 617:1 685:1 699:1 806:1 840:1 844:1 848:1 865:1 889:1 894:1 910:1 921:1 941:1 1010:1 1012:1 1035:1 1097:1 1123:1 1220:1 1230:1 1247:1 1256:2
-1 448:1 1241:1 1256:3
-1 562:1 679:1 699:1 1220:1 1249:1 1256:2
-1 448:1 1241:1 1256:3
-1 175:1 184:1 188:1 235:1 236:1 246:1 253:1 255:1 330:1 519:1 535:1 561:1 579:1 590:1 592:1 634:1 679:1 698:1 699:1 710:1 751:1 840:1 844:1 848:1 851:1 865:1 889:1 905:1 937:1 941:1 948:1 975:1 1010:1 1012:1 1072:1 1150:1 1210:1 1220:1 1224:1 1227:1 1239:1 1244:1 1247:1 1249:1 1253:1 1254:1 1256:3
-1 448:1 1241:1 1256:3
-1 448:1 1241:1 1256:3
-1 448:1 1241:1 1256:3
-1 184:1 679:1 699:1 905:1 1072:1 1220:1 1224:1 1239:1 1249:1 1253:1 1256:2
-1 679:1 1249:1 1256:1
-1 184:1 318:1 383:1 444:1 576:1 679:1 686:1 771:1 825:1 905:1 948:1 1072:1 1102:1 1216:1 1222:1 1224:1 1239:1 1246:1 1249:1 1252:1 1253:1 1254:1 1256:2 1258:2
-1 679:1 686:1 699:1 905:1 1072:1 1220:1 1224:1 1239:1 1249:1 1252:1 1256:3
-1 184:1 504:1 679:4 905:2 1072:3 1224:2 1230:1 1239:3 1249:4 1253:1 1256:4
-1 128:1 141:1 177:1 188:1 191:1 246:1 253:1 255:1 266:1 406:1 422:1 429:1 455:1 519:1 561:1 569:1 617:1 638:1 699:1 824:1 844:1 865:1 889:1 921:1 941:1 1010:1 1012:1 1220:1 1247:1 1256:2
-1 384:1 679:1 699:1 745:1 1220:1 1249:1 1256:3
-1 227:1 679:1 699:1 720:1 789:1 1220:1 1249:1 1256:6
-1 227:1 679:1 699:1 720:1 789:1 1220:1 1249:1 1256:6
-1 227:1 679:1 699:1 720:1 789:1 1220:1 1249:1 1256:5
-1 227:1 679:1 699:1 720:1 789:1 1220:1 1249:1 1256:5
-1 420:1 562:1 679:1 699:2 746:1 965:1 1220:2 1249:1 1256:2
-1 246:1 253:1 435:1 519:1 579:1 621:1 844:1 848:1 865:1 1010:1 1012:1 1062:1 1173:1 1219:1 1247:1 1256:2
-1 246:1 253:1 435:1 519:1 579:1 621:1 844:1 848:1 865:1 1010:1 1012:1 1062:1 1173:1 1219:1 1247:1 1256:2
-1 679:1 699:1 1220:1 1249:1 1256:6
-1 448:1 1241:1 1256:3
-1 188:1 235:1 246:1 253:1 255:1 406:1 486:1 504:1 519:1 561:1 579:1 617:1 634:1 696:1 699:1 715:1 722:1 744:1 760:1 840:1 844:1 848:1 865:1 889:1 921:1 941:1 1012:1 1063:1 1097:1 1150:1 1195:1 1220:1 1230:1 1232:1 1248:1 1256:2
-1 188:1 246:1 253:1 255:1 406:1 458:1 492:1 504:1 540:1 561:1 579:1 617:1 699:1 715:1 722:1 840:1 844:1 865:1 889:1 921:1 941:1 1011:1 1012:1 1123:1 1131:1 1150:1 1220:1 1230:1 1256:2
-1 188:1 235:1 246:1 253:1 406:1 430:1 486:1 512:1 519:1 561:1 579:1 617:1 634:1 699:1 741:1 744:1 840:1 842:1 844:1 848:1 851:1 865:1 866:1 921:1 941:1 1010:1 1012:1 1123:1 1145:1 1150:1 1220:1 1236:1 1247:1 1248:1 1256:2
-1 161:1 246:1 253:1 255:1 330:1 561:1 579:1 638:1 699:1 715:1 844:1 865:1 889:1 905:1 941:1 986:1 1012:1 1220:1 1224:1 1256:2
-1 235:1 246:1 253:1 255:1 504:1 561:1 579:1 634:1 638:1 696:1 699:1 715:1 722:1 844:1 865:1 889:1 921:1 931:1 941:1 951:1 1011:1 1012:1 1131:1 1150:1 1220:1 1230:1 1256:2
-1 448:1 1241:1 1256:3
-1 448:1 1241:1 1256:2
-1 246:1 253:1 255:1 283:1 519:1 561:1 617:1 699:1 844:1 865:1 889:1 921:1 1010:1 1012:1 1220:1 1228:1 1247:1 1256:2
-1 448:1 1241:1 1256:3
-1 227:1 298:1 536:1 679:1 699:2 789:1 897:1 934:1 1072:1 1220:2 1239:1 1249:1 1256:4
-1 679:1 905:1 1224:1 1249:1 1256:2
-1 448:1 1241:1 1256:3
-1 448:1 1241:1 1256:3
-1 448:1 1241:1 1256:3
-1 679:1 699:1 1010:1 1188:1 1220:1 1247:1 1249:1 1256:2
-1 184:1 209:1 504:1 638:1 679:1 686:1 905:1 969:1 975:1 1072:1 1221:1 1223:1 1224:1 1227:1 1230:1 1239:1 1249:1 1252:1 1253:1 1256:1 1258:3
-1 184:1 679:1 905:1 948:1 969:1 1072:1 1223:1 1224:1 1239:1 1249:1 1253:1 1254:1 1256:2
-1 184:1 504:1 679:1 771:1 905:1 948:1 958:1 975:1 1072:1 1222:1 1224:1 1227:1 1230:1 1239:1 1249:1 1253:1 1254:1 1256:1
-1 448:1 1241:1 1256:3
-1 679:1 1249:1 1256:1
-1 141:1 184:1 246:1 253:1 330:1 362:1 561:1 579:1 679:1 686:1 699:1 744:1 771:1 844:1 865:1 905:1 1012:1 1072:1 1220:1 1222:1 1224:1 1239:1 1248:1 1249:1 1252:1 1253:1 1256:2
-1 246:1 253:1 561:1 579:1 686:1 699:1 771:1 844:1 865:1 905:1 975:1 1012:1 1220:1 1222:1 1224:1 1227:1 1252:1 1256:3
-1 679:1 699:1 1220:1 1249:1 1256:2 1258:1
-1 679:1 699:1 1220:1 1249:1 1256:2 1258:1
-1 184:1 314:1 372:1 383:1 504:1 679:1 686:1 771:1 831:1 905:1 948:1 975:1 1072:1 1102:1 1216:1 1222:1 1224:1 1227:1 1230:1 1239:1 1245:1 1246:1 1249:1 1252:1 1253:1 1254:1 1256:2
-1 184:1 314:1 372:1 383:1 504:1 679:1 686:1 771:1 831:1 905:1 948:1 975:1 1072:1 1102:1 1216:1 1222:1 1224:1 1227:1 1230:1 1239:1 1245:1 1246:1 1249:1 1252:1 1253:1 1254:1 1256:3
-1 129:1 346:1 679:1 699:1 905:1 1220:1 1224:1 1249:1 1256:3
-1 184:1 504:1 679:4 905:2 1072:3 1224:2 1230:1 1239:3 1249:4 1253:1 1256:4
-1 141:1 196:1 246:1 253:1 265:1 396:1 504:1 561:1 566:1 579:1 679:1 699:1 844:1 865:1 889:1 905:1 969:1 975:1 987:1 1010:1 1012:1 1215:1 1220:1 1223:1 1224:1 1227:1 1230:1 1235:1 1247:1 1249:1 1256:2
-1 184:1 504:1 679:1 686:1 694:1 717:1 762:1 771:1 868:1 905:1 948:1 969:1 975:1 1072:1 1218:1 1222:1 1223:1 1224:1 1227:1 1230:1 1239:1 1249:1 1252:1 1253:1 1254:1 1256:1
-1 184:1 196:1 679:1 686:1 762:1 905:1 948:1 1072:1 1102:1 1215:1 1216:1 1218:1 1224:1 1239:1 1249:1 1252:1 1253:1 1254:1 1256:1
-1 184:1 679:1 686:1 771:1 905:1 948:1 969:1 1072:1 1222:1 1223:1 1224:1 1239:1 1249:1 1252:1 1253:1 1254:1 1256:2
-1 184:1 504:2 679:4 686:2 771:1 905:2 948:1 969:1 1072:2 1102:1 1216:1 1222:1 1223:1 1224:2 1230:2 1239:2 1249:4 1252:2 1253:1 1254:1 1256:6
-1 184:1 504:1 679:2 905:2 1072:2 1224:2 1230:1 1239:2 1249:2 1253:1 1256:7
-1 448:1 1241:1 1256:3
-1 243:1 246:1 253:1 255:1 266:1 386:1 406:1 437:1 486:1 519:1 561:1 617:1 699:1 844:1 848:1 865:1 921:1 941:1 1010:1 1012:1 1114:1 1119:1 1123:1 1220:1 1247:1 1256:2
-1 232:1 246:1 253:1 438:1 458:1 486:1 561:1 617:1 679:1 699:1 844:1 865:1 941:1 1010:1 1012:1 1035:1 1123:1 1220:1 1238:1 1247:1 1249:1 1256:2
-1 448:1 1241:1 1256:3
-1 448:1 1241:1 1256:2
-1 184:1 504:2 679:4 905:2 1072:3 1224:2 1230:2 1239:3 1249:4 1253:1 1256:6
-1 1014:1 1256:3
-1 1014:1 1256:2
-1 1014:1 1256:2
-1 1014:1 1256:2
-1 1014:1 1256:2
-1 1014:1 1256:2
-1 1014:1 1256:1
-1 1014:1 1256:1
-1 1014:1 1256:2
-1 1014:1 1256:1
-1 1014:1 1256:1
-1 1014:1 1256:1
-1 232:1 235:1 246:1 253:1 561:1 579:1 634:1 679:1 699:1 844:1 865:1 905:1 975:1 1012:1 1072:1 1220:1 1224:1 1227:1 1238:1 1239:1 1249:1 1256:3
-1 141:1 168:1 191:1 235:1 246:1 253:1 268:1 328:1 422:1 504:1 512:1 522:1 561:1 579:1 638:1 679:1 696:1 699:1 744:1 771:1 844:1 848:1 865:1 885:1 905:1 948:1 1012:1 1063:1 1072:1 1212:1 1217:1 1220:1 1222:1 1224:1 1230:1 1232:1 1236:1 1239:1 1240:1 1248:1 1249:1 1254:1 1256:1
-1 246:1 253:1 561:1 699:1 844:1 865:1 941:1 1011:1 1012:1 1150:1 1220:1 1256:2
-1 184:1 477:1 504:1 679:1 771:1 905:1 948:1 975:1 1072:1 1102:1 1214:1 1216:1 1222:1 1224:1 1227:1 1230:1 1239:1 1249:1 1253:1 1254:1 1256:1
-1 448:1 1241:1 1256:4
-1 448:1 1241:1 1256:3
-1 679:1 699:2 869:1 1220:2 1243:1 1249:1 1256:3
-1 679:1 699:2 1220:2 1249:1 1256:2
-1 188:1 246:1 253:1 458:1 519:1 561:1 579:1 699:1 824:1 844:1 848:1 865:1 941:1 1010:1 1012:1 1220:1 1247:1 1256:1
-1 202:1 610:1 679:1 765:1 1249:1 1256:2
-1 184:1 504:1 679:2 905:2 1072:2 1224:2 1230:1 1239:2 1249:2 1253:1 1256:7
-1 127:1 254:1 504:1 508:1 592:1 679:1 686:1 699:1 762:1 771:1 905:1 948:1 975:1 1072:1 1102:1 1116:1 1216:1 1218:1 1220:1 1222:1 1224:1 1227:1 1230:1 1239:1 1244:1 1249:1 1252:1 1254:1 1256:1 1258:43
-1 679:1 686:1 905:1 948:1 1072:1 1224:1 1239:1 1249:1 1252:1 1254:1 1256:2
-1 679:1 699:1 1072:1 1220:1 1239:1 1249:1 1256:2
-1 392:1 616:1 679:1 859:1 905:1 1101:1 1224:1 1249:1 1256:2
-1 168:1 184:1 314:1 504:1 638:1 679:1 686:1 699:1 771:1 905:1 948:1 958:1 969:1 975:1 1072:1 1220:1 1222:1 1223:1 1224:1 1227:1 1230:1 1239:1 1240:1 1245:1 1249:1 1252:1 1253:1 1254:1 1256:3
-1 246:1 253:1 393:1 406:1 410:1 453:1 486:1 519:1 555:1 561:1 617:1 695:1 699:1 700:1 840:1 844:1 848:1 865:1 871:1 941:1 957:1 1010:1 1012:1 1170:1 1187:1 1220:1 1247:1 1256:2
-1 504:1 679:1 686:1 699:1 771:1 905:1 1072:1 1220:1 1222:1 1224:1 1230:1 1239:1 1249:1 1252:1 1256:2
-1 184:1 504:1 679:1 686:1 771:1 905:1 948:1 969:1 1072:1 1102:1 1216:1 1222:1 1223:1 1224:1 1230:1 1239:1 1249:1 1252:1 1253:1 1254:1 1256:2
-1 246:1 253:1 255:1 406:1 437:1 519:1 561:1 579:1 580:1 633:1 679:1 686:1 699:1 840:1 844:1 865:1 905:1 921:1 941:1 969:1 1010:1 1012:1 1072:1 1123:1 1176:1 1179:1 1182:1 1212:1 1220:1 1223:1 1224:1 1239:1 1247:1 1249:1 1252:1 1256:3
-1 184:1 679:1 905:1 948:1 969:1 1072:1 1223:1 1224:1 1239:1 1249:1 1253:1 1254:1 1256:2
-1 184:1 679:1 905:1 948:1 969:1 1072:1 1223:1 1224:1 1239:1 1249:1 1253:1 1254:1 1256:2
-1 184:1 504:1 679:1 686:1 771:1 905:1 1072:1 1102:1 1216:1 1222:1 1224:1 1230:1 1239:1 1249:1 1252:1 1253:1 1256:1
-1 448:1 1241:1 1256:3
-1 184:1 504:1 679:2 905:2 1072:2 1224:2 1230:1 1239:2 1249:2 1253:1 1256:7
-1 504:1 638:1 679:1 686:1 699:1 709:1 735:1 744:1 762:1 771:1 828:1 842:1 905:1 937:1 948:1 975:1 1010:1 1072:1 1218:1 1220:1 1222:1 1224:1 1226:1 1227:1 1230:1 1239:1 1247:1 1248:1 1249:1 1252:1 1254:1 1256:1
-1 679:1 686:1 699:1 905:1 1072:1 1220:1 1224:1 1239:1 1249:1 1252:1 1256:4
-1 283:1 610:1 613:1 679:1 1228:1 1249:1 1256:3
-1 283:1 610:1 679:1 1031:1 1228:1 1249:1 1256:3
-1 184:1 504:2 679:5 905:2 948:1 969:1 1072:2 1223:1 1224:2 1230:2 1239:2 1249:5 1253:1 1254:1 1256:6
-1 184:1 679:1 686:1 905:1 1072:1 1224:1 1239:1 1249:1 1252:1 1253:1 1256:1
-1 679:1 1033:1 1249:1 1256:1
-1 579:1 679:1 699:1 905:1 1072:1 1220:1 1224:1 1239:1 1249:1 1256:2
-1 133:1 196:1 613:1 679:1 699:2 744:1 905:1 948:1 1072:1 1215:1 1220:2 1224:1 1239:1 1248:1 1249:1 1254:1 1256:4 1258:5590
-1 184:1 504:1 679:2 905:2 1072:2 1224:2 1230:1 1239:2 1249:2 1253:1 1256:7
-1 679:1 686:1 699:1 905:1 1072:1 1220:1 1224:1 1239:1 1249:1 1252:1 1256:4
-1 184:1 314:1 330:1 679:1 686:1 699:1 771:1 778:1 905:1 1010:1 1072:1 1210:1 1220:1 1222:1 1224:1 1239:1 1245:1 1247:1 1249:1 1252:1 1253:1 1256:2
-1 141:1 246:1 253:1 362:1 456:1 486:1 533:1 561:1 579:1 617:1 638:1 679:1 699:1 840:1 844:1 865:1 889:1 896:1 905:1 921:1 1010:1 1012:1 1072:1 1220:1 1224:1 1239:1 1247:1 1249:1 1256:3
-1 246:1 253:1 452:1 525:1 561:1 579:1 698:1 699:1 844:1 865:1 941:1 1012:1 1220:1 1256:2
-1 184:1 679:1 686:1 771:1 905:1 948:1 969:1 1072:1 1222:1 1223:1 1224:1 1239:1 1249:1 1252:1 1253:1 1254:1 1256:3
-1 184:1 504:1 679:1 738:1 771:1 868:1 905:1 948:1 965:1 975:1 1072:1 1222:1 1224:1 1227:1 1230:1 1239:1 1249:1 1253:1 1254:1 1256:2
-1 244:1 679:1 843:1 864:1 950:1 1249:1 1256:2
-1 184:1 244:1 504:1 679:1 686:1 771:1 843:1 864:1 905:1 948:1 950:1 969:1 975:1 1072:1 1222:1 1223:1 1224:1 1227:1 1230:1 1239:1 1249:1 1252:1 1253:1 1254:1 1256:1
-1 448:1 1241:1 1256:4
-1 448:1 1241:1 1256:2
-1 448:1 1241:1 1256:3
-1 448:1 1241:1 1256:2
-1 448:1 1241:1 1256:3
-1 184:1 504:1 679:2 905:2 1072:2 1224:2 1230:1 1239:2 1249:2 1253:1 1256:7
-1 448:1 1241:1 1256:3
-1 184:1 679:1 686:1 771:1 905:1 948:1 969:1 1072:1 1222:1 1223:1 1224:1 1239:1 1249:1 1252:1 1253:1 1254:1 1256:3
-1 448:1 1241:1 1256:2
-1 448:1 1241:1 1256:2
-1 448:1 1241:1 1256:2
-1 448:1 1241:1 1256:2
-1 679:1 831:1 983:1 1051:1 1166:1 1249:1 1256:3 1258:66
-1 269:1 679:1 831:1 883:1 1183:1 1249:1 1256:1 1258:66
-1 448:1 1241:1 1256:2
-1 137:1 141:1 188:1 191:1 246:1 253:1 437:1 486:1 504:1 519:1 561:1 566:1 579:1 617:1 638:1 643:1 696:1 699:1 715:1 840:1 848:1 851:1 865:1 889:1 921:1 924:1 941:1 1012:1 1097:1 1123:1 1150:1 1220:1 1230:1 1256:2
-1 175:1 188:1 235:1 246:1 253:1 406:1 519:1 561:1 579:1 621:1 634:1 844:1 848:1 865:1 910:1 941:1 1012:1 1062:1 1173:1 1219:1 1256:2
-1 168:1 283:1 504:1 679:1 686:1 905:1 948:1 975:1 1072:1 1102:1 1216:1 1224:1 1227:1 1228:1 1230:1 1239:1 1240:1 1249:1 1252:1 1254:1 1256:1
-1 184:1 504:1 679:4 905:2 1072:3 1224:2 1230:1 1239:3 1249:4 1253:1 1256:5
-1 679:1 905:1 1072:1 1224:1 1239:1 1249:1 1256:1
-1 184:1 679:1 686:1 905:1 948:1 1072:1 1224:1 1239:1 1249:1 1252:1 1253:1 1254:1 1256:1
-1 184:1 679:1 686:1 905:1 948:1 1072:1 1224:1 1239:1 1249:1 1252:1 1253:1 1254:1 1256:1
-1 679:1 686:1 905:1 1072:1 1224:1 1239:1 1249:1 1252:1 1256:1
-1 679:1 686:1 905:1 1072:1 1224:1 1239:1 1249:1 1252:1 1256:1
-1 232:1 477:1 504:1 679:1 686:1 735:1 771:1 825:1 850:1 905:1 948:1 969:1 975:1 987:1 1072:1 1102:1 1136:1 1214:1 1216:1 1222:1 1223:1 1224:1 1227:1 1230:1 1235:1 1238:1 1239:1 1249:1 1252:1 1254:1 1256:1
-1 232:1 477:1 504:1 679:1 686:1 735:1 771:1 825:1 850:1 905:1 948:1 969:1 975:1 987:1 1072:1 1102:1 1136:1 1214:1 1216:1 1222:1 1223:1 1224:1 1227:1 1230:1 1235:1 1238:1 1239:1 1249:1 1252:1 1254:1 1256:1
-1 679:1 699:1 831:1 1122:1 1220:1 1249:1 1256:3
-1 679:1 905:1 948:1 1072:1 1102:1 1216:1 1224:1 1239:1 1249:1 1254:1 1256:1
-1 192:1 246:1 253:1 561:1 679:1 686:1 699:1 744:1 822:1 844:1 865:1 1010:1 1012:1 1072:1 1220:1 1239:1 1247:1 1248:1 1249:1 1252:1 1256:2
-1 504:1 679:1 686:1 771:1 905:1 948:1 975:1 1072:1 1222:1 1224:1 1227:1 1230:1 1239:1 1249:1 1252:1 1254:1 1256:1
-1 448:1 504:1 679:1 699:1 771:1 975:1 1072:1 1220:1 1222:1 1227:1 1230:1 1239:1 1241:1 1249:1 1256:3
-1 184:1 504:1 592:1 679:1 686:1 699:1 744:1 771:1 905:1 948:1 1010:1 1072:1 1220:1 1222:1 1224:1 1230:1 1239:1 1244:1 1247:1 1248:1 1249:1 1252:1 1253:1 1254:1 1256:2 1258:1
-1 184:1 372:1 679:1 699:1 831:1 905:1 948:1 1220:1 1224:1 1249:1 1253:1 1254:1 1256:3
-1 679:1 699:1 905:1 1220:1 1224:1 1249:1 1256:5
-1 184:1 395:1 477:1 504:1 679:1 771:1 905:1 948:1 1072:1 1102:1 1214:1 1216:1 1222:1 1224:1 1230:1 1239:1 1249:1 1253:1 1254:1 1256:2
-1 184:1 207:1 679:1 686:1 905:1 1224:1 1249:1 1252:1 1253:1 1256:2
-1 679:1 686:1 869:1 905:1 948:1 1072:1 1224:1 1239:1 1243:1 1249:1 1252:1 1254:1 1256:2
-1 184:1 236:1 237:1 383:1 504:3 679:6 686:2 771:2 905:2 948:1 969:1 1072:2 1087:1 1102:1 1216:1 1222:2 1223:1 1224:2 1230:3 1239:2 1246:1 1249:6 1252:2 1253:1 1254:1 1255:1 1256:5
-1 620:1 679:1 699:1 1010:1 1072:1 1220:1 1239:1 1247:1 1249:1 1256:2
-1 235:1 504:1 509:1 522:1 634:1 679:1 699:1 771:1 905:1 1010:1 1072:1 1220:1 1222:1 1224:1 1230:1 1233:1 1239:1 1247:1 1249:1 1256:2
-1 448:1 1241:1 1256:3
-1 321:1 679:1 699:2 1220:2 1249:1 1256:2
-1 448:1 1241:1 1256:3
-1 448:1 1241:1 1256:3
-1 448:1 1241:1 1256:3
-1 168:1 184:1 395:1 477:1 504:1 679:1 686:1 771:1 905:1 948:1 1072:1 1102:1 1214:1 1216:1 1222:1 1224:1 1230:1 1239:1 1240:1 1249:1 1252:1 1253:1 1254:1 1256:2
-1 1014:1 1256:1
-1 184:1 196:1 268:1 283:1 383:1 504:1 679:1 686:1 742:1 762:1 771:1 893:1 905:1 948:1 969:1 975:1 1072:1 1215:1 1217:1 1218:1 1222:1 1223:1 1224:1 1227:1 1228:1 1230:1 1239:1 1246:1 1249:1 1252:1 1253:1 1254:1 1256:1 1258:4
-1 372:1 679:1 831:1 905:1 948:1 1072:1 1224:1 1239:1 1249:1 1254:1 1256:2
-1 679:1 699:1 1220:1 1249:1 1256:3
-1 184:1 383:1 504:3 679:4 686:1 771:1 869:1 905:2 948:1 969:1 1072:2 1102:1 1216:1 1222:1 1223:1 1224:2 1230:3 1239:2 1243:1 1246:1 1249:4 1252:1 1253:1 1254:1 1256:6
-1 184:1 504:1 638:1 679:1 686:1 771:1 905:1 948:1 969:1 1072:1 1136:1 1222:1 1223:1 1224:1 1230:1 1239:1 1249:1 1252:1 1253:1 1254:1 1256:1
-1 1148:1 1256:2
-1 184:1 283:1 504:1 679:1 686:1 869:1 905:1 948:1 969:1 1072:1 1102:1 1216:1 1223:1 1224:1 1228:1 1230:1 1239:1 1243:1 1249:1 1252:1 1253:1 1254:1 1256:5
-1 184:1 504:1 679:1 686:1 771:1 905:1 948:1 975:1 1072:1 1222:1 1224:1 1227:1 1230:1 1239:1 1249:1 1252:1 1253:1 1254:1 1256:1
-1 184:1 273:1 477:1 504:1 679:1 686:1 771:1 905:1 948:1 975:1 1072:1 1102:1 1214:1 1216:1 1222:1 1224:1 1227:1 1230:1 1239:1 1249:1 1252:1 1253:1 1254:1 1256:1
-1 273:1 504:1 679:1 686:1 771:1 905:1 948:1 975:1 1072:1 1222:1 1224:1 1227:1 1230:1 1239:1 1249:1 1252:1 1254:1 1256:1
-1 679:1 1003:1 1141:1 1249:1 1256:1
-1 184:1 477:1 504:1 679:1 771:1 905:1 948:1 975:1 1072:1 1102:1 1214:1 1216:1 1222:1 1224:1 1227:1 1230:1 1239:1 1249:1 1253:1 1254:1 1256:1
-1 679:1 686:1 905:1 1072:1 1224:1 1239:1 1249:1 1252:1 1256:1
-1 477:1 504:1 679:1 686:1 692:1 771:1 846:1 905:1 948:1 975:1 1072:1 1102:1 1214:1 1216:1 1222:1 1224:1 1227:1 1230:1 1239:1 1249:1 1252:1 1254:1 1256:1
-1 184:1 236:1 314:1 383:1 477:1 504:1 592:1 679:1 686:1 735:1 744:1 762:1 771:1 905:1 948:1 975:1 1072:1 1087:1 1102:1 1214:1 1216:1 1218:1 1222:1 1224:1 1227:1 1230:1 1239:1 1244:1 1245:1 1246:1 1248:1 1249:1 1252:1 1253:1 1254:1 1255:1 1256:1
-1 477:1 504:1 679:1 686:1 771:1 905:1 948:1 975:1 1072:1 1102:1 1214:1 1216:1 1222:1 1224:1 1227:1 1230:1 1239:1 1249:1 1252:1 1254:1 1256:1
-1 184:1 196:1 232:1 283:1 314:1 383:1 477:1 504:1 638:1 679:1 686:1 771:1 905:1 948:1 975:1 1072:1 1102:1 1214:1 1215:1 1216:1 1222:1 1224:1 1227:1 1228:1 1230:1 1238:1 1239:1 1245:1 1246:1 1249:1 1252:1 1253:1 1254:1 1256:1
-1 184:1 504:1 679:1 686:1 905:1 948:1 975:1 1072:1 1224:1 1227:1 1230:1 1239:1 1249:1 1252:1 1253:1 1254:1 1256:1
-1 184:1 385:1 477:1 504:1 679:1 771:1 905:1 948:1 975:1 1072:1 1102:1 1214:1 1216:1 1222:1 1224:1 1227:1 1230:1 1239:1 1249:1 1253:1 1254:1 1256:1
-1 184:1 504:1 679:2 905:2 1072:2 1224:2 1230:1 1239:2 1249:2 1253:1 1256:7
-1 184:1 679:1 699:1 771:1 905:1 948:1 1072:1 1220:1 1222:1 1224:1 1239:1 1249:1 1253:1 1254:1 1256:2
-1 184:1 679:1 686:1 771:1 858:1 905:1 948:1 1072:1 1222:1 1224:1 1239:1 1249:1 1252:1 1253:1 1254:1 1256:1 1258:14
-1 679:1 869:1 1243:1 1249:1 1256:2
-1 504:1 679:1 686:1 699:1 771:1 905:1 948:1 969:1 1072:1 1144:1 1220:1 1222:1 1223:1 1224:1 1230:1 1239:1 1249:1 1252:1 1254:1 1256:1
-1 184:1 679:1 905:1 969:1 1072:1 1223:1 1224:1 1239:1 1249:1 1253:1 1256:2
-1 184:1 504:1 679:2 905:2 1072:2 1224:2 1230:1 1239:2 1249:2 1253:1 1256:7
-1 679:1 869:1 1243:1 1249:1 1256:2
-1 188:1 246:1 253:1 266:1 386:1 406:1 409:1 437:1 519:1 561:1 586:1 599:1 643:1 699:1 844:1 848:1 865:1 870:1 889:1 921:1 941:1 1012:1 1050:1 1119:1 1150:1 1220:1 1256:2
-1 679:1 869:1 1243:1 1249:1 1256:2
-1 679:1 869:1 1243:1 1249:1 1256:2
-1 679:1 869:1 1243:1 1249:1 1256:2
-1 679:1 869:1 1243:1 1249:1 1256:2
-1 504:1 509:1 679:1 905:1 948:1 975:1 1072:1 1224:1 1227:1 1230:1 1233:1 1239:1 1249:1 1254:1 1256:1
-1 268:1 679:1 686:1 905:1 1072:1 1217:1 1224:1 1239:1 1249:1 1252:1 1256:1
-1 236:1 314:1 477:1 504:1 679:1 686:1 771:1 905:1 948:1 969:1 975:1 1072:1 1102:1 1214:1 1216:1 1222:1 1223:1 1224:1 1227:1 1230:1 1239:1 1245:1 1249:1 1252:1 1254:1 1256:1
-1 184:1 236:1 504:1 679:1 686:1 699:1 771:1 905:1 948:1 1072:1 1096:1 1102:1 1156:1 1216:1 1220:1 1222:1 1224:1 1230:1 1239:1 1249:1 1252:1 1253:1 1254:1 1256:1
-1 244:1 504:1 679:1 771:1 905:1 948:1 1072:1 1102:1 1216:1 1222:1 1224:1 1230:1 1239:1 1249:1 1254:1 1256:1
-1 448:1 1241:1 1256:3
-1 448:1 1241:1 1256:3
-1 477:1 504:1 679:1 686:1 771:1 905:1 948:1 975:1 1072:1 1102:1 1214:1 1216:1 1222:1 1224:1 1227:1 1230:1 1239:1 1249:1 1252:1 1254:1 1256:1
-1 141:1 196:1 246:1 253:1 396:1 561:1 566:1 644:1 679:1 699:1 844:1 865:1 905:1 987:1 1010:1 1012:1 1072:1 1179:1 1215:1 1220:1 1224:1 1235:1 1239:1 1247:1 1249:1 1256:2
-1 679:1 686:1 699:1 905:1 975:1 1220:1 1224:1 1227:1 1249:1 1252:1 1256:2
-1 1014:1 1256:1
-1 184:1 679:1 699:1 905:1 1072:1 1096:1 1220:1 1224:1 1239:1 1249:1 1253:1 1256:1
-1 448:1 1241:1 1256:3
-1 679:1 905:1 1224:1 1249:1 1256:2
-1 184:1 504:1 679:1 686:1 762:1 771:1 905:1 948:1 975:1 1072:1 1087:1 1102:1 1216:1 1218:1 1222:1 1224:1 1227:1 1230:1 1239:1 1249:1 1252:1 1253:1 1254:1 1255:1 1256:1
-1 679:1 771:1 905:1 948:1 1064:1 1155:1 1222:1 1224:1 1249:1 1254:1 1256:2
-1 679:1 771:1 905:1 948:1 1064:1 1155:1 1222:1 1224:1 1249:1 1254:1 1256:2
-1 679:1 771:1 905:1 948:1 1064:1 1155:1 1222:1 1224:1 1249:1 1254:1 1256:2
-1 679:1 771:1 905:1 948:1 1064:1 1155:1 1222:1 1224:1 1249:1 1254:1 1256:2
-1 372:1 679:1 831:1 1122:1 1249:1 1256:3
-1 527:1 679:1 1249:1 1256:2
-1 448:1 1241:1 1256:4
-1 184:1 679:1 686:1 771:1 905:1 948:1 969:1 1072:1 1222:1 1223:1 1224:1 1239:1 1249:1 1252:1 1253:1 1254:1 1256:3
-1 448:1 1241:1 1256:4
-1 1014:1 1256:1
-1 278:1 286:1 302:1 349:1 445:1 604:1 621:1 628:1 642:1 652:1 666:1 679:1 771:1 858:1 1045:1 1072:1 1185:1 1219:1 1222:1 1229:1 1231:1 1234:1 1237:1 1239:1 1242:1 1249:1 1250:1 1256:3 1258:8
-1 504:1 679:1 771:1 883:1 905:1 948:1 1045:1 1072:1 1111:1 1222:1 1224:1 1230:1 1239:1 1249:1 1254:1 1256:1 1258:4
-1 1014:1 1256:1
-1 420:1 562:1 679:1 717:1 868:1 1249:1 1256:3
-1 679:1 699:1 1220:1 1249:1 1256:3
-1 184:1 383:1 504:3 679:4 686:2 771:1 905:2 948:1 969:1 1072:2 1102:1 1216:1 1222:1 1223:1 1224:2 1230:3 1239:2 1246:1 1249:4 1252:2 1253:1 1254:1 1256:6
-1 184:1 322:1 601:1 679:1 686:1 699:1 771:1 905:1 948:1 969:1 1072:1 1144:1 1220:1 1222:1 1223:1 1224:1 1239:1 1249:1 1252:1 1253:1 1254:1 1256:2
-1 209:1 638:1 679:1 699:1 905:1 1010:1 1072:1 1220:1 1221:1 1224:1 1239:1 1247:1 1249:1 1256:3
-1 504:1 679:2 905:2 1072:2 1224:2 1230:1 1239:2 1249:2 1256:7
-1 137:1 138:1 147:1 175:1 177:1 188:1 235:1 238:1 246:1 253:1 255:1 268:1 351:1 382:1 386:1 406:1 409:1 435:1 437:1 458:1 486:1 491:1 496:1 504:1 519:1 523:1 535:1 561:1 566:1 579:1 590:1 592:1 593:1 597:1 617:1 634:1 638:1 643:1 645:1 679:1 686:1 698:1 699:1 701:1 741:1 744:1 751:1 778:1 824:1 828:1 844:1 848:1 860:1 865:1 871:1 887:1 889:1 905:1 921:1 937:1 939:1 941:1 948:1 975:1 997:1 998:1 1010:1 1012:1 1034:1 1107:1 1123:1 1146:1 1150:1 1217:1 1220:1 1224:1 1227:1 1230:1 1244:1 1247:1 1248:1 1249:1 1252:1 1254:1 1256:2
-1 372:1 383:1 679:1 831:1 905:1 948:1 1072:1 1122:1 1224:1 1239:1 1246:1 1249:1 1254:1 1256:2
-1 448:1 1241:1 1256:3
-1 448:1 1241:1 1256:2
-1 448:1 1241:1 1256:3
-1 448:1 1241:1 1256:4
-1 448:1 1241:1 1256:2
-1 400:1 679:1 686:1 699:1 771:1 905:1 975:1 1072:1 1220:1 1222:1 1224:1 1227:1 1239:1 1249:1 1252:1 1256:2
-1 184:1 209:1 246:1 253:1 679:1 699:1 844:1 865:1 905:1 1012:1 1220:1 1221:1 1224:1 1249:1 1253:1 1256:2
-1 383:1 679:1 825:1 905:1 1224:1 1246:1 1249:1 1256:2
-1 121:1 400:1 494:1 504:1 679:1 686:1 699:1 769:1 771:1 905:1 939:1 948:1 958:1 975:1 1072:1 1220:1 1222:1 1224:1 1227:1 1230:1 1239:1 1249:1 1252:1 1254:1 1256:1
-1 196:1 679:1 699:1 905:1 1215:1 1220:1 1224:1 1249:1 1256:5 1258:7
-1 448:1 1241:1 1256:4
-1 207:1 679:1 1249:1 1256:3
-1 679:1 1249:1 1256:2
-1 298:1 372:1 679:1 699:1 831:1 905:1 948:1 1154:1 1172:1 1220:1 1224:1 1249:1 1254:1 1256:2
-1 448:1 1241:1 1256:3
-1 448:1 1241:1 1256:3
-1 679:1 905:1 1224:1 1249:1 1256:4
-1 196:1 679:1 699:2 1127:1 1215:1 1220:2 1249:1 1256:2
-1 679:1 699:2 1220:2 1249:1 1256:2
-1 184:1 679:1 686:1 699:1 771:1 905:1 948:1 975:1 1102:1 1216:1 1220:1 1222:1 1224:1 1227:1 1249:1 1252:1 1253:1 1254:1 1256:2
-1 679:1 699:1 905:1 1102:1 1216:1 1220:1 1224:1 1249:1 1256:2
-1 679:1 699:1 905:1 1102:1 1216:1 1220:1 1224:1 1249:1 1256:2
-1 679:1 699:1 905:1 948:1 1102:1 1216:1 1220:1 1224:1 1249:1 1254:1 1256:2
-1 679:1 699:1 1010:1 1188:1 1220:1 1247:1 1249:1 1256:2
-1 679:1 699:2 869:1 969:1 1220:2 1223:1 1243:1 1249:1 1256:5
-1 448:1 1241:1 1256:3
-1 123:1 184:1 196:1 203:1 268:1 381:1 504:1 509:1 512:1 679:1 686:1 771:1 905:1 907:1 969:1 975:1 1072:1 1102:1 1215:1 1216:1 1217:1 1222:1 1223:1 1224:1 1225:1 1227:1 1230:1 1233:1 1236:1 1239:1 1249:1 1252:1 1253:1 1256:2
-1 504:1 679:1 686:1 699:1 771:1 905:1 1220:1 1222:1 1224:1 1230:1 1249:1 1252:1 1256:3
-1 679:1 699:2 869:1 1220:2 1243:1 1249:1 1256:3
-1 534:1 679:1 905:1 1224:1 1249:1 1256:3
-1 444:1 679:1 699:2 825:1 869:1 905:1 1220:2 1224:1 1243:1 1249:1 1256:3
-1 248:1 679:1 699:2 825:1 1220:2 1249:1 1256:2
-1 679:1 1249:1 1256:1
-1 184:1 504:1 679:1 686:1 699:1 706:1 771:1 905:1 1072:1 1220:1 1222:1 1224:1 1230:1 1239:1 1249:1 1252:1 1253:1 1256:1
-1 1014:1 1256:1
-1 448:1 1241:1 1256:3
-1 168:1 270:1 278:1 349:1 504:1 604:1 621:1 642:1 652:1 666:1 679:1 686:1 771:1 905:1 937:1 948:1 969:1 975:1 1040:1 1072:1 1185:1 1219:1 1222:1 1223:1 1224:1 1227:1 1229:1 1230:1 1231:1 1234:1 1239:1 1240:1 1242:1 1249:1 1250:1 1252:1 1254:1 1256:2
-1 420:1 562:1 679:1 686:1 699:1 746:1 905:1 1220:1 1224:1 1249:1 1252:1 1256:4
-1 184:1 448:1 592:1 679:1 699:1 762:1 771:1 905:1 948:1 975:1 1010:1 1218:1 1220:1 1222:1 1224:1 1227:1 1241:1 1244:1 1247:1 1249:1 1253:1 1254:1 1256:3
-1 448:1 1241:1 1256:3
-1 184:1 504:1 679:1 686:1 699:1 771:1 869:1 905:1 948:1 1072:1 1102:1 1216:1 1220:1 1222:1 1224:1 1230:1 1239:1 1243:1 1249:1 1252:1 1253:1 1254:1 1256:4
-1 448:1 1241:1 1256:3
-1 184:1 196:1 383:1 395:1 477:1 504:1 679:1 686:1 771:1 905:1 948:1 975:1 1072:1 1085:1 1102:1 1214:1 1215:1 1216:1 1222:1 1224:1 1227:1 1230:1 1239:1 1246:1 1249:1 1252:1 1253:1 1254:1 1256:2
-1 207:1 679:1 905:1 1224:1 1249:1 1256:3
-1 196:1 504:1 679:1 686:1 771:1 905:1 948:1 975:1 1072:1 1108:1 1215:1 1222:1 1224:1 1227:1 1230:1 1239:1 1249:1 1252:1 1254:1 1256:4
-1 184:1 679:1 686:1 771:1 905:1 948:1 1072:1 1222:1 1224:1 1239:1 1249:1 1252:1 1253:1 1254:1 1256:2
-1 184:1 196:1 220:1 311:1 383:1 504:1 679:1 686:1 699:1 744:1 771:1 869:1 905:1 948:1 987:1 1072:1 1102:1 1108:1 1215:1 1216:1 1220:1 1222:1 1224:1 1230:1 1235:1 1239:1 1243:1 1246:1 1248:1 1249:1 1252:1 1253:1 1254:1 1256:5
-1 196:1 679:1 905:1 969:1 1072:1 1215:1 1223:1 1224:1 1239:1 1249:1 1256:1
-1 184:1 196:1 283:1 504:1 679:1 686:1 762:1 771:1 905:1 948:1 969:1 975:1 1072:1 1215:1 1218:1 1222:1 1223:1 1224:1 1227:1 1228:1 1230:1 1239:1 1249:1 1252:1 1253:1 1254:1 1256:2
-1 172:1 184:1 205:1 372:1 418:1 504:3 679:5 686:1 771:1 831:1 905:2 948:1 969:1 1072:2 1102:1 1216:1 1222:1 1223:1 1224:2 1230:3 1239:2 1249:5 1252:1 1253:1 1254:1 1256:6
-1 679:1 699:1 1010:1 1188:1 1220:1 1247:1 1249:1 1256:2
-1 679:1 686:1 699:1 905:1 1220:1 1224:1 1249:1 1252:1 1256:3
-1 188:1 246:1 253:1 255:1 266:1 406:1 437:1 519:1 561:1 580:1 595:1 699:1 840:1 844:1 865:1 906:1 921:1 941:1 1010:1 1012:1 1131:1 1220:1 1247:1 1256:2
-1 184:1 679:1 771:1 905:1 948:1 1072:1 1222:1 1224:1 1239:1 1249:1 1253:1 1254:1 1256:1 1258:5
-1 188:1 196:1 246:1 253:1 255:1 266:1 519:1 561:1 585:1 699:1 844:1 865:1 889:1 921:1 1012:1 1123:1 1215:1 1220:1 1256:2
-1 679:1 686:1 699:1 905:1 1072:1 1220:1 1224:1 1239:1 1249:1 1252:1 1256:3
-1 278:1 349:1 604:1 621:1 642:1 650:1 652:1 666:1 679:1 878:1 1072:1 1185:1 1219:1 1229:1 1231:1 1234:1 1239:1 1242:1 1249:1 1250:1 1256:4 1258:36
-1 184:1 504:1 679:1 686:1 699:1 905:1 1220:1 1224:1 1230:1 1249:1 1252:1 1253:1 1256:4
-1 246:1 253:1 561:1 679:1 699:1 844:1 865:1 939:1 1012:1 1220:1 1249:1 1256:3
-1 448:1 1241:1 1256:3
-1 679:1 699:2 1220:2 1249:1 1256:2
-1 638:1 679:1 699:1 771:1 905:1 1220:1 1222:1 1224:1 1249:1 1256:2
-1 592:1 679:1 686:1 771:1 905:1 948:1 1072:1 1222:1 1224:1 1239:1 1244:1 1249:1 1252:1 1254:1 1256:2
-1 504:1 679:1 686:1 771:1 905:1 948:1 1072:1 1222:1 1224:1 1230:1 1239:1 1249:1 1252:1 1254:1 1256:2
-1 504:1 679:1 686:1 771:1 905:1 948:1 1072:1 1222:1 1224:1 1230:1 1239:1 1249:1 1252:1 1254:1 1256:2
-1 679:1 1249:1 1256:3
-1 184:1 436:1 504:1 592:1 679:1 686:1 699:1 762:1 771:1 905:1 948:1 975:1 1010:1 1072:1 1218:1 1220:1 1222:1 1224:1 1227:1 1230:1 1239:1 1244:1 1247:1 1249:1 1252:1 1253:1 1254:1 1256:1
-1 1014:1 1256:1
-1 504:1 679:1 771:1 905:1 969:1 1222:1 1223:1 1224:1 1230:1 1249:1 1256:2
-1 188:1 246:1 253:1 255:1 266:1 486:1 519:1 604:1 621:1 766:1 844:1 848:1 865:1 889:1 921:1 941:1 1012:1 1062:1 1123:1 1173:1 1219:1 1250:1 1256:1
-1 170:1 504:1 679:1 699:1 771:1 905:1 1072:1 1144:1 1220:1 1222:1 1224:1 1230:1 1239:1 1249:1 1256:2 1258:5
-1 184:1 504:1 679:1 771:1 905:1 948:1 969:1 1072:1 1222:1 1223:1 1224:1 1230:1 1239:1 1249:1 1253:1 1254:1 1256:5
-1 383:1 679:1 686:1 699:2 905:1 948:1 1220:2 1224:1 1246:1 1249:1 1252:1 1254:1 1256:2 1258:116
-1 383:1 679:1 699:1 905:1 969:1 1220:1 1223:1 1224:1 1246:1 1249:1 1256:3
-1 184:1 504:1 679:2 905:2 1072:2 1224:2 1230:1 1239:2 1249:2 1253:1 1256:7
-1 184:1 679:1 686:1 771:1 905:1 948:1 969:1 1072:1 1222:1 1223:1 1224:1 1239:1 1249:1 1252:1 1253:1 1254:1 1256:3
-1 235:1 246:1 253:1 504:1 561:1 579:1 634:1 638:1 679:1 686:1 699:1 844:1 865:1 1010:1 1012:1 1072:1 1220:1 1230:1 1239:1 1247:1 1249:1 1252:1 1256:2
-1 246:1 253:1 519:1 561:1 579:1 679:1 699:1 771:1 844:1 848:1 865:1 905:1 941:1 1012:1 1220:1 1222:1 1224:1 1249:1 1256:3
-1 679:1 699:1 1010:1 1220:1 1247:1 1249:1 1256:1
-1 184:1 372:2 504:2 679:4 831:3 905:2 948:1 969:1 1072:2 1102:1 1216:1 1223:1 1224:2 1230:2 1239:2 1249:4 1253:1 1254:1 1256:6
-1 246:1 253:1 519:1 561:1 579:1 679:1 699:1 844:1 848:1 865:1 905:1 948:1 975:1 1012:1 1072:1 1102:1 1216:1 1220:1 1224:1 1227:1 1239:1 1249:1 1254:1 1256:3
-1 196:1 679:1 699:1 905:1 969:1 975:1 1010:1 1215:1 1220:1 1223:1 1224:1 1227:1 1247:1 1249:1 1256:2
-1 134:1 168:1 184:1 196:1 383:1 464:1 504:1 524:1 575:1 679:1 686:1 771:1 839:1 869:1 905:1 948:1 975:1 1058:1 1072:1 1102:1 1215:1 1216:1 1222:1 1224:1 1227:1 1230:1 1239:1 1240:1 1243:1 1246:1 1249:1 1252:1 1253:1 1254:1 1256:2 1258:368
-1 383:1 679:1 905:1 948:1 969:1 1223:1 1224:1 1246:1 1249:1 1254:1 1256:2
-1 683:1 970:1 1256:2
-1 679:1 686:1 699:2 1220:2 1249:1 1252:1 1256:2
-1 196:1 679:1 1215:1 1249:1 1256:2
-1 679:1 1249:1 1256:2
-1 184:1 504:3 594:1 679:5 771:1 905:2 948:1 969:1 1072:2 1102:1 1216:1 1222:1 1223:1 1224:2 1230:3 1239:2 1249:5 1253:1 1254:1 1256:6
-1 679:1 905:1 948:1 1072:1 1102:1 1216:1 1224:1 1239:1 1249:1 1254:1 1256:4
-1 184:1 196:1 679:1 686:1 771:1 868:1 905:1 948:1 1102:1 1215:1 1216:1 1222:1 1224:1 1249:1 1252:1 1253:1 1254:1 1256:2
-1 346:1 679:1 868:1 1249:1 1256:2
-1 346:1 679:1 868:1 1249:1 1256:2
-1 679:1 1249:1 1256:3
-1 346:1 372:1 679:1 699:2 831:1 915:1 1220:2 1249:1 1256:2
-1 127:1 184:1 254:1 314:1 383:1 504:1 509:1 522:1 679:1 686:1 699:1 723:1 762:1 771:1 905:1 948:1 975:1 1010:1 1039:1 1072:1 1126:1 1218:1 1220:1 1222:1 1224:1 1227:1 1230:1 1233:1 1239:1 1245:1 1246:1 1247:1 1249:1 1252:1 1253:1 1254:1 1256:2
-1 168:1 184:1 196:1 383:1 504:1 509:1 638:1 679:1 686:1 771:1 905:1 907:1 945:1 948:1 975:1 987:1 1032:1 1072:1 1102:1 1215:1 1216:1 1222:1 1224:1 1225:1 1227:1 1230:1 1233:1 1235:1 1239:1 1240:1 1246:1 1249:1 1251:1 1252:1 1253:1 1254:1 1256:3
-1 168:1 184:1 383:1 504:1 638:1 679:1 686:1 771:1 905:1 907:1 948:1 987:1 1032:1 1072:1 1102:1 1216:1 1222:1 1224:1 1225:1 1230:1 1235:1 1239:1 1240:1 1246:1 1249:1 1252:1 1253:1 1254:1 1256:2
-1 460:1 679:1 699:1 768:1 905:1 1220:1 1224:1 1249:1 1256:7
-1 372:1 383:1 679:1 686:1 699:2 831:1 905:1 948:1 1102:1 1216:1 1220:2 1224:1 1246:1 1249:1 1252:1 1254:1 1256:2 1258:112
-1 184:1 504:2 679:5 686:1 771:1 905:3 948:1 969:1 1072:2 1102:1 1216:1 1222:1 1223:1 1224:3 1230:2 1239:2 1249:5 1252:1 1253:1 1254:1 1256:6
-1 184:1 504:1 679:4 905:2 1072:3 1224:2 1230:1 1239:3 1249:4 1253:1 1256:4
-1 292:1 345:1 679:1 686:1 699:2 869:1 879:1 905:1 1220:2 1224:1 1243:1 1249:1 1252:1 1256:2
-1 679:1 699:2 1072:1 1220:2 1239:1 1249:1 1256:3
-1 196:1 199:1 244:1 283:1 679:1 1072:1 1215:1 1228:1 1239:1 1249:1 1256:2
-1 322:1 372:1 397:1 649:1 679:1 686:1 699:1 831:1 1220:1 1249:1 1252:1 1256:2
-1 184:1 370:1 579:1 679:1 699:1 905:1 1072:1 1188:1 1220:1 1224:1 1239:1 1249:1 1253:1 1256:2
-1 1014:1 1256:1
-1 184:1 196:1 585:1 638:1 679:1 686:1 699:1 771:1 905:1 948:1 975:1 1072:1 1102:1 1108:1 1215:1 1216:1 1220:1 1222:1 1224:1 1227:1 1239:1 1249:1 1252:1 1253:1 1254:1 1256:1
-1 188:1 246:1 253:1 255:1 266:1 357:1 386:1 409:1 437:1 458:1 486:1 519:1 561:1 579:1 593:1 617:1 643:1 645:1 699:1 840:1 844:1 865:1 889:1 896:1 906:1 921:1 941:1 1010:1 1012:1 1037:1 1119:1 1123:1 1220:1 1247:1 1256:2
-1 196:1 679:1 699:1 905:1 1215:1 1220:1 1224:1 1249:1 1256:2
-1 217:1 277:1 425:1 610:1 668:1 679:1 1249:1 1256:3
-1 679:1 699:2 869:1 969:1 1220:2 1223:1 1243:1 1249:1 1256:4
-1 188:1 196:1 246:1 253:1 255:1 266:1 519:1 561:1 566:1 585:1 617:1 643:1 699:1 844:1 865:1 889:1 921:1 941:1 1010:1 1012:1 1119:1 1123:1 1215:1 1220:1 1247:1 1256:1
-1 679:1 905:1 948:1 1224:1 1249:1 1254:1 1256:2
-1 383:1 679:1 905:1 948:1 1102:1 1216:1 1224:1 1246:1 1249:1 1254:1 1256:2
-1 165:1 372:1 679:1 831:1 905:1 948:1 1102:1 1216:1 1224:1 1249:1 1254:1 1256:2
-1 180:1 184:1 477:1 504:1 679:1 686:1 771:1 905:1 948:1 975:1 987:1 1072:1 1090:1 1102:1 1214:1 1216:1 1222:1 1224:1 1227:1 1230:1 1235:1 1239:1 1249:1 1252:1 1253:1 1254:1 1256:2
-1 184:1 477:1 504:1 679:1 686:1 771:1 905:1 948:1 975:1 1072:1 1102:1 1214:1 1216:1 1222:1 1224:1 1227:1 1230:1 1239:1 1249:1 1252:1 1253:1 1254:1 1256:1
-1 184:1 213:1 477:1 501:1 504:1 679:1 686:1 771:1 905:1 948:1 975:1 1072:1 1090:1 1102:1 1214:1 1216:1 1222:1 1224:1 1227:1 1230:1 1239:1 1249:1 1252:1 1253:1 1254:1 1256:1
-1 184:1 213:1 273:1 477:1 501:1 504:1 520:1 603:1 679:1 686:1 771:1 905:1 938:1 948:1 975:1 1072:1 1090:1 1102:1 1214:1 1216:1 1222:1 1224:1 1227:1 1230:1 1239:1 1249:1 1252:1 1253:1 1254:1 1256:1 1258:21
-1 184:1 317:1 477:1 504:1 679:1 686:1 771:1 905:1 948:1 975:1 1072:1 1102:1 1214:1 1216:1 1222:1 1224:1 1227:1 1230:1 1239:1 1249:1 1252:1 1253:1 1254:1 1256:1
-1 184:1 477:1 504:1 520:1 679:1 771:1 905:1 948:1 975:1 1072:1 1102:1 1214:1 1216:1 1222:1 1224:1 1227:1 1230:1 1239:1 1249:1 1253:1 1254:1 1256:1
-1 184:1 504:1 679:2 905:2 1072:2 1224:2 1230:1 1239:2 1249:2 1253:1 1256:7
-1 184:1 579:1 679:1 681:1 686:1 699:1 905:1 948:1 1072:1 1220:1 1224:1 1239:1 1249:1 1252:1 1253:1 1254:1 1256:2 1258:39
-1 184:1 679:1 681:1 686:1 699:1 905:1 1072:1 1220:1 1224:1 1239:1 1249:1 1252:1 1253:1 1256:2 1258:39
-1 184:1 504:1 679:2 905:2 1072:2 1224:2 1230:1 1239:2 1249:2 1253:1 1256:6
-1 679:1 686:1 699:1 905:1 948:1 1072:1 1096:1 1102:1 1216:1 1220:1 1224:1 1239:1 1249:1 1252:1 1254:1 1256:1
-1 504:1 570:1 635:1 638:1 679:1 686:1 699:1 744:1 771:1 854:1 905:1 948:1 969:1 975:1 1010:1 1072:1 1220:1 1222:1 1223:1 1224:1 1227:1 1230:1 1239:1 1247:1 1248:1 1249:1 1252:1 1254:1 1256:2
-1 428:1 679:1 699:1 1072:1 1220:1 1239:1 1249:1 1256:2
-1 240:1 679:1 868:1 905:1 1224:1 1249:1 1256:2
-1 679:1 699:2 1220:2 1249:1 1256:2
-1 184:1 679:1 686:1 771:1 905:1 948:1 969:1 1072:1 1222:1 1223:1 1224:1 1239:1 1249:1 1252:1 1253:1 1254:1 1256:3
-1 150:1 235:1 246:1 253:1 504:1 537:1 621:1 634:1 638:1 679:1 771:1 780:1 844:1 848:1 865:1 1012:1 1062:1 1072:1 1173:1 1219:1 1222:1 1230:1 1239:1 1249:1 1256:1
-1 372:1 679:1 699:2 831:1 905:1 948:1 984:1 1172:1 1220:2 1224:1 1249:1 1254:1 1256:2
-1 187:1 196:1 236:1 383:1 504:1 576:1 679:1 686:1 771:1 831:1 869:1 905:1 948:1 969:1 975:1 1072:1 1215:1 1222:1 1223:1 1224:1 1227:1 1230:1 1239:1 1243:1 1246:1 1249:1 1252:1 1254:1 1256:2 1258:5
-1 679:1 686:1 699:1 905:1 1072:1 1220:1 1224:1 1239:1 1249:1 1252:1 1256:3
-1 1014:1 1256:1
-1 372:1 679:1 699:2 831:1 905:1 948:1 1172:1 1220:2 1224:1 1249:1 1254:1 1256:2
-1 121:1 175:1 184:1 235:1 246:1 253:1 286:1 310:1 504:1 561:1 579:1 592:1 604:1 621:1 634:1 636:1 638:1 679:1 685:1 686:1 751:1 762:1 769:1 844:1 848:1 865:1 905:1 910:1 914:1 937:1 948:1 972:1 975:1 1010:1 1012:1 1062:1 1072:1 1075:1 1163:1 1173:1 1218:1 1219:1 1224:1 1227:1 1230:1 1239:1 1244:1 1247:1 1249:1 1250:1 1252:1 1253:1 1254:1 1256:2
-1 184:1 504:2 679:5 686:1 771:1 782:1 905:2 948:1 969:1 1072:2 1087:1 1222:1 1223:1 1224:2 1230:2 1239:2 1249:5 1252:1 1253:1 1254:1 1255:1 1256:6
-1 184:1 679:1 699:1 905:1 1039:1 1102:1 1216:1 1220:1 1224:1 1249:1 1253:1 1256:1
-1 448:1 1241:1 1256:3
-1 448:1 1241:1 1256:2
-1 184:1 679:1 686:1 771:1 905:1 948:1 969:1 1072:1 1222:1 1223:1 1224:1 1239:1 1249:1 1252:1 1253:1 1254:1 1256:3
-1 232:1 504:1 638:1 679:1 699:1 771:1 1010:1 1072:1 1220:1 1222:1 1230:1 1238:1 1239:1 1247:1 1249:1 1256:2
-1 1014:1 1256:1
-1 322:1 582:1 679:1 699:1 905:1 1129:1 1144:1 1220:1 1224:1 1249:1 1256:2
-1 679:1 699:1 1220:1 1249:1 1256:6
-1 679:1 699:2 1220:2 1249:1 1256:2
-1 679:1 699:1 1220:1 1249:1 1256:5
-1 679:1 699:2 1220:2 1249:1 1256:3
-1 196:1 298:1 679:1 699:2 905:1 1072:1 1215:1 1220:2 1224:1 1239:1 1249:1 1256:4
-1 196:1 679:1 699:2 1215:1 1220:2 1249:1 1256:4
-1 487:1 679:1 699:1 897:1 1220:1 1249:1 1256:3
-1 184:1 383:1 395:1 477:1 504:1 679:1 686:1 771:1 905:1 948:1 975:1 1064:1 1072:1 1102:1 1214:1 1216:1 1222:1 1224:1 1227:1 1230:1 1239:1 1246:1 1249:1 1252:1 1253:1 1254:1 1256:2
-1 184:1 504:1 679:1 686:1 771:1 905:1 948:1 969:1 1072:1 1087:1 1102:1 1216:1 1222:1 1223:1 1224:1 1230:1 1239:1 1249:1 1252:1 1253:1 1254:1 1255:1 1256:5
-1 184:1 504:1 679:1 686:1 905:1 948:1 969:1 1072:1 1223:1 1224:1 1230:1 1239:1 1249:1 1252:1 1253:1 1254:1 1256:4
-1 184:1 383:1 504:1 679:1 686:1 771:1 905:1 948:1 969:1 987:1 1072:1 1087:1 1102:1 1216:1 1222:1 1223:1 1224:1 1230:1 1235:1 1239:1 1246:1 1249:1 1252:1 1253:1 1254:1 1255:1 1256:5
-1 184:1 504:1 679:1 686:1 699:2 771:1 885:1 905:1 948:1 1072:1 1102:1 1216:1 1220:2 1222:1 1224:1 1230:1 1239:1 1249:1 1252:1 1253:1 1254:1 1256:4
-1 679:1 771:1 1222:1 1249:1 1256:2
-1 276:1 285:1 293:1 338:1 612:1 679:1 819:1 855:1 1041:1 1158:1 1198:1 1249:1 1256:1 1258:75
-1 188:1 246:1 253:1 255:1 437:1 455:1 504:1 519:1 561:1 569:1 579:1 590:1 617:1 638:1 643:1 644:1 697:1 699:1 735:1 744:1 844:1 865:1 871:1 889:1 910:1 921:1 941:1 986:1 1010:1 1012:1 1123:1 1131:1 1145:1 1168:1 1170:1 1220:1 1230:1 1247:1 1248:1 1256:2
-1 679:1 1249:1 1256:2
-1 392:1 616:1 679:1 905:1 1101:1 1224:1 1249:1 1256:3
-1 184:1 679:1 686:1 771:1 905:1 948:1 969:1 1072:1 1222:1 1223:1 1224:1 1239:1 1249:1 1252:1 1253:1 1254:1 1256:2
-1 679:1 699:1 1220:1 1249:1 1256:1
-1 448:1 1241:1 1256:3
-1 184:1 395:1 477:1 504:1 679:1 771:1 905:1 948:1 1072:1 1102:1 1214:1 1216:1 1222:1 1224:1 1230:1 1239:1 1249:1 1253:1 1254:1 1256:2
-1 244:1 679:1 762:1 771:1 905:1 967:1 1218:1 1222:1 1224:1 1249:1 1256:1
-1 679:1 905:1 1224:1 1249:1 1256:3
-1 141:1 191:1 196:1 246:1 253:1 265:1 396:1 504:1 561:1 566:1 579:1 580:1 644:1 679:1 699:1 844:1 865:1 889:1 905:1 987:1 1010:1 1012:1 1179:1 1215:1 1220:1 1224:1 1230:1 1235:1 1247:1 1249:1 1256:2
-1 679:1 869:1 905:1 1072:1 1224:1 1239:1 1243:1 1249:1 1256:2
-1 679:1 1249:1 1256:2
-1 679:1 699:2 1220:2 1249:1 1256:2
-1 448:1 1241:1 1256:3
-1 346:1 412:1 605:1 679:1 737:1 831:1 979:1 980:1 1084:1 1249:1 1256:2
-1 184:1 236:1 679:1 686:1 699:1 905:1 948:1 1072:1 1102:1 1216:1 1220:1 1224:1 1239:1 1249:1 1252:1 1253:1 1254:1 1256:4
-1 184:1 679:1 686:1 771:1 905:1 948:1 969:1 1072:1 1222:1 1223:1 1224:1 1239:1 1249:1 1252:1 1253:1 1254:1 1256:3
-1 135:1 146:1 224:1 225:1 242:1 439:1 440:1 479:1 485:1 516:1 581:1 583:1 679:1 699:1 743:1 856:1 861:1 890:1 897:1 898:1 905:1 988:1 992:1 996:1 1044:1 1121:1 1220:1 1224:1 1249:1 1256:6
-1 135:1 146:1 224:1 225:1 242:1 440:1 479:1 485:1 516:1 581:1 583:1 679:1 699:1 743:1 856:1 861:1 890:1 897:1 898:1 905:1 992:1 1044:1 1121:1 1220:1 1224:1 1249:1 1256:6
-1 184:1 679:1 686:1 771:1 905:1 948:1 969:1 1072:1 1222:1 1223:1 1224:1 1239:1 1249:1 1252:1 1253:1 1254:1 1256:3
-1 184:1 504:1 679:2 905:2 1072:2 1224:2 1230:1 1239:2 1249:2 1253:1 1256:7
-1 448:1 1241:1 1256:4
-1 369:1 383:1 679:1 699:1 771:1 905:1 948:1 1039:1 1155:1 1220:1 1222:1 1224:1 1246:1 1249:1 1254:1 1256:4
-1 184:1 679:1 686:1 771:1 905:1 948:1 969:1 1072:1 1222:1 1223:1 1224:1 1239:1 1249:1 1252:1 1253:1 1254:1 1256:3
-1 165:1 346:1 372:1 521:1 548:1 679:1 831:1 915:1 1003:1 1076:1 1141:1 1154:1 1249:1 1256:1
-1 679:1 699:2 1220:2 1249:1 1256:5 1258:73
-1 184:1 383:1 679:1 831:1 869:1 905:1 948:1 1224:1 1243:1 1246:1 1249:1 1253:1 1254:1 1256:2
-1 372:1 392:1 616:1 679:1 791:1 831:1 905:1 948:1 1101:1 1224:1 1249:1 1254:1 1256:2
-1 547:1 679:1 1249:1 1256:2
-1 372:1 511:1 679:1 771:1 807:1 831:1 905:1 1122:1 1222:1 1224:1 1249:1 1256:3
-1 679:1 699:1 1220:1 1249:1 1256:2
-1 448:1 1241:1 1256:3
-1 184:1 504:1 679:2 905:2 1072:2 1224:2 1230:1 1239:2 1249:2 1253:1 1256:7
-1 1148:1 1256:1
-1 679:1 686:1 905:1 948:1 1072:1 1224:1 1239:1 1249:1 1252:1 1254:1 1256:3
-1 184:1 326:1 472:1 679:1 686:1 883:1 905:1 948:1 1087:1 1102:1 1216:1 1224:1 1249:1 1252:1 1253:1 1254:1 1255:1 1256:1
-1 268:1 311:1 638:1 679:1 686:1 771:1 905:1 969:1 975:1 1072:1 1217:1 1222:1 1223:1 1224:1 1227:1 1239:1 1249:1 1252:1 1256:1
-1 679:1 975:1 1227:1 1249:1 1256:1
-1 679:1 686:1 771:1 905:1 975:1 1222:1 1224:1 1227:1 1249:1 1252:1 1256:3
-1 1014:1 1256:1
-1 184:1 318:1 383:1 504:2 679:4 686:2 825:1 905:2 948:1 969:1 1072:2 1102:1 1216:1 1223:1 1224:2 1230:2 1239:2 1246:1 1249:4 1252:2 1253:1 1254:1 1256:6
-1 141:1 188:1 196:1 246:1 253:1 265:1 266:1 396:1 422:1 504:1 519:1 522:1 561:1 566:1 579:1 644:1 679:1 699:1 741:1 844:1 852:1 865:1 905:1 921:1 987:1 1009:1 1012:1 1072:1 1123:1 1215:1 1220:1 1224:1 1230:1 1235:1 1239:1 1249:1 1256:1
-1 679:1 699:1 905:1 1220:1 1224:1 1249:1 1256:5
-1 246:1 253:1 255:1 486:1 519:1 561:1 617:1 699:1 844:1 848:1 865:1 889:1 905:1 921:1 941:1 1010:1 1012:1 1097:1 1123:1 1220:1 1224:1 1247:1 1256:1
-1 184:1 318:1 504:3 679:4 686:2 771:5 825:1 905:2 948:1 969:1 1072:2 1102:1 1216:1 1222:5 1223:1 1224:2 1230:3 1239:2 1249:4 1252:2 1253:1 1254:1 1256:7
-1 184:1 504:1 679:1 686:1 699:2 746:1 771:1 831:1 905:1 948:1 1072:1 1102:1 1216:1 1220:2 1222:1 1224:1 1230:1 1239:1 1249:1 1252:1 1253:1 1254:1 1256:2
-1 246:1 253:1 268:1 300:1 543:1 679:1 699:1 844:1 865:1 905:1 1010:1 1012:1 1072:1 1217:1 1220:1 1224:1 1239:1 1247:1 1249:1 1256:1
-1 184:1 196:1 679:1 686:1 905:1 975:1 1072:1 1215:1 1224:1 1227:1 1239:1 1249:1 1252:1 1253:1 1256:2
-1 448:1 1241:1 1256:3
-1 184:1 346:1 372:1 383:1 521:1 679:1 686:1 694:1 717:1 831:1 868:1 905:1 948:1 1122:1 1224:1 1246:1 1249:1 1252:1 1253:1 1254:1 1256:2
-1 184:1 205:1 504:1 679:1 686:1 699:1 771:1 905:1 948:1 969:1 1072:1 1102:1 1144:1 1216:1 1220:1 1222:1 1223:1 1224:1 1230:1 1239:1 1249:1 1252:1 1253:1 1254:1 1256:1
-1 420:1 562:1 679:1 691:1 699:1 1220:1 1249:1 1256:3
-1 184:1 196:1 205:1 236:1 314:1 383:1 477:1 504:1 679:1 686:1 762:1 771:1 842:1 905:1 948:1 968:1 969:1 975:1 1072:1 1087:1 1102:1 1214:1 1215:1 1216:1 1218:1 1222:1 1223:1 1224:1 1227:1 1230:1 1239:1 1245:1 1246:1 1249:1 1252:1 1253:1 1254:1 1255:1 1256:4
-1 363:1 420:1 562:1 679:1 699:1 746:1 1220:1 1249:1 1256:4
-1 679:1 1249:1 1256:1
-1 679:1 905:1 948:1 1224:1 1249:1 1254:1 1256:1
-1 446:1 504:1 679:1 686:1 905:1 948:1 1003:1 1072:1 1141:1 1224:1 1230:1 1239:1 1249:1 1252:1 1254:1 1256:1
-1 184:1 504:1 679:2 905:2 1072:2 1224:2 1230:1 1239:2 1249:2 1253:1 1256:7
-1 209:1 236:1 472:1 504:1 509:1 592:1 679:1 686:1 762:1 771:1 841:1 883:1 905:1 948:1 975:1 1072:1 1087:1 1191:1 1218:1 1221:1 1222:1 1224:1 1227:1 1230:1 1233:1 1239:1 1244:1 1249:1 1252:1 1254:1 1255:1 1256:1 1258:44
-1 504:1 638:1 679:1 686:1 771:1 883:1 905:1 948:1 975:1 1072:1 1191:1 1222:1 1224:1 1227:1 1230:1 1239:1 1249:1 1252:1 1254:1 1256:2 1258:1
-1 184:1 236:1 246:1 253:1 561:1 579:1 679:1 686:1 699:1 844:1 865:1 905:1 975:1 1012:1 1072:1 1220:1 1224:1 1227:1 1239:1 1249:1 1252:1 1253:1 1256:2
-1 322:1 372:1 383:1 397:1 679:1 686:1 699:1 831:1 905:1 948:1 1072:1 1144:1 1220:1 1224:1 1239:1 1246:1 1249:1 1252:1 1254:1 1256:2 1258:92
-1 184:1 504:1 679:1 686:1 771:1 905:1 948:1 969:1 1222:1 1223:1 1224:1 1230:1 1249:1 1252:1 1253:1 1254:1 1256:5
-1 448:1 1241:1 1256:4
-1 679:1 699:2 897:1 1220:2 1249:1 1256:3
-1 679:1 699:2 897:1 1220:2 1249:1 1256:3
-1 679:1 686:1 905:1 948:1 1072:1 1224:1 1239:1 1249:1 1252:1 1254:1 1256:2
-1 145:1 279:1 420:1 562:1 679:1 699:2 746:1 877:1 1220:2 1249:1 1256:2
-1 485:1 487:1 679:1 699:1 897:1 988:1 1220:1 1249:1 1256:3 1258:6
-1 516:1 679:1 699:1 988:1 1220:1 1249:1 1256:3
-1 184:1 504:3 679:6 771:1 905:2 948:1 969:1 1072:2 1087:1 1102:1 1216:1 1222:1 1223:1 1224:2 1230:3 1239:2 1249:6 1253:1 1254:1 1255:1 1256:6
-1 347:1 558:1 679:1 680:1 699:1 1220:1 1249:1 1256:3
-1 448:1 1241:1 1256:3
-1 184:1 237:1 275:1 504:2 679:4 686:1 771:2 899:1 905:2 948:1 969:1 987:1 1072:2 1087:1 1102:1 1216:1 1222:2 1223:1 1224:2 1230:2 1235:1 1239:2 1249:4 1252:1 1253:1 1254:1 1255:1 1256:5
-1 448:1 1241:1 1256:4
-1 184:1 252:1 679:1 686:1 694:1 717:1 868:1 905:1 948:1 1072:1 1224:1 1239:1 1249:1 1252:1 1253:1 1254:1 1256:2
-1 184:1 679:1 686:1 699:1 771:1 869:1 905:1 948:1 969:1 1072:1 1102:1 1216:1 1220:1 1222:1 1223:1 1224:1 1239:1 1243:1 1249:1 1252:1 1253:1 1254:1 1256:4
-1 184:1 679:1 686:1 771:1 905:1 948:1 969:1 1072:1 1222:1 1223:1 1224:1 1239:1 1249:1 1252:1 1253:1 1254:1 1256:3
-1 679:1 1249:1 1256:3
-1 184:1 383:1 477:1 679:1 686:1 771:1 869:1 905:1 948:1 1072:1 1102:1 1214:1 1216:1 1222:1 1224:1 1239:1 1243:1 1246:1 1249:1 1252:1 1253:1 1254:1 1256:2
-1 679:1 1249:1 1256:3 1258:1
-1 679:1 686:1 905:1 948:1 1072:1 1224:1 1239:1 1249:1 1252:1 1254:1 1256:2
-1 679:1 699:1 1010:1 1220:1 1247:1 1249:1 1256:2
-1 679:1 1249:1 1256:1
-1 448:1 1241:1 1256:3
-1 127:1 184:1 254:1 314:1 383:1 504:1 509:1 522:1 679:1 686:1 699:1 723:1 762:1 771:1 905:1 948:1 975:1 1010:1 1039:1 1072:1 1126:1 1218:1 1220:1 1222:1 1224:1 1227:1 1230:1 1233:1 1239:1 1245:1 1246:1 1247:1 1249:1 1252:1 1253:1 1254:1 1256:2
-1 448:1 1241:1 1256:3
-1 448:1 1241:1 1256:3
-1 448:1 1241:1 1256:3
-1 184:1 679:1 686:1 771:1 905:1 948:1 969:1 1072:1 1222:1 1223:1 1224:1 1239:1 1249:1 1252:1 1253:1 1254:1 1256:2
-1 679:1 699:1 1220:1 1249:1 1256:2
-1 184:1 504:1 614:1 679:1 686:1 699:1 771:1 905:1 948:1 975:1 1010:1 1072:1 1220:1 1222:1 1224:1 1227:1 1230:1 1239:1 1247:1 1249:1 1252:1 1253:1 1254:1 1256:2
-1 679:1 883:1 1249:1 1256:2
-1 173:1 679:1 771:1 1222:1 1249:1 1256:2
-1 679:1 699:1 1072:1 1220:1 1239:1 1249:1 1256:2
-1 184:1 679:1 686:1 699:2 905:1 948:1 1072:1 1102:1 1216:1 1220:2 1224:1 1239:1 1249:1 1252:1 1253:1 1254:1 1256:3
-1 184:1 679:1 699:1 905:1 1220:1 1224:1 1249:1 1253:1 1256:2
-1 448:1 1241:1 1256:4
-1 184:1 504:1 679:1 686:1 771:1 905:1 948:1 969:1 1072:1 1222:1 1223:1 1224:1 1230:1 1239:1 1249:1 1252:1 1253:1 1254:1 1256:2
-1 679:1 699:2 869:1 1220:2 1243:1 1249:1 1256:3
-1 679:1 699:2 869:1 1220:2 1243:1 1249:1 1256:3
-1 184:1 679:1 686:1 905:1 948:1 1072:1 1136:1 1224:1 1239:1 1249:1 1252:1 1253:1 1254:1 1256:3
-1 1014:1 1256:1
-1 184:1 504:3 679:4 686:1 771:1 869:1 905:2 948:1 969:1 1072:2 1102:1 1216:1 1222:1 1223:1 1224:2 1230:3 1239:2 1243:1 1249:4 1252:1 1253:1 1254:1 1256:6
-1 188:1 196:1 246:1 253:1 255:1 266:1 519:1 561:1 585:1 699:1 844:1 865:1 889:1 921:1 1012:1 1123:1 1215:1 1220:1 1256:2
-1 321:1 679:1 699:1 1220:1 1249:1 1256:2
-1 504:1 679:1 771:1 1222:1 1230:1 1249:1 1256:1
-1 504:1 522:1 679:1 686:1 762:1 771:1 905:1 907:1 969:1 975:1 1072:1 1218:1 1222:1 1223:1 1224:1 1225:1 1227:1 1230:1 1239:1 1249:1 1252:1 1256:1
-1 184:1 477:1 504:1 679:1 686:1 771:1 905:1 948:1 975:1 1072:1 1102:1 1214:1 1216:1 1222:1 1224:1 1227:1 1230:1 1239:1 1249:1 1252:1 1253:1 1254:1 1256:2
-1 679:1 686:1 905:1 1072:1 1224:1 1239:1 1249:1 1252:1 1256:1
-1 504:1 679:1 905:1 948:1 975:1 1072:1 1224:1 1227:1 1230:1 1239:1 1249:1 1254:1 1256:1
-1 448:1 1241:1 1256:3
-1 679:1 905:1 948:1 1072:1 1224:1 1239:1 1249:1 1254:1 1256:2 1258:2
-1 204:1 215:1 285:1 679:1 901:1 1249:1 1256:3 1258:1
-1 512:1 679:1 699:1 1220:1 1236:1 1249:1 1256:1
-1 679:1 699:1 1220:1 1249:1 1256:1
-1 579:1 679:1 686:1 699:1 1072:1 1220:1 1239:1 1249:1 1252:1 1256:1
-1 679:1 905:1 969:1 1223:1 1224:1 1249:1 1256:5 1258:1
-1 679:1 1249:1 1256:2
-1 188:1 243:1 246:1 253:1 255:1 266:1 486:1 519:1 561:1 645:1 699:1 750:1 844:1 865:1 889:1 921:1 941:1 1010:1 1012:1 1097:1 1123:1 1220:1 1247:1 1256:1
-1 448:1 1241:1 1256:3
-1 232:1 268:1 504:1 679:1 771:1 905:1 1072:1 1217:1 1222:1 1224:1 1230:1 1238:1 1239:1 1249:1 1256:1
-1 246:1 253:1 256:1 458:1 561:1 617:1 697:1 699:1 824:1 844:1 865:1 1012:1 1212:1 1220:1 1256:1
-1 154:1 246:1 253:1 561:1 579:1 617:1 699:1 844:1 865:1 941:1 1012:1 1220:1 1256:2
-1 448:1 1241:1 1256:3
-1 448:1 1241:1 1256:2
-1 202:1 610:1 679:1 974:1 1249:1 1256:2
-1 184:1 395:1 477:1 504:1 679:1 686:1 771:1 905:1 948:1 1072:1 1102:1 1214:1 1216:1 1222:1 1224:1 1230:1 1239:1 1249:1 1252:1 1253:1 1254:1 1256:2
-1 679:1 686:1 699:1 905:1 1072:1 1220:1 1224:1 1239:1 1249:1 1252:1 1256:1
-1 168:1 311:1 400:1 504:1 679:1 686:1 699:1 724:1 744:1 771:1 905:1 958:1 969:1 975:1 1015:1 1038:1 1072:1 1220:1 1222:1 1223:1 1224:1 1227:1 1230:1 1239:1 1240:1 1248:1 1249:1 1252:1 1256:1
-1 184:1 314:1 448:1 504:1 679:1 699:1 771:1 905:1 1220:1 1222:1 1224:1 1230:1 1241:1 1245:1 1249:1 1253:1 1256:4
-1 504:1 679:1 771:1 807:1 905:1 1072:1 1222:1 1224:1 1230:1 1239:1 1249:1 1256:3
-1 504:1 679:1 771:1 868:1 1222:1 1230:1 1249:1 1256:2
-1 400:1 504:1 533:1 638:1 679:1 699:1 735:1 771:1 905:1 958:1 1072:1 1220:1 1222:1 1224:1 1230:1 1239:1 1249:1 1256:2
-1 168:1 400:1 679:1 699:1 771:1 905:1 1220:1 1222:1 1224:1 1240:1 1249:1 1256:2
-1 201:1 287:1 294:1 337:1 368:1 371:1 390:1 468:1 482:1 606:1 649:1 665:1 679:1 682:1 725:1 728:1 943:1 999:1 1000:1 1098:1 1208:1 1249:1 1256:2 1258:427
-1 504:1 579:1 679:1 686:1 699:1 905:1 975:1 1072:1 1220:1 1224:1 1227:1 1230:1 1239:1 1249:1 1252:1 1256:1 1258:66
-1 400:1 427:1 481:1 679:1 685:1 699:1 802:1 1072:1 1220:1 1239:1 1249:1 1256:3
-1 184:1 679:1 699:1 905:1 948:1 965:1 969:1 1072:1 1102:1 1216:1 1220:1 1223:1 1224:1 1239:1 1249:1 1253:1 1254:1 1256:2
-1 184:1 610:1 679:1 686:1 905:1 948:1 1072:1 1224:1 1239:1 1249:1 1252:1 1253:1 1254:1 1256:3
-1 475:1 504:1 510:1 679:1 686:1 699:1 771:1 808:1 905:1 1072:1 1074:1 1220:1 1222:1 1224:1 1230:1 1239:1 1249:1 1252:1 1256:2
-1 193:1 679:1 1249:1 1256:2
-1 259:1 448:1 504:1 596:1 679:1 771:1 905:1 1072:1 1222:1 1224:1 1230:1 1239:1 1241:1 1249:1 1256:1
-1 184:1 477:1 504:1 679:1 686:1 762:1 771:1 905:1 948:1 975:1 1072:1 1102:1 1214:1 1216:1 1218:1 1222:1 1224:1 1227:1 1230:1 1239:1 1249:1 1252:1 1253:1 1254:1 1256:1
-1 165:1 346:1 372:1 548:1 679:1 831:1 915:1 1003:1 1141:1 1154:1 1249:1 1256:1
-1 448:1 1241:1 1256:3
-1 184:1 679:1 686:1 771:1 905:1 948:1 969:1 1072:1 1222:1 1223:1 1224:1 1239:1 1249:1 1252:1 1253:1 1254:1 1256:3
-1 184:1 504:1 528:1 679:1 686:1 699:1 771:1 905:1 975:1 1220:1 1222:1 1224:1 1227:1 1230:1 1249:1 1252:1 1253:1 1256:3
-1 184:1 504:2 679:3 686:1 771:1 905:2 948:1 1072:2 1222:1 1224:2 1230:2 1239:2 1249:3 1252:1 1253:1 1254:1 1256:6
-1 184:1 236:1 679:1 686:1 699:1 771:1 905:1 948:1 975:1 1072:1 1102:1 1216:1 1220:1 1222:1 1224:1 1227:1 1239:1 1249:1 1252:1 1253:1 1254:1 1256:1
-1 448:1 1241:1 1256:2
-1 137:1 138:1 188:1 246:1 253:1 255:1 386:1 406:1 437:1 458:1 486:1 504:1 519:1 535:1 561:1 579:1 590:1 617:1 643:1 644:1 679:1 686:1 698:1 699:1 842:1 844:1 848:1 865:1 889:1 905:1 910:1 921:1 939:1 941:1 975:1 1009:1 1010:1 1012:1 1070:1 1072:1 1097:1 1119:1 1123:1 1150:1 1220:1 1224:1 1227:1 1230:1 1239:1 1247:1 1249:1 1252:1 1256:2
-1 504:1 633:1 679:1 686:1 699:1 771:1 905:1 948:1 1072:1 1220:1 1222:1 1224:1 1230:1 1239:1 1249:1 1252:1 1254:1 1256:2
-1 184:1 679:1 686:1 699:1 771:1 1072:1 1220:1 1222:1 1239:1 1249:1 1252:1 1253:1 1256:1
-1 679:1 699:1 771:1 905:1 948:1 1022:1 1072:1 1220:1 1222:1 1224:1 1239:1 1249:1 1254:1 1256:1
-1 184:1 504:1 679:1 686:1 699:1 771:1 905:1 975:1 1072:1 1220:1 1222:1 1224:1 1227:1 1230:1 1239:1 1249:1 1252:1 1253:1 1256:2
-1 137:1 184:1 209:1 246:1 253:1 504:1 519:1 561:1 579:1 592:1 679:1 686:1 699:1 735:1 744:1 771:1 844:1 865:1 905:1 939:1 948:1 975:1 1012:1 1072:1 1123:1 1220:1 1221:1 1222:1 1224:1 1227:1 1230:1 1239:1 1244:1 1248:1 1249:1 1252:1 1253:1 1254:1 1256:2
-1 184:1 504:3 679:4 686:2 699:1 771:2 905:2 948:1 969:1 1072:2 1087:1 1102:1 1216:1 1220:1 1222:2 1223:1 1224:2 1230:3 1239:2 1249:4 1252:2 1253:1 1254:1 1255:1 1256:5
-1 184:1 236:1 314:1 383:1 477:1 504:1 679:1 686:1 762:1 771:1 905:1 948:1 975:1 1072:1 1087:1 1102:1 1214:1 1216:1 1218:1 1222:1 1224:1 1227:1 1230:1 1239:1 1245:1 1246:1 1249:1 1252:1 1253:1 1254:1 1255:1 1256:1
-1 184:1 250:1 504:2 679:5 686:1 771:1 905:2 948:1 969:1 1072:2 1087:1 1102:1 1216:1 1222:1 1223:1 1224:2 1230:2 1239:2 1249:5 1252:1 1253:1 1254:1 1255:1 1256:6
-1 137:1 184:1 236:1 246:1 253:1 504:1 579:1 638:1 644:1 679:1 686:1 699:1 771:1 844:1 865:1 905:1 939:1 948:1 975:1 1009:1 1010:1 1012:1 1072:1 1102:1 1216:1 1220:1 1222:1 1224:1 1227:1 1230:1 1239:1 1247:1 1249:1 1252:1 1253:1 1254:1 1256:2
-1 679:1 686:1 699:1 905:1 948:1 1072:1 1220:1 1224:1 1239:1 1249:1 1252:1 1254:1 1256:1
-1 188:1 246:1 253:1 255:1 330:1 406:1 458:1 486:1 519:1 535:1 561:1 579:1 617:1 686:1 699:1 771:1 844:1 848:1 865:1 889:1 905:1 941:1 948:1 1010:1 1012:1 1097:1 1131:1 1150:1 1220:1 1222:1 1224:1 1247:1 1252:1 1254:1 1256:2
-1 137:1 138:1 209:1 246:1 253:1 255:1 386:1 437:1 486:1 504:1 535:1 561:1 580:1 617:1 643:1 679:1 686:1 699:1 750:1 771:1 844:1 865:1 905:1 910:1 921:1 939:1 969:1 975:1 1010:1 1012:1 1072:1 1097:1 1119:1 1123:1 1145:1 1150:1 1220:1 1221:1 1222:1 1223:1 1224:1 1227:1 1230:1 1239:1 1247:1 1249:1 1252:1 1256:2 1258:1
-1 679:1 686:1 699:1 771:1 905:1 1072:1 1096:1 1220:1 1222:1 1224:1 1239:1 1249:1 1252:1 1256:1
-1 448:1 1241:1 1256:3
-1 137:1 150:1 232:1 246:1 253:1 458:1 486:1 504:1 519:1 579:1 621:1 638:1 679:1 824:1 844:1 848:1 865:1 889:1 905:1 921:1 939:1 1010:1 1012:1 1062:1 1067:1 1072:1 1097:1 1150:1 1173:1 1212:1 1219:1 1224:1 1230:1 1238:1 1239:1 1247:1 1249:1 1256:2
-1 420:1 562:1 679:1 691:1 699:2 1220:2 1249:1 1256:2
-1 279:1 562:1 679:1 691:1 699:1 1220:1 1249:1 1256:2
-1 279:1 420:1 562:1 679:1 691:1 699:1 1220:1 1249:1 1256:2
-1 679:1 699:2 801:1 1197:1 1220:2 1249:1 1256:5
-1 184:1 236:1 679:1 699:1 771:1 905:1 948:1 1072:1 1220:1 1222:1 1224:1 1239:1 1249:1 1253:1 1254:1 1256:1
-1 485:1 516:1 583:1 622:1 679:1 699:2 897:1 988:1 996:1 1220:2 1249:1 1256:2 1258:347
-1 184:1 679:1 686:1 699:1 771:1 905:1 975:1 1072:1 1102:1 1216:1 1220:1 1222:1 1224:1 1227:1 1239:1 1249:1 1252:1 1253:1 1256:1
-1 184:1 236:1 679:1 686:1 699:1 771:1 905:1 948:1 1072:1 1102:1 1216:1 1220:1 1222:1 1224:1 1239:1 1249:1 1252:1 1253:1 1254:1 1256:3
-1 184:1 504:1 679:2 905:2 1072:2 1224:2 1230:1 1239:2 1249:2 1253:1 1256:7
-1 679:1 699:1 905:1 948:1 1220:1 1224:1 1249:1 1254:1 1256:2
-1 448:1 679:1 686:1 699:1 771:1 905:1 975:1 1220:1 1222:1 1224:1 1227:1 1241:1 1249:1 1252:1 1256:2
-1 184:1 232:1 627:1 679:1 686:1 699:1 1220:1 1238:1 1249:1 1252:1 1253:1 1256:2
-1 1014:1 1256:1
-1 184:1 383:1 504:1 679:1 686:1 771:1 905:1 948:1 969:1 1072:1 1102:1 1216:1 1222:1 1223:1 1224:1 1230:1 1239:1 1246:1 1249:1 1252:1 1253:1 1254:1 1256:2
-1 608:1 679:1 699:1 883:1 1220:1 1249:1 1256:2
-1 322:1 372:1 679:1 699:1 831:1 905:1 948:1 1144:1 1220:1 1224:1 1249:1 1254:1 1256:2
-1 184:1 330:1 504:1 592:1 633:1 679:1 686:1 699:1 771:1 905:1 948:1 969:1 975:1 1010:1 1072:1 1220:1 1222:1 1223:1 1224:1 1227:1 1230:1 1239:1 1244:1 1247:1 1249:1 1252:1 1253:1 1254:1 1256:2
-1 679:1 699:2 1220:2 1249:1 1256:2
-1 165:1 346:1 372:1 521:1 548:1 679:1 831:1 915:1 1003:1 1076:1 1141:1 1154:1 1249:1 1256:2
-1 679:1 905:1 1224:1 1249:1 1256:2
-1 156:1 236:1 246:1 253:1 437:1 504:1 519:1 561:1 638:1 679:1 686:1 699:1 771:1 842:1 844:1 848:1 865:1 905:1 975:1 1012:1 1062:1 1123:1 1220:1 1222:1 1224:1 1227:1 1230:1 1249:1 1252:1 1256:1
-1 184:1 314:1 504:1 679:1 771:1 905:1 948:1 969:1 1222:1 1223:1 1224:1 1230:1 1245:1 1249:1 1253:1 1254:1 1256:2
-1 184:1 314:1 504:1 679:1 686:1 771:1 905:1 948:1 975:1 1072:1 1102:1 1216:1 1222:1 1224:1 1227:1 1230:1 1239:1 1245:1 1249:1 1252:1 1253:1 1254:1 1256:3
-1 126:1 138:1 246:1 253:1 386:1 406:1 437:1 486:1 519:1 535:1 561:1 617:1 698:1 699:1 844:1 848:1 865:1 921:1 939:1 941:1 1010:1 1012:1 1097:1 1123:1 1150:1 1220:1 1247:1 1256:2
-1 126:1 138:1 188:1 246:1 253:1 255:1 406:1 486:1 519:1 535:1 561:1 617:1 697:1 699:1 840:1 844:1 848:1 865:1 921:1 939:1 941:1 953:1 1010:1 1012:1 1123:1 1131:1 1150:1 1220:1 1247:1 1256:2
-1 184:1 679:1 686:1 771:1 905:1 948:1 969:1 1072:1 1102:1 1216:1 1222:1 1223:1 1224:1 1239:1 1249:1 1252:1 1253:1 1254:1 1256:2
-1 448:1 1241:1 1256:3
-1 448:1 1241:1 1256:3
-1 448:1 1241:1 1256:3
-1 679:1 905:1 948:1 1224:1 1249:1 1254:1 1256:3
-1 679:1 686:1 905:1 948:1 1224:1 1249:1 1252:1 1254:1 1256:2
-1 184:1 679:1 686:1 771:1 905:1 948:1 969:1 1072:1 1222:1 1223:1 1224:1 1239:1 1249:1 1252:1 1253:1 1254:1 1256:2
-1 184:1 679:1 686:1 771:1 905:1 948:1 969:1 1072:1 1222:1 1223:1 1224:1 1239:1 1249:1 1252:1 1253:1 1254:1 1256:3
-1 679:1 686:1 771:1 905:1 1072:1 1222:1 1224:1 1239:1 1249:1 1252:1 1256:3
-1 448:1 1241:1 1256:2
-1 679:1 1072:1 1239:1 1249:1 1256:1
-1 184:1 679:1 905:1 948:1 969:1 1072:1 1223:1 1224:1 1239:1 1249:1 1253:1 1254:1 1256:2
-1 184:1 679:1 905:1 948:1 969:1 1072:1 1223:1 1224:1 1239:1 1249:1 1253:1 1254:1 1256:2
-1 184:1 504:1 638:1 679:1 686:1 771:1 905:1 948:1 969:1 1072:1 1222:1 1223:1 1224:1 1230:1 1239:1 1249:1 1252:1 1253:1 1254:1 1256:2
-1 184:1 679:1 686:1 771:1 905:1 948:1 969:1 1072:1 1222:1 1223:1 1224:1 1239:1 1249:1 1252:1 1253:1 1254:1 1256:2
-1 504:1 679:1 735:1 771:1 948:1 1072:1 1222:1 1230:1 1239:1 1249:1 1254:1 1256:3
-1 679:1 699:2 869:1 1220:2 1243:1 1249:1 1256:3
-1 448:1 1241:1 1256:3
-1 448:1 1241:1 1256:3
-1 184:1 504:1 679:2 905:2 1072:2 1224:2 1230:1 1239:2 1249:2 1253:1 1256:7
-1 188:1 196:1 246:1 253:1 255:1 266:1 283:1 386:1 409:1 467:1 486:1 519:1 561:1 617:1 699:1 718:1 844:1 865:1 889:1 921:1 1010:1 1012:1 1065:1 1123:1 1213:1 1215:1 1220:1 1228:1 1247:1 1256:2
-1 184:1 504:1 679:1 686:1 771:1 905:1 1072:1 1222:1 1224:1 1230:1 1239:1 1249:1 1252:1 1253:1 1256:3
-1 184:1 504:2 679:4 686:1 869:1 905:2 948:1 969:1 1072:2 1223:1 1224:2 1230:2 1239:2 1243:1 1249:4 1252:1 1253:1 1254:1 1256:6
-1 184:1 504:1 679:1 686:1 771:1 905:1 948:1 969:1 1072:1 1222:1 1223:1 1224:1 1230:1 1239:1 1249:1 1252:1 1253:1 1254:1 1256:2
-1 196:1 383:1 504:1 509:1 585:1 679:1 686:1 699:1 771:1 905:1 975:1 1010:1 1072:1 1096:1 1215:1 1220:1 1222:1 1224:1 1227:1 1230:1 1233:1 1239:1 1246:1 1247:1 1249:1 1252:1 1256:1
-1 679:1 831:1 905:1 948:1 1224:1 1249:1 1254:1 1256:1
-1 184:1 504:2 679:4 686:2 771:1 905:2 948:1 969:1 1072:2 1102:1 1216:1 1222:1 1223:1 1224:2 1230:2 1239:2 1249:4 1252:2 1253:1 1254:1 1256:6
-1 184:1 504:2 679:4 905:2 948:1 969:1 1072:2 1102:1 1216:1 1223:1 1224:2 1230:2 1239:2 1249:4 1253:1 1254:1 1256:6
-1 184:1 679:1 686:1 771:1 905:1 948:1 969:1 1072:1 1222:1 1223:1 1224:1 1239:1 1249:1 1252:1 1253:1 1254:1 1256:3
-1 679:1 1249:1 1256:1
-1 679:1 905:1 948:1 1224:1 1249:1 1254:1 1256:3
-1 184:1 679:1 686:1 771:1 905:1 948:1 969:1 1072:1 1222:1 1223:1 1224:1 1239:1 1249:1 1252:1 1253:1 1254:1 1256:3
-1 184:1 504:1 638:1 679:1 686:1 771:1 905:1 948:1 969:1 1072:1 1136:1 1222:1 1223:1 1224:1 1230:1 1239:1 1249:1 1252:1 1253:1 1254:1 1256:1
-1 504:1 679:1 905:1 1224:1 1230:1 1249:1 1256:4
-1 188:1 196:1 200:1 246:1 253:1 255:1 266:1 406:1 519:1 561:1 572:1 643:1 699:1 840:1 844:1 862:1 865:1 921:1 941:1 986:1 1012:1 1123:1 1215:1 1220:1 1256:4
-1 679:1 686:1 699:1 905:1 948:1 975:1 1220:1 1224:1 1227:1 1249:1 1252:1 1254:1 1256:3
-1 679:1 699:1 1220:1 1249:1 1256:2
-1 184:1 311:5 504:3 679:5 686:2 771:1 905:2 948:1 969:1 987:1 1072:6 1102:1 1216:1 1222:1 1223:1 1224:2 1230:3 1235:1 1239:6 1249:5 1252:2 1253:1 1254:1 1256:6
-1 184:1 679:1 686:1 771:1 905:1 948:1 969:1 1072:1 1222:1 1223:1 1224:1 1239:1 1249:1 1252:1 1253:1 1254:1 1256:5
-1 184:1 246:1 253:1 437:1 504:1 561:1 579:1 592:1 679:1 699:1 844:1 865:1 905:1 910:1 975:1 1012:1 1062:1 1072:1 1220:1 1224:1 1227:1 1230:1 1239:1 1244:1 1249:1 1253:1 1256:1
-1 184:1 383:1 504:1 679:4 771:1 905:2 948:1 969:1 1072:2 1102:1 1216:1 1222:1 1223:1 1224:2 1230:1 1239:2 1246:1 1249:4 1253:1 1254:1 1256:6
-1 610:1 679:1 1249:1 1256:2
-1 610:1 679:1 1249:1 1256:2
-1 184:1 679:1 686:1 771:1 905:1 948:1 969:1 1072:1 1222:1 1223:1 1224:1 1239:1 1249:1 1252:1 1253:1 1254:1 1256:4
-1 679:1 905:1 1072:1 1224:1 1239:1 1249:1 1256:3
-1 184:1 504:1 679:1 686:1 771:1 905:1 948:1 969:1 1072:1 1222:1 1223:1 1224:1 1230:1 1239:1 1249:1 1252:1 1253:1 1254:1 1256:2
-1 184:1 679:1 686:1 771:1 905:1 948:1 1072:1 1102:1 1216:1 1222:1 1224:1 1239:1 1249:1 1252:1 1253:1 1254:1 1256:4
-1 504:2 679:4 905:2 987:1 1072:1 1224:2 1230:2 1235:1 1239:1 1249:4 1256:6
-1 184:1 504:1 679:2 905:2 1072:2 1224:2 1230:1 1239:2 1249:2 1253:1 1256:7
-1 541:1 683:1 1256:2
-1 541:1 683:1 1256:2
-1 541:1 683:1 1256:2
-1 184:1 196:1 679:1 686:1 771:1 905:1 948:1 956:1 1072:1 1102:1 1215:1 1216:1 1222:1 1224:1 1239:1 1249:1 1252:1 1253:1 1254:1 1256:4
-1 254:1 322:1 383:1 679:1 699:1 905:1 948:1 1072:1 1144:1 1151:1 1220:1 1224:1 1239:1 1246:1 1249:1 1254:1 1256:2
-1 541:1 683:1 702:1 1256:2
-1 184:1 679:1 905:1 1072:1 1224:1 1239:1 1249:1 1253:1 1256:1
-1 196:1 679:1 699:1 905:1 1072:1 1215:1 1220:1 1224:1 1239:1 1249:1 1256:4
-1 504:1 679:1 771:1 869:1 905:1 1222:1 1224:1 1230:1 1243:1 1249:1 1256:1
-1 679:1 1014:1 1249:1 1256:4
-1 184:1 504:1 679:2 905:2 1072:2 1224:2 1230:1 1239:2 1249:2 1253:1 1256:7
-1 679:1 686:1 699:2 905:1 1072:1 1220:2 1224:1 1239:1 1249:1 1252:1 1256:4
-1 679:1 686:1 905:1 948:1 1072:1 1224:1 1239:1 1249:1 1252:1 1254:1 1256:1 1258:26
-1 184:1 504:1 679:2 905:2 1072:2 1224:2 1230:1 1239:2 1249:2 1253:1 1256:7
-1 504:1 679:1 771:1 975:1 1003:1 1072:1 1222:1 1227:1 1230:1 1239:1 1249:1 1256:1
-1 184:1 395:1 477:1 504:1 679:1 686:1 771:1 905:1 948:1 1072:1 1102:1 1214:1 1216:1 1222:1 1224:1 1230:1 1239:1 1249:1 1252:1 1253:1 1254:1 1256:2
-1 504:3 679:6 686:1 771:1 905:2 975:1 1072:1 1222:1 1224:2 1227:1 1230:3 1239:1 1249:6 1252:1 1256:5
-1 127:1 170:1 184:1 322:1 504:1 592:1 679:1 686:1 699:1 762:1 771:1 905:1 948:1 975:1 1010:1 1072:1 1096:1 1218:1 1220:1 1222:1 1224:1 1227:1 1230:1 1239:1 1244:1 1247:1 1249:1 1252:1 1253:1 1254:1 1256:1
-1 448:1 1241:1 1256:3
-1 679:1 699:1 1220:1 1249:1 1256:3
-1 679:1 699:2 1220:2 1249:1 1256:4
-1 168:1 184:1 236:1 314:1 383:1 477:1 504:1 592:1 679:1 686:1 762:1 771:1 905:1 948:1 975:1 1072:1 1087:1 1214:1 1218:1 1222:1 1224:1 1227:1 1230:1 1239:1 1240:1 1244:1 1245:1 1246:1 1249:1 1252:1 1253:1 1254:1 1255:1 1256:2
-1 679:1 1249:1 1256:2
-1 184:1 196:1 504:1 679:1 686:1 762:1 771:1 905:1 948:1 975:1 1072:1 1087:1 1102:1 1215:1 1216:1 1218:1 1222:1 1224:1 1227:1 1230:1 1239:1 1249:1 1252:1 1253:1 1254:1 1255:1 1256:1
-1 679:1 1072:1 1239:1 1249:1 1256:3
-1 679:1 699:1 1072:1 1220:1 1239:1 1249:1 1256:4
-1 344:1 679:1 771:1 905:1 948:1 980:1 1072:1 1222:1 1224:1 1239:1 1249:1 1254:1 1256:3
-1 448:1 1241:1 1256:2
-1 196:1 679:1 1072:1 1215:1 1239:1 1249:1 1256:2
-1 196:1 679:1 1058:1 1072:1 1215:1 1239:1 1249:1 1256:3
-1 184:1 383:1 679:1 686:1 771:1 905:1 948:1 1102:1 1216:1 1222:1 1224:1 1246:1 1249:1 1252:1 1253:1 1254:1 1256:4
-1 448:1 1241:1 1256:4
-1 448:1 1241:1 1256:2
-1 1014:1 1256:1
-1 1014:1 1256:1
-1 448:1 1241:1 1256:4
-1 638:1 679:1 1249:1 1256:2 1258:4
-1 1014:1 1256:1
-1 184:1 236:1 504:2 679:4 686:1 905:2 948:1 969:1 987:1 1072:2 1223:1 1224:2 1230:2 1235:1 1239:2 1249:4 1252:1 1253:1 1254:1 1256:6
-1 184:1 504:1 679:4 905:2 1072:3 1224:2 1230:1 1239:3 1249:4 1253:1 1256:4
-1 184:1 504:1 679:4 905:2 1072:3 1224:2 1230:1 1239:3 1249:4 1253:1 1256:4
-1 448:1 1241:1 1256:2
-1 208:1 288:1 641:1 679:1 686:1 699:1 768:1 789:1 1220:1 1249:1 1252:1 1256:7
-1 207:1 679:1 1249:1 1256:3
-1 184:1 383:1 477:1 504:3 679:4 686:2 771:1 869:1 905:2 948:1 969:1 975:1 1072:2 1102:1 1214:1 1216:1 1222:1 1223:1 1224:2 1227:1 1230:3 1239:2 1243:1 1246:1 1249:4 1252:2 1253:1 1254:1 1256:6
-1 184:1 477:1 504:1 679:1 686:1 771:1 905:1 948:1 1072:1 1102:1 1214:1 1216:1 1222:1 1224:1 1230:1 1239:1 1249:1 1252:1 1253:1 1254:1 1256:2
-1 184:1 679:1 686:1 771:1 905:1 948:1 1072:1 1222:1 1224:1 1239:1 1249:1 1252:1 1253:1 1254:1 1256:2
-1 679:1 1249:1 1256:2
-1 184:1 504:1 679:1 686:1 905:1 948:1 975:1 1072:1 1102:1 1216:1 1224:1 1227:1 1230:1 1239:1 1249:1 1252:1 1253:1 1254:1 1256:1
-1 610:1 679:1 1249:1 1256:3
-1 504:2 679:4 686:1 905:2 1072:1 1224:2 1230:2 1239:1 1249:4 1252:1 1256:6
-1 141:1 188:1 246:1 253:1 255:1 266:1 422:1 519:1 561:1 566:1 679:1 699:1 844:1 865:1 921:1 1010:1 1012:1 1072:1 1123:1 1220:1 1239:1 1247:1 1249:1 1256:2
-1 679:1 905:1 948:1 1224:1 1249:1 1254:1 1256:3 1258:2
-1 346:1 679:1 905:1 1001:1 1224:1 1249:1 1256:2 1258:35
-1 679:1 1249:1 1256:3
-1 1014:1 1256:1
-1 184:1 679:1 686:1 771:1 905:1 948:1 969:1 1072:1 1222:1 1223:1 1224:1 1239:1 1249:1 1252:1 1253:1 1254:1 1256:3
-1 141:1 188:1 246:1 253:1 266:1 396:1 422:1 519:1 561:1 566:1 679:1 699:1 844:1 865:1 885:1 921:1 1010:1 1012:1 1072:1 1123:1 1220:1 1239:1 1247:1 1249:1 1256:1
-1 184:1 383:1 504:3 679:4 686:2 771:1 905:2 948:1 969:1 1072:2 1102:1 1216:1 1222:1 1223:1 1224:2 1230:3 1239:2 1246:1 1249:4 1252:2 1253:1 1254:1 1256:6
-1 489:1 679:1 1003:1 1249:1 1256:2
-1 357:1 579:1 679:1 699:1 1010:1 1072:1 1220:1 1239:1 1247:1 1249:1 1256:1
-1 184:1 383:1 405:1 679:1 686:1 905:1 948:1 980:1 1072:1 1084:1 1155:1 1224:1 1239:1 1246:1 1249:1 1252:1 1253:1 1254:1 1256:2
-1 383:1 679:1 686:1 699:1 905:1 1220:1 1224:1 1246:1 1249:1 1252:1 1256:2
-1 448:1 1241:1 1256:3
-1 679:1 905:1 948:1 1224:1 1249:1 1254:1 1256:2
-1 370:1 679:1 699:1 1010:1 1188:1 1220:1 1247:1 1249:1 1256:2
-1 133:1 196:1 283:1 613:1 679:1 699:1 1072:1 1215:1 1220:1 1228:1 1239:1 1249:1 1256:2
-1 448:1 1241:1 1256:4
-1 679:1 1249:1 1256:4
-1 184:1 383:1 679:1 686:1 699:1 771:1 869:1 905:1 948:1 1072:1 1102:1 1216:1 1220:1 1222:1 1224:1 1239:1 1243:1 1246:1 1249:1 1252:1 1253:1 1254:1 1256:2
-1 175:1 188:1 235:1 246:1 253:1 504:1 519:1 561:1 579:1 634:1 699:1 844:1 848:1 865:1 910:1 941:1 1012:1 1220:1 1230:1 1256:1
-1 448:1 1241:1 1256:3
-1 448:1 1241:1 1256:2
-1 268:1 383:1 504:1 522:1 679:1 686:1 771:1 905:1 969:1 975:1 1072:1 1217:1 1222:1 1223:1 1224:1 1227:1 1230:1 1239:1 1246:1 1249:1 1252:1 1256:1 1258:2
-1 679:1 686:1 905:1 1072:1 1224:1 1239:1 1249:1 1252:1 1256:3
-1 1014:1 1256:1
-1 1014:1 1256:1
-1 246:1 253:1 255:1 519:1 561:1 579:1 686:1 699:1 844:1 865:1 1012:1 1220:1 1252:1 1256:2
-1 246:1 253:1 400:1 504:1 561:1 579:1 634:1 679:1 686:1 699:1 844:1 865:1 1008:1 1010:1 1012:1 1072:1 1220:1 1230:1 1239:1 1247:1 1249:1 1252:1 1256:1
-1 1014:1 1256:1
-1 184:1 283:1 383:1 504:3 679:7 686:2 771:1 869:1 905:2 948:1 969:1 1072:2 1102:1 1216:1 1222:1 1223:1 1224:2 1228:1 1230:3 1239:2 1243:1 1246:1 1249:7 1252:2 1253:1 1254:1 1256:6 1258:1
-1 184:1 207:1 504:1 679:1 686:1 771:1 905:1 948:1 969:1 1102:1 1216:1 1222:1 1223:1 1224:1 1230:1 1249:1 1252:1 1253:1 1254:1 1256:4
-1 448:1 1241:1 1256:3
-1 679:1 699:1 905:1 1220:1 1224:1 1249:1 1256:5
-1 184:1 504:3 679:5 686:2 771:2 905:2 948:1 969:1 1072:2 1087:1 1102:1 1216:1 1222:2 1223:1 1224:2 1230:3 1239:2 1249:5 1252:2 1253:1 1254:1 1255:1 1256:6
-1 679:1 699:2 1220:2 1249:1 1256:2
-1 184:1 383:1 395:1 477:1 504:1 679:1 686:1 771:1 905:1 948:1 1072:1 1102:1 1214:1 1216:1 1222:1 1224:1 1230:1 1239:1 1246:1 1249:1 1252:1 1253:1 1254:1 1256:2
-1 679:1 905:1 948:1 1072:1 1102:1 1216:1 1224:1 1239:1 1249:1 1254:1 1256:1
-1 188:1 246:1 253:1 255:1 256:1 406:1 437:1 458:1 504:1 519:1 561:1 579:1 617:1 699:1 824:1 840:1 844:1 848:1 865:1 889:1 921:1 941:1 1010:1 1012:1 1123:1 1220:1 1230:1 1247:1 1256:2
-1 448:1 1241:1 1256:3
-1 420:1 538:1 562:1 679:1 831:1 1066:1 1072:1 1142:1 1239:1 1249:1 1256:3
-1 168:1 359:1 679:1 686:1 905:1 948:1 1072:1 1224:1 1239:1 1240:1 1249:1 1252:1 1254:1 1256:1
-1 184:1 679:1 686:1 771:1 905:1 948:1 969:1 1072:1 1222:1 1223:1 1224:1 1239:1 1249:1 1252:1 1253:1 1254:1 1256:3
-1 235:1 246:1 253:1 255:1 437:1 519:1 561:1 579:1 634:1 663:1 696:1 699:1 707:1 840:1 844:1 865:1 889:1 921:1 941:1 1012:1 1220:1 1256:1
-1 122:1 188:1 209:1 246:1 253:1 255:1 382:1 406:1 409:1 437:1 519:1 561:1 579:1 617:1 644:1 699:1 840:1 844:1 865:1 889:1 910:1 921:1 941:1 986:1 1012:1 1114:1 1123:1 1131:1 1220:1 1221:1 1256:2
-1 175:1 246:1 253:1 330:1 561:1 579:1 634:1 679:1 686:1 699:1 844:1 865:1 889:1 905:1 1012:1 1072:1 1220:1 1224:1 1239:1 1249:1 1252:1 1256:2
-1 472:1 679:1 686:1 709:1 771:1 883:1 905:1 1032:1 1072:1 1222:1 1224:1 1226:1 1239:1 1249:1 1252:1 1256:2
-1 679:1 699:2 869:1 1220:2 1243:1 1249:1 1256:3
-1 184:1 504:1 679:1 771:1 905:1 975:1 1072:1 1222:1 1224:1 1227:1 1230:1 1239:1 1249:1 1253:1 1256:1
-1 165:1 346:1 372:1 521:1 548:1 679:1 831:1 915:1 1003:1 1076:1 1141:1 1154:1 1249:1 1256:1
-1 679:1 686:1 771:1 905:1 975:1 1072:1 1222:1 1224:1 1227:1 1239:1 1249:1 1252:1 1256:2
-1 372:1 679:1 699:2 831:1 905:1 948:1 984:1 1172:1 1220:2 1224:1 1249:1 1254:1 1256:2
-1 448:1 1241:1 1256:3
-1 679:1 905:1 948:1 969:1 1072:1 1102:1 1216:1 1223:1 1224:1 1239:1 1249:1 1254:1 1256:1
-1 168:1 184:1 196:1 283:1 383:1 504:1 638:1 679:1 686:1 762:1 771:1 905:1 907:1 948:1 975:1 1072:1 1087:1 1215:1 1218:1 1222:1 1224:1 1225:1 1227:1 1228:1 1230:1 1239:1 1240:1 1246:1 1249:1 1252:1 1253:1 1254:1 1255:1 1256:1
-1 448:1 1241:1 1256:3
-1 232:1 543:1 679:1 686:1 699:1 771:1 905:1 1010:1 1072:1 1220:1 1222:1 1224:1 1238:1 1239:1 1247:1 1249:1 1252:1 1256:3
-1 246:1 253:1 561:1 579:1 591:1 679:1 685:1 686:1 696:1 699:1 771:1 844:1 865:1 905:1 1010:1 1012:1 1072:1 1131:1 1150:1 1220:1 1222:1 1224:1 1239:1 1247:1 1249:1 1252:1 1256:1
-1 246:1 253:1 455:1 561:1 699:1 835:1 844:1 865:1 1012:1 1220:1 1256:2
-1 175:1 188:1 235:1 246:1 253:1 447:1 503:1 519:1 535:1 537:1 561:1 579:1 699:1 844:1 848:1 865:1 910:1 941:1 1012:1 1123:1 1131:1 1150:1 1220:1 1256:1 1258:2
-1 175:1 188:1 235:1 236:1 246:1 253:1 330:1 437:1 504:1 535:1 561:1 579:1 590:1 617:1 634:1 679:1 698:1 699:1 778:1 780:1 840:1 844:1 848:1 865:1 870:1 887:1 889:1 905:1 941:1 948:1 1010:1 1012:1 1056:1 1072:1 1097:1 1107:1 1123:1 1131:1 1150:1 1210:1 1220:1 1224:1 1230:1 1239:1 1247:1 1249:1 1254:1 1256:3
-1 175:1 235:1 246:1 253:1 330:1 437:1 519:1 561:1 579:1 590:1 617:1 634:1 679:1 699:1 844:1 865:1 905:1 937:1 941:1 948:1 1010:1 1012:1 1210:1 1220:1 1224:1 1247:1 1249:1 1254:1 1256:2
-1 188:1 246:1 253:1 255:1 266:1 387:1 486:1 519:1 561:1 580:1 617:1 684:1 699:1 750:1 844:1 865:1 889:1 921:1 941:1 1012:1 1123:1 1145:1 1150:1 1220:1 1256:2
-1 679:1 699:2 869:1 1220:2 1243:1 1249:1 1256:3
-1 168:1 504:1 679:1 699:1 771:1 869:1 905:1 1072:1 1220:1 1222:1 1224:1 1230:1 1239:1 1240:1 1243:1 1249:1 1256:1
-1 1014:1 1256:1
-1 448:1 1241:1 1256:3
-1 448:1 1241:1 1256:3
-1 184:1 504:3 679:5 686:1 771:2 905:2 948:1 969:1 1072:2 1222:2 1223:1 1224:2 1230:3 1239:2 1249:5 1252:1 1253:1 1254:1 1256:6
-1 188:1 243:1 246:1 253:1 255:1 266:1 386:1 437:1 458:1 486:1 504:1 519:1 561:1 566:1 579:1 595:1 617:1 644:1 699:1 844:1 865:1 889:1 921:1 941:1 975:1 1010:1 1012:1 1097:1 1123:1 1176:1 1220:1 1227:1 1230:1 1247:1 1256:2
-1 679:1 699:1 710:1 905:1 1220:1 1224:1 1249:1 1256:2
-1 246:1 253:1 561:1 579:1 699:1 844:1 865:1 889:1 1012:1 1220:1 1256:2
-1 184:1 679:1 686:1 771:1 905:1 948:1 969:1 1072:1 1222:1 1223:1 1224:1 1239:1 1249:1 1252:1 1253:1 1254:1 1256:3
-1 184:1 679:1 686:1 771:1 905:1 948:1 1102:1 1216:1 1222:1 1224:1 1249:1 1252:1 1253:1 1254:1 1256:2
-1 517:1 679:1 699:1 1220:1 1249:1 1256:3
-1 246:1 253:1 504:1 561:1 579:1 699:1 771:1 844:1 865:1 905:1 910:1 941:1 1010:1 1012:1 1220:1 1222:1 1224:1 1230:1 1247:1 1256:1
-1 184:1 246:1 253:1 504:1 579:1 679:1 686:1 699:1 704:1 771:1 844:1 848:1 865:1 889:1 905:1 939:1 948:1 975:1 1010:1 1012:1 1072:1 1123:1 1220:1 1222:1 1224:1 1227:1 1230:1 1239:1 1247:1 1249:1 1252:1 1253:1 1254:1 1256:2
-1 235:1 246:1 253:1 339:1 561:1 679:1 699:1 844:1 865:1 1010:1 1012:1 1072:1 1220:1 1239:1 1247:1 1249:1 1256:1
-1 184:1 679:1 686:1 771:1 905:1 948:1 969:1 1072:1 1222:1 1223:1 1224:1 1239:1 1249:1 1252:1 1253:1 1254:1 1256:3
-1 243:1 253:1 303:1 325:1 406:1 433:1 535:1 617:1 638:1 643:1 659:1 695:1 844:1 867:1 935:1 941:1 1010:1 1012:1 1115:1 1137:1 1247:1 1256:3 1258:4
-1 679:1 905:1 1224:1 1249:1 1256:1
-1 184:1 504:1 679:4 905:2 1072:3 1224:2 1230:1 1239:3 1249:4 1253:1 1256:4
-1 1014:1 1256:1
-1 319:1 699:1 1220:1 1256:2
-1 699:1 872:1 1220:1 1256:2
-1 319:1 699:1 1220:1 1256:2
-1 699:1 872:1 1220:1 1256:2
-1 679:1 699:1 1220:1 1249:1 1256:3
-1 679:1 686:1 771:1 905:1 948:1 1072:1 1222:1 1224:1 1239:1 1249:1 1252:1 1254:1 1256:2
-1 1014:1 1256:1
-1 679:1 699:1 905:1 1072:1 1220:1 1224:1 1239:1 1249:1 1256:3
-1 679:1 1249:1 1256:2
-1 679:1 1249:1 1256:3
-1 448:1 1241:1 1256:3
-1 679:1 905:1 1224:1 1249:1 1256:3 1258:9
-1 196:1 383:1 585:1 679:1 686:1 905:1 948:1 1215:1 1224:1 1246:1 1249:1 1252:1 1254:1 1256:2
-1 184:1 314:1 330:1 504:1 679:1 686:1 699:1 759:1 762:1 771:1 905:1 937:1 948:1 975:1 1010:1 1072:1 1075:1 1218:1 1220:1 1222:1 1224:1 1227:1 1230:1 1239:1 1245:1 1247:1 1249:1 1252:1 1253:1 1254:1 1256:2
-1 127:1 184:1 254:1 314:1 383:1 504:1 509:1 522:1 679:1 686:1 699:1 723:1 762:1 771:1 905:1 948:1 975:1 1010:1 1039:1 1072:1 1126:1 1218:1 1220:1 1222:1 1224:1 1227:1 1230:1 1233:1 1239:1 1245:1 1246:1 1247:1 1249:1 1252:1 1253:1 1254:1 1256:2
-1 679:1 699:2 1220:2 1249:1 1256:3
-1 638:1 679:1 735:1 744:1 771:1 905:1 969:1 975:1 1072:1 1222:1 1223:1 1224:1 1227:1 1239:1 1248:1 1249:1 1256:2
-1 209:1 679:1 699:1 794:1 905:1 926:1 1220:1 1221:1 1224:1 1249:1 1256:1
-1 679:1 699:2 905:1 1072:1 1220:2 1224:1 1239:1 1249:1 1256:3
-1 679:1 1249:1 1256:3
-1 679:1 686:1 699:1 711:1 905:1 948:1 981:1 1072:1 1102:1 1216:1 1220:1 1224:1 1239:1 1249:1 1252:1 1254:1 1256:2
-1 679:1 905:1 948:1 969:1 1223:1 1224:1 1249:1 1254:1 1256:2
-1 137:1 504:1 561:1 644:1 676:1 679:1 699:1 771:1 805:1 1072:1 1123:1 1220:1 1222:1 1230:1 1239:1 1249:1 1256:2
-1 448:1 1241:1 1256:3
-1 184:1 504:3 679:5 686:1 771:1 905:2 948:1 969:1 1072:2 1102:1 1216:1 1222:1 1223:1 1224:2 1230:3 1239:2 1249:5 1252:1 1253:1 1254:1 1256:6
-1 184:1 504:3 679:4 771:1 905:2 948:1 969:1 1072:2 1222:1 1223:1 1224:2 1230:3 1239:2 1249:4 1253:1 1254:1 1256:6
-1 346:1 679:1 699:2 869:1 1220:2 1243:1 1249:1 1256:2
-1 448:1 1241:1 1256:3
-1 184:1 311:1 504:1 679:1 686:1 771:1 905:1 948:1 969:1 975:1 1032:1 1072:1 1087:1 1102:1 1216:1 1222:1 1223:1 1224:1 1227:1 1230:1 1239:1 1249:1 1252:1 1253:1 1254:1 1255:1 1256:2
-1 214:1 679:1 905:1 948:1 1224:1 1249:1 1254:1 1256:1
-1 184:1 236:1 314:1 383:1 477:1 504:1 679:1 686:1 762:1 771:1 831:1 905:1 948:1 975:1 1072:1 1087:1 1102:1 1214:1 1216:1 1218:1 1222:1 1224:1 1227:1 1230:1 1239:1 1245:1 1246:1 1249:1 1252:1 1253:1 1254:1 1255:1 1256:1 1258:973
-1 184:1 236:1 314:1 383:1 477:1 504:1 679:1 686:1 762:1 771:1 831:1 905:1 948:1 975:1 1072:1 1087:1 1102:1 1214:1 1216:1 1218:1 1222:1 1224:1 1227:1 1230:1 1239:1 1245:1 1246:1 1249:1 1252:1 1253:1 1254:1 1255:1 1256:1 1258:973
-1 448:1 1241:1 1256:4
-1 284:1 504:1 543:1 609:1 679:1 699:1 735:1 744:1 771:1 939:1 975:1 1010:1 1072:1 1220:1 1222:1 1227:1 1230:1 1239:1 1247:1 1248:1 1249:1 1256:1
-1 184:1 188:1 246:1 253:1 255:1 348:1 383:1 437:1 458:1 504:1 509:1 519:1 561:1 579:1 592:1 617:1 638:1 679:1 686:1 699:1 751:1 762:1 771:1 780:1 824:1 844:1 848:1 865:1 889:1 905:1 910:1 937:1 941:1 948:1 975:1 1010:1 1012:1 1062:1 1108:1 1150:1 1218:1 1220:1 1222:1 1224:1 1227:1 1230:1 1233:1 1244:1 1246:1 1247:1 1249:1 1252:1 1253:1 1254:1 1256:1
-1 448:1 1241:1 1256:3
-1 679:1 1249:1 1256:3
-1 141:1 191:1 679:1 1010:1 1072:1 1239:1 1247:1 1249:1 1256:1
-1 184:1 679:1 905:1 948:1 969:1 1072:1 1223:1 1224:1 1239:1 1249:1 1253:1 1254:1 1256:2
-1 184:1 504:1 679:2 905:2 1072:2 1224:2 1230:1 1239:2 1249:2 1253:1 1256:7
-1 679:1 699:2 1220:2 1249:1 1256:4
-1 184:1 383:1 504:1 679:1 686:1 771:1 905:1 948:1 969:1 1072:1 1222:1 1223:1 1224:1 1230:1 1239:1 1246:1 1249:1 1252:1 1253:1 1254:1 1256:5
-1 188:1 246:1 253:1 255:1 351:1 386:1 406:1 519:1 561:1 580:1 617:1 699:1 741:1 824:1 844:1 848:1 865:1 921:1 941:1 1002:1 1008:1 1012:1 1123:1 1131:1 1150:1 1220:1 1256:1
-1 184:1 679:1 686:1 699:1 905:1 948:1 1144:1 1220:1 1224:1 1249:1 1252:1 1253:1 1254:1 1256:2
-1 235:1 246:1 253:1 504:1 561:1 579:1 634:1 679:1 696:1 699:1 844:1 865:1 889:1 1012:1 1072:1 1220:1 1230:1 1239:1 1249:1 1256:1
-1 268:1 504:1 509:1 638:1 679:1 686:1 696:1 699:1 709:1 722:1 744:1 771:1 931:1 1072:1 1217:1 1220:1 1222:1 1226:1 1230:1 1233:1 1239:1 1248:1 1249:1 1252:1 1256:1
-1 246:1 253:1 561:1 699:1 775:1 844:1 865:1 1012:1 1220:1 1256:1
-1 346:1 679:1 699:2 1220:2 1249:1 1256:2
-1 184:1 504:1 679:1 686:1 699:1 771:1 905:1 1072:1 1220:1 1222:1 1224:1 1230:1 1239:1 1249:1 1252:1 1253:1 1256:3
-1 184:1 679:1 699:1 905:1 1072:1 1168:1 1220:1 1224:1 1239:1 1249:1 1253:1 1256:3
-1 448:1 1241:1 1256:3
-1 448:1 1241:1 1256:3
-1 448:1 1241:1 1256:2
-1 448:1 1241:1 1256:2
-1 679:1 686:1 1249:1 1252:1 1256:1
-1 168:1 522:1 679:1 686:1 709:1 744:1 771:1 905:1 948:1 1222:1 1224:1 1226:1 1240:1 1248:1 1249:1 1252:1 1254:1 1256:1 1258:2
-1 184:1 441:1 504:2 679:4 905:2 948:1 1072:2 1102:1 1216:1 1224:2 1230:2 1239:2 1249:4 1253:1 1254:1 1256:6
-1 448:1 1241:1 1256:4
-1 448:1 1241:1 1256:2
-1 448:1 1241:1 1256:2
-1 184:1 679:1 686:1 771:1 905:1 948:1 969:1 1072:1 1222:1 1223:1 1224:1 1239:1 1249:1 1252:1 1253:1 1254:1 1256:2
-1 448:1 1241:1 1256:3
-1 184:1 679:1 686:1 905:1 948:1 1072:1 1102:1 1216:1 1224:1 1239:1 1249:1 1252:1 1253:1 1254:1 1256:1
-1 1256:1
-1 196:1 383:1 679:1 699:2 771:1 1072:1 1215:1 1220:2 1222:1 1239:1 1246:1 1249:1 1256:3
-1 448:1 1241:1 1256:3
-1 610:1 679:1 1249:1 1256:2
-1 679:1 801:1 1249:1 1256:1
-1 279:1 420:1 562:1 679:1 691:1 699:2 1220:2 1249:1 1256:2
-1 699:1 1220:1 1256:3
-1 235:1 246:1 253:1 255:1 406:1 463:1 519:1 561:1 579:1 634:1 699:1 824:1 840:1 844:1 848:1 865:1 923:1 941:1 1012:1 1094:1 1220:1 1256:3
-1 184:1 383:1 504:1 679:1 869:1 905:1 948:1 1072:1 1102:1 1216:1 1224:1 1230:1 1239:1 1243:1 1246:1 1249:1 1253:1 1254:1 1256:5
-1 184:1 679:1 686:1 771:1 905:1 948:1 969:1 1072:1 1222:1 1223:1 1224:1 1239:1 1249:1 1252:1 1253:1 1254:1 1256:2
-1 184:1 383:1 504:1 679:1 686:1 771:1 905:1 948:1 969:1 1072:1 1222:1 1223:1 1224:1 1230:1 1239:1 1246:1 1249:1 1252:1 1253:1 1254:1 1256:5
-1 175:1 235:1 246:1 253:1 447:1 537:1 561:1 579:1 699:1 844:1 865:1 910:1 1010:1 1012:1 1128:1 1220:1 1247:1 1256:1 1258:3
-1 400:1 481:1 551:1 663:1 679:1 699:1 735:1 1010:1 1072:1 1220:1 1239:1 1247:1 1249:1 1256:3
-1 175:1 235:1 447:1 537:1 551:1 634:1 679:1 699:1 771:1 1072:1 1220:1 1222:1 1239:1 1249:1 1256:2
-1 157:1 679:1 686:1 699:1 771:1 1072:1 1220:1 1222:1 1239:1 1249:1 1252:1 1256:1
-1 448:1 1241:1 1256:2
-1 448:1 1241:1 1256:2
-1 679:1 699:2 1220:2 1249:1 1256:2
-1 679:1 699:2 1220:2 1249:1 1256:3
-1 679:1 905:1 1224:1 1249:1 1256:5
-1 448:1 1241:1 1256:3
-1 679:1 699:2 1220:2 1249:1 1256:2
-1 679:1 699:2 1220:2 1249:1 1256:2
-1 679:1 699:2 1220:2 1249:1 1256:2
-1 196:1 383:1 465:1 679:1 1215:1 1246:1 1249:1 1256:2
-1 184:1 504:1 679:2 905:2 1072:2 1224:2 1230:1 1239:2 1249:2 1253:1 1256:7
-1 383:1 1014:1 1246:1 1256:1
-1 679:1 699:2 1220:2 1249:1 1256:2
-1 184:1 383:1 504:1 677:1 679:1 686:1 771:1 905:1 948:1 975:1 1072:1 1102:1 1216:1 1222:1 1224:1 1227:1 1230:1 1239:1 1246:1 1249:1 1252:1 1253:1 1254:1 1256:4
-1 383:1 679:1 699:1 905:1 948:1 1102:1 1216:1 1220:1 1224:1 1246:1 1249:1 1254:1 1256:4 1258:112
-1 679:1 699:2 1220:2 1249:1 1256:2
-1 184:1 472:1 679:1 686:1 771:1 883:1 905:1 948:1 1072:1 1102:1 1216:1 1222:1 1224:1 1239:1 1249:1 1252:1 1253:1 1254:1 1256:1
-1 679:1 699:2 1220:2 1249:1 1256:2
-1 1014:1 1256:2
-1 448:1 1241:1 1256:3
-1 448:1 1241:1 1256:2
-1 184:1 383:1 504:1 679:1 686:1 771:1 905:1 948:1 975:1 1039:1 1072:1 1222:1 1224:1 1227:1 1230:1 1239:1 1246:1 1249:1 1252:1 1253:1 1254:1 1256:2
-1 679:1 699:2 1220:2 1249:1 1256:2
-1 679:1 699:2 1220:2 1249:1 1256:2
-1 679:1 699:2 1220:2 1249:1 1256:2
-1 679:1 699:2 1220:2 1249:1 1256:2
-1 268:1 638:1 679:1 686:1 699:1 771:1 1072:1 1217:1 1220:1 1222:1 1239:1 1249:1 1252:1 1256:1
-1 620:1 679:1 686:1 699:1 771:1 905:1 975:1 1072:1 1220:1 1222:1 1224:1 1227:1 1239:1 1249:1 1252:1 1256:1
-1 679:1 699:1 712:1 1072:1 1220:1 1239:1 1249:1 1256:2
-1 184:1 679:1 699:1 905:1 1010:1 1072:1 1220:1 1224:1 1239:1 1247:1 1249:1 1253:1 1256:2
-1 184:1 233:1 506:1 620:1 679:1 686:1 699:1 762:1 905:1 1072:1 1096:1 1218:1 1220:1 1224:1 1239:1 1249:1 1252:1 1253:1 1256:2 1258:62
-1 184:1 504:1 679:4 905:2 1072:3 1224:2 1230:1 1239:3 1249:4 1253:1 1256:5
-1 127:1 184:1 254:1 314:1 383:1 504:1 509:1 522:1 679:1 686:1 699:1 723:1 762:1 771:1 905:1 948:1 975:1 1010:1 1039:1 1072:1 1126:1 1218:1 1220:1 1222:1 1224:1 1227:1 1230:1 1233:1 1239:1 1245:1 1246:1 1247:1 1249:1 1252:1 1253:1 1254:1 1256:2
-1 679:1 699:2 905:1 1220:2 1224:1 1249:1 1256:2
-1 679:1 699:2 905:1 1220:2 1224:1 1249:1 1256:2
-1 679:1 699:2 898:1 905:1 1072:1 1220:2 1224:1 1239:1 1249:1 1256:4
-1 1014:1 1256:1
-1 448:1 1241:1 1256:3
-1 679:1 686:1 905:1 1072:1 1224:1 1239:1 1249:1 1252:1 1256:2
-1 184:1 397:1 679:1 686:1 699:1 905:1 948:1 1144:1 1220:1 1224:1 1249:1 1252:1 1253:1 1254:1 1256:2
-1 184:1 679:1 686:1 771:1 905:1 948:1 969:1 1072:1 1222:1 1223:1 1224:1 1239:1 1249:1 1252:1 1253:1 1254:1 1256:3
-1 679:1 699:2 869:1 1220:2 1243:1 1249:1 1256:3
-1 1014:1 1256:1
-1 1014:1 1256:1
-1 448:1 1241:1 1256:2
-1 184:1 314:1 504:1 592:1 679:1 686:1 699:1 762:1 771:1 905:1 937:1 948:1 969:1 1010:1 1072:1 1087:1 1218:1 1220:1 1222:1 1223:1 1224:1 1230:1 1239:1 1244:1 1245:1 1247:1 1249:1 1252:1 1253:1 1254:1 1255:1 1256:1 1258:1
-1 235:1 246:1 253:1 458:1 561:1 634:1 699:1 844:1 848:1 865:1 1012:1 1220:1 1256:3
-1 184:1 679:1 686:1 771:1 905:1 948:1 1072:1 1222:1 1224:1 1239:1 1249:1 1252:1 1253:1 1254:1 1256:3
-1 184:1 679:1 686:1 771:1 905:1 948:1 1072:1 1222:1 1224:1 1239:1 1249:1 1252:1 1253:1 1254:1 1256:2
-1 1256:1
-1 184:1 679:1 686:1 699:1 771:1 905:1 948:1 1072:1 1102:1 1216:1 1220:1 1222:1 1224:1 1239:1 1249:1 1252:1 1253:1 1254:1 1256:2
-1 184:1 679:1 686:1 771:1 905:1 948:1 969:1 1072:1 1222:1 1223:1 1224:1 1239:1 1249:1 1252:1 1253:1 1254:1 1256:2
-1 679:1 699:2 1220:2 1249:1 1256:2
-1 610:1 679:1 1249:1 1256:2
-1 448:1 1241:1 1256:4
-1 679:1 1249:1 1256:2
-1 144:15 560:227 638:1 679:1 699:2 928:1 974:1 1220:2 1249:1 1256:2
-1 679:1 699:2 928:1 1220:2 1249:1 1256:2
-1 184:1 679:1 686:1 771:1 905:1 948:1 969:1 1072:1 1222:1 1223:1 1224:1 1239:1 1249:1 1252:1 1253:1 1254:1 1256:3
-1 184:1 679:1 686:1 771:1 905:1 948:1 969:1 1072:1 1222:1 1223:1 1224:1 1239:1 1249:1 1252:1 1253:1 1254:1 1256:3
-1 264:1 592:1 617:1 679:1 699:1 771:1 905:1 948:1 975:1 1010:1 1096:1 1210:1 1220:1 1222:1 1224:1 1227:1 1244:1 1247:1 1249:1 1254:1 1256:1
-1 285:1 679:1 771:1 905:1 948:1 1222:1 1224:1 1249:1 1254:1 1256:1
-1 610:1 679:1 1249:1 1256:2
-1 188:1 246:1 253:1 519:1 561:1 579:1 617:1 679:1 686:1 699:1 844:1 848:1 865:1 905:1 941:1 1012:1 1072:1 1220:1 1224:1 1239:1 1249:1 1252:1 1256:4
-1 504:1 679:1 905:1 1224:1 1230:1 1249:1 1256:4
-1 188:1 246:1 253:1 255:1 266:1 519:1 561:1 579:1 644:1 669:1 699:1 824:1 844:1 865:1 921:1 1012:1 1123:1 1220:1 1256:2
-1 679:1 980:1 1007:1 1084:1 1249:1 1256:2
-1 448:1 1241:1 1256:5
-1 196:1 679:1 686:1 699:1 905:1 1072:1 1102:1 1215:1 1216:1 1220:1 1224:1 1239:1 1249:1 1252:1 1256:4
-1 448:1 1241:1 1256:3
-1 679:1 699:1 1220:1 1249:1 1256:6
-1 441:1 679:1 1249:1 1256:4 1258:3
-1 184:1 504:1 679:2 905:2 1072:2 1224:2 1230:1 1239:2 1249:2 1253:1 1256:7
-1 184:1 314:1 383:1 504:1 679:1 686:1 771:1 905:1 948:1 1072:1 1102:1 1216:1 1222:1 1224:1 1230:1 1239:1 1245:1 1246:1 1249:1 1252:1 1253:1 1254:1 1256:2
-1 383:1 679:1 771:1 905:1 1072:1 1222:1 1224:1 1239:1 1246:1 1249:1 1256:2
-1 679:1 1249:1 1256:1
-1 679:1 686:1 905:1 948:1 1072:1 1224:1 1239:1 1249:1 1252:1 1254:1 1256:2
-1 679:1 686:1 905:1 948:1 1072:1 1224:1 1239:1 1249:1 1252:1 1254:1 1256:2
-1 184:1 679:1 686:1 771:1 905:1 948:1 969:1 1072:1 1222:1 1223:1 1224:1 1239:1 1249:1 1252:1 1253:1 1254:1 1256:3
-1 184:1 383:1 504:3 679:4 686:1 762:1 771:2 905:2 948:1 969:1 1072:2 1102:1 1216:1 1218:1 1222:2 1223:1 1224:2 1230:3 1239:2 1246:1 1249:4 1252:1 1253:1 1254:1 1256:6
-1 188:1 246:1 253:1 255:1 266:1 519:1 561:1 580:1 643:1 699:1 844:1 865:1 889:1 921:1 941:1 1010:1 1012:1 1123:1 1131:1 1220:1 1247:1 1256:2
-1 1014:1 1256:1
-1 679:1 905:1 948:1 969:1 1072:1 1102:1 1216:1 1223:1 1224:1 1239:1 1249:1 1254:1 1256:1
-1 165:1 346:1 372:1 521:1 548:1 679:1 831:1 915:1 1003:1 1076:1 1141:1 1154:1 1249:1 1256:2
-1 346:1 372:1 679:1 699:2 831:1 915:1 1220:2 1249:1 1256:2
-1 679:1 686:1 699:1 905:1 1072:1 1220:1 1224:1 1239:1 1249:1 1252:1 1256:3
-1 184:1 504:2 679:5 905:2 948:1 969:1 1072:2 1223:1 1224:2 1230:2 1239:2 1249:5 1253:1 1254:1 1256:6
-1 184:1 383:1 504:2 679:4 905:2 948:1 1072:2 1102:1 1216:1 1224:2 1230:2 1239:2 1246:1 1249:4 1253:1 1254:1 1256:6
-1 679:1 1249:1 1256:2
-1 184:1 679:1 686:1 771:1 905:1 948:1 969:1 1072:1 1222:1 1223:1 1224:1 1239:1 1249:1 1252:1 1253:1 1254:1 1256:3
-1 184:1 679:1 905:1 1224:1 1249:1 1253:1 1256:3
-1 184:1 679:1 686:1 771:1 905:1 948:1 969:1 1072:1 1222:1 1223:1 1224:1 1239:1 1249:1 1252:1 1253:1 1254:1 1256:3
-1 184:1 679:1 686:1 771:1 905:1 948:1 969:1 1072:1 1222:1 1223:1 1224:1 1239:1 1249:1 1252:1 1253:1 1254:1 1256:3
-1 184:1 504:1 679:2 905:2 1072:2 1224:2 1230:1 1239:2 1249:2 1253:1 1256:7
-1 323:1 679:1 1249:1 1256:2
-1 184:1 679:1 686:1 771:1 905:1 948:1 969:1 1072:1 1222:1 1223:1 1224:1 1239:1 1249:1 1252:1 1253:1 1254:1 1256:3
-1 184:1 504:3 679:5 771:1 905:2 948:1 1072:2 1102:1 1216:1 1222:1 1224:2 1230:3 1239:2 1249:5 1253:1 1254:1 1256:6
-1 184:1 504:1 679:3 771:1 905:2 948:1 969:1 1072:2 1102:1 1216:1 1222:1 1223:1 1224:2 1230:1 1239:2 1249:3 1253:1 1254:1 1256:6
-1 448:1 1241:1 1256:3
-1 184:1 679:1 686:1 771:1 905:1 948:1 969:1 1072:1 1222:1 1223:1 1224:1 1239:1 1249:1 1252:1 1253:1 1254:1 1256:3
-1 395:1 679:1 686:1 699:1 771:1 905:1 1144:1 1220:1 1222:1 1224:1 1249:1 1252:1 1256:2
-1 168:1 522:1 679:1 686:1 709:1 744:1 771:1 905:1 948:1 1222:1 1224:1 1226:1 1240:1 1248:1 1249:1 1252:1 1254:1 1256:3 1258:2
-1 1014:1 1256:1
-1 448:1 1241:1 1256:3
-1 448:1 1241:1 1256:3
-1 679:1 699:2 1220:2 1249:1 1256:2
-1 184:1 679:1 686:1 771:1 905:1 948:1 975:1 1102:1 1216:1 1222:1 1224:1 1227:1 1249:1 1252:1 1253:1 1254:1 1256:2
-1 679:1 699:1 1220:1 1249:1 1256:2
-1 383:1 679:1 699:1 1220:1 1246:1 1249:1 1256:2
-1 184:1 383:1 504:3 679:5 686:1 771:1 905:2 948:1 969:1 987:1 1072:2 1102:1 1155:1 1169:1 1196:1 1216:1 1222:1 1223:1 1224:2 1230:3 1235:1 1239:2 1246:1 1249:5 1252:1 1253:1 1254:1 1256:6
-1 679:1 883:1 905:1 1224:1 1249:1 1256:2
-1 246:1 253:1 504:1 566:1 587:1 638:1 644:1 679:1 699:1 735:1 744:1 771:1 844:1 865:1 1012:1 1072:1 1220:1 1222:1 1230:1 1239:1 1248:1 1249:1 1256:2
-1 679:1 699:2 1220:2 1249:1 1256:2
-1 184:1 383:1 395:1 679:1 771:1 905:1 948:1 1072:1 1102:1 1216:1 1222:1 1224:1 1239:1 1246:1 1249:1 1253:1 1254:1 1256:2
-1 184:1 504:1 679:2 905:2 1072:2 1224:2 1230:1 1239:2 1249:2 1253:1 1256:7
-1 610:1 679:1 1249:1 1256:3
-1 448:1 1241:1 1256:4
-1 168:1 196:1 383:1 477:1 504:1 679:1 686:1 771:1 905:1 948:1 969:1 975:1 1039:1 1072:1 1102:1 1155:1 1214:1 1215:1 1216:1 1222:1 1223:1 1224:1 1227:1 1230:1 1239:1 1240:1 1246:1 1249:1 1252:1 1254:1 1256:1
-1 184:1 504:1 679:2 905:2 1072:2 1224:2 1230:1 1239:2 1249:2 1253:1 1256:7
-1 196:1 383:1 679:1 686:1 699:2 771:1 831:1 905:1 948:1 1072:1 1215:1 1220:2 1222:1 1224:1 1239:1 1246:1 1249:1 1252:1 1254:1 1256:3
-1 184:1 679:1 686:1 905:1 948:1 1072:1 1102:1 1216:1 1224:1 1239:1 1249:1 1252:1 1253:1 1254:1 1256:2
-1 1014:1 1256:1
-1 443:1 679:1 1249:1 1256:2
-1 246:1 253:1 561:1 638:1 679:1 699:1 844:1 865:1 1010:1 1012:1 1072:1 1220:1 1239:1 1247:1 1249:1 1256:3
-1 175:1 235:1 246:1 253:1 561:1 587:1 634:1 644:1 679:1 699:1 771:1 844:1 865:1 1010:1 1012:1 1072:1 1220:1 1222:1 1239:1 1247:1 1249:1 1256:2
-1 184:1 504:3 679:4 686:1 771:1 905:2 948:1 969:1 1072:2 1102:1 1216:1 1222:1 1223:1 1224:2 1230:3 1239:2 1249:4 1252:1 1253:1 1254:1 1256:6
-1 383:1 679:1 699:2 814:1 905:1 1220:2 1224:1 1246:1 1249:1 1256:2
-1 188:1 196:1 246:1 253:1 255:1 266:1 519:1 561:1 699:1 844:1 865:1 889:1 921:1 1010:1 1012:1 1123:1 1215:1 1220:1 1247:1 1256:2
-1 184:1 679:1 905:1 948:1 969:1 1072:1 1223:1 1224:1 1239:1 1249:1 1253:1 1254:1 1256:3
-1 184:1 221:1 314:1 504:1 679:1 699:1 771:1 905:1 948:1 1102:1 1216:1 1220:1 1222:1 1224:1 1230:1 1245:1 1249:1 1253:1 1254:1 1256:2
-1 472:1 679:1 686:1 709:1 883:1 905:1 948:1 1045:1 1087:1 1111:1 1224:1 1226:1 1249:1 1252:1 1254:1 1255:1 1256:2 1258:69
-1 168:1 184:1 246:1 253:1 268:1 437:1 504:1 509:1 519:1 561:1 587:1 679:1 686:1 699:1 735:1 744:1 762:1 771:1 844:1 848:1 865:1 905:1 910:1 948:1 969:1 975:1 1010:1 1012:1 1062:1 1072:1 1102:1 1216:1 1217:1 1218:1 1220:1 1222:1 1223:1 1224:1 1227:1 1230:1 1233:1 1239:1 1240:1 1247:1 1248:1 1249:1 1252:1 1253:1 1254:1 1256:1
-1 246:1 253:1 268:1 437:1 504:1 509:1 519:1 561:1 587:1 644:1 679:1 686:1 699:1 735:1 744:1 762:1 771:1 844:1 848:1 865:1 905:1 910:1 948:1 975:1 1009:1 1010:1 1012:1 1062:1 1072:1 1217:1 1218:1 1220:1 1222:1 1224:1 1227:1 1230:1 1233:1 1239:1 1247:1 1248:1 1249:1 1252:1 1254:1 1256:1
-1 448:1 1241:1 1256:2
-1 181:1 679:1 699:1 1220:1 1249:1 1256:3
-1 170:1 504:1 579:1 679:1 686:1 699:1 905:1 948:1 969:1 975:1 1010:1 1072:1 1096:1 1168:1 1220:1 1223:1 1224:1 1227:1 1230:1 1239:1 1247:1 1249:1 1252:1 1254:1 1256:2 1258:10
-1 679:1 905:1 1124:1 1224:1 1249:1 1256:2
-1 448:1 504:1 596:1 679:1 771:1 905:1 1072:1 1222:1 1224:1 1230:1 1239:1 1241:1 1249:1 1256:1
-1 679:1 905:1 948:1 1124:1 1224:1 1249:1 1254:1 1256:2
-1 188:1 246:1 253:1 255:1 406:1 486:1 561:1 579:1 597:1 617:1 644:1 679:1 699:1 726:1 844:1 848:1 865:1 889:1 921:1 941:1 1010:1 1012:1 1123:1 1220:1 1247:1 1249:1 1256:2
-1 170:1 184:1 209:1 330:1 504:1 512:1 522:1 592:1 633:1 638:1 679:1 686:1 699:1 735:1 744:1 771:1 905:1 975:1 1010:1 1072:1 1102:1 1210:1 1216:1 1220:1 1221:1 1222:1 1224:1 1227:1 1230:1 1236:1 1239:1 1244:1 1247:1 1248:1 1249:1 1252:1 1253:1 1256:1
-1 679:1 905:1 1124:1 1224:1 1249:1 1256:2
-1 579:1 679:1 699:1 1220:1 1249:1 1256:2
-1 184:1 679:1 771:1 905:1 1102:1 1216:1 1222:1 1224:1 1249:1 1253:1 1256:3
-1 649:1 679:1 699:1 1220:1 1249:1 1256:4
-1 679:1 905:1 1224:1 1249:1 1256:2
-1 261:21 610:1 679:1 932:1 960:5 1249:1 1256:3
-1 261:6 610:1 679:1 932:1 960:5 1249:1 1256:3
-1 679:1 699:1 710:1 905:1 1220:1 1224:1 1249:1 1256:1
-1 398:1 679:1 699:1 1220:1 1249:1 1256:2
-1 398:1 679:1 699:1 1220:1 1249:1 1256:2
-1 184:1 679:1 686:1 771:1 905:1 948:1 969:1 1072:1 1222:1 1223:1 1224:1 1239:1 1249:1 1252:1 1253:1 1254:1 1256:2
-1 679:1 699:1 771:1 905:1 1010:1 1072:1 1220:1 1222:1 1224:1 1239:1 1247:1 1249:1 1256:3
-1 127:1 170:1 184:1 232:1 504:1 679:1 686:1 699:1 771:1 905:1 948:1 975:1 1010:1 1072:1 1096:1 1102:1 1108:1 1216:1 1220:1 1222:1 1224:1 1227:1 1230:1 1238:1 1239:1 1247:1 1249:1 1252:1 1253:1 1254:1 1256:2
-1 246:1 253:1 561:1 644:1 679:1 699:1 735:1 744:1 844:1 865:1 1010:1 1012:1 1072:1 1220:1 1239:1 1247:1 1248:1 1249:1 1256:1
-1 1256:5
-1 1256:1
-1 184:1 188:1 246:1 253:1 504:1 535:1 561:1 579:1 590:1 617:1 679:1 686:1 699:1 744:1 828:1 844:1 865:1 889:1 905:1 913:1 921:1 941:1 975:1 1010:1 1012:1 1072:1 1097:1 1123:1 1146:1 1150:1 1220:1 1224:1 1227:1 1230:1 1239:1 1247:1 1248:1 1249:1 1252:1 1253:1 1256:1
-1 504:1 522:1 592:1 638:1 679:1 686:1 771:1 883:1 905:1 948:1 969:1 975:1 1072:1 1222:1 1223:1 1224:1 1227:1 1230:1 1239:1 1244:1 1249:1 1252:1 1254:1 1256:2 1258:1
-1 1256:1
-1 175:1 184:1 235:1 246:1 253:1 255:1 383:1 386:1 504:1 561:1 579:1 617:1 634:1 638:1 679:1 686:1 699:1 771:1 828:1 844:1 848:1 865:1 905:1 921:1 948:1 959:1 975:1 1010:1 1012:1 1072:1 1096:1 1102:1 1123:1 1150:1 1216:1 1220:1 1222:1 1224:1 1227:1 1230:1 1239:1 1246:1 1247:1 1249:1 1252:1 1253:1 1254:1 1256:1
-1 184:1 237:1 504:1 679:3 686:3 771:1 905:4 948:1 969:1 1072:2 1087:4 1102:2 1216:2 1222:1 1223:1 1224:4 1230:1 1239:2 1249:3 1252:3 1253:1 1254:1 1255:4 1256:6
-1 314:1 504:1 638:1 679:1 771:1 883:1 905:1 948:1 1072:1 1087:1 1222:1 1224:1 1230:1 1239:1 1245:1 1249:1 1254:1 1255:1 1256:1
-1 184:1 196:1 268:1 504:1 566:1 592:1 638:1 679:1 686:1 699:1 744:1 771:1 905:1 948:1 975:1 1010:1 1072:1 1102:1 1205:1 1215:1 1216:1 1217:1 1220:1 1222:1 1224:1 1227:1 1230:1 1239:1 1244:1 1247:1 1248:1 1249:1 1252:1 1253:1 1254:1 1256:1
-1 119:1 150:1 196:1 209:1 235:1 246:1 253:1 268:1 283:1 504:1 509:1 561:1 604:1 621:1 634:1 638:1 679:1 686:1 718:1 735:1 744:1 771:1 774:1 828:1 844:1 848:1 865:1 969:1 971:1 975:1 1010:1 1012:1 1062:1 1072:1 1173:1 1215:1 1217:1 1219:1 1221:1 1222:1 1223:1 1227:1 1228:1 1230:1 1233:1 1239:1 1247:1 1248:1 1249:1 1250:1 1252:1 1256:1
-1 504:1 638:1 679:1 686:1 699:1 771:1 905:1 975:1 1072:1 1220:1 1222:1 1224:1 1227:1 1230:1 1239:1 1249:1 1252:1 1256:2
-1 246:1 253:1 255:1 437:1 486:1 504:1 561:1 579:1 580:1 617:1 699:1 844:1 848:1 865:1 905:1 941:1 1012:1 1123:1 1131:1 1150:1 1220:1 1224:1 1230:1 1256:1
-1 168:1 184:1 196:1 283:1 311:1 357:1 383:1 504:1 512:1 522:1 609:1 638:1 679:1 686:1 699:1 744:1 771:1 854:1 905:1 948:1 975:1 1010:1 1036:1 1072:1 1102:1 1215:1 1216:1 1220:1 1222:1 1224:1 1227:1 1228:1 1230:1 1236:1 1239:1 1240:1 1246:1 1247:1 1248:1 1249:1 1252:1 1253:1 1254:1 1256:2
-1 679:1 905:1 1072:1 1224:1 1239:1 1249:1 1256:1
-1 162:1 263:1 297:1 327:1 679:1 699:2 1109:1 1220:2 1249:1 1256:2
-1 188:1 246:1 253:1 255:1 486:1 504:1 561:1 566:1 579:1 593:1 617:1 644:1 679:1 699:1 741:1 844:1 848:1 865:1 889:1 896:1 905:1 921:1 1010:1 1012:1 1072:1 1097:1 1123:1 1220:1 1224:1 1230:1 1239:1 1247:1 1249:1 1256:2 1258:1
-1 184:1 679:1 686:1 771:1 905:1 948:1 969:1 1072:1 1222:1 1223:1 1224:1 1239:1 1249:1 1252:1 1253:1 1254:1 1256:2
-1 188:1 246:1 253:1 255:1 406:1 437:1 458:1 486:1 519:1 561:1 566:1 617:1 645:1 699:1 736:1 844:1 865:1 921:1 941:1 1010:1 1012:1 1103:1 1123:1 1145:1 1220:1 1247:1 1256:3
-1 138:1 236:1 246:1 253:1 255:1 406:1 519:1 531:1 561:1 579:1 580:1 617:1 699:1 844:1 865:1 889:1 905:1 948:1 986:1 1010:1 1012:1 1131:1 1220:1 1224:1 1247:1 1254:1 1256:3
-1 184:1 679:1 686:1 771:1 905:1 948:1 969:1 1072:1 1222:1 1223:1 1224:1 1239:1 1249:1 1252:1 1253:1 1254:1 1256:2
-1 679:1 883:1 929:1 1249:1 1256:2 1258:2
-1 196:1 679:1 905:1 1072:1 1102:1 1215:1 1216:1 1224:1 1239:1 1249:1 1256:2
-1 184:1 679:1 686:1 771:1 905:1 948:1 1072:1 1222:1 1224:1 1239:1 1249:1 1252:1 1253:1 1254:1 1256:2
-1 448:1 1241:1 1256:3
-1 244:1 679:1 1249:1 1256:2
-1 346:1 372:1 679:1 699:2 831:1 915:1 1165:1 1220:2 1249:1 1256:2
-1 184:1 383:1 504:1 679:3 686:2 771:1 905:2 948:1 1072:2 1222:1 1224:2 1230:1 1239:2 1246:1 1249:3 1252:2 1253:1 1254:1 1256:6
-1 184:1 504:1 679:1 686:1 699:2 771:1 905:1 948:1 1072:1 1102:1 1216:1 1220:2 1222:1 1224:1 1230:1 1239:1 1249:1 1252:1 1253:1 1254:1 1256:2
-1 184:1 679:1 686:1 771:1 905:1 948:1 969:1 1072:1 1222:1 1223:1 1224:1 1239:1 1249:1 1252:1 1253:1 1254:1 1256:3
-1 679:1 686:1 699:1 905:1 1072:1 1220:1 1224:1 1239:1 1249:1 1252:1 1256:4
-1 184:1 305:1 356:1 383:1 610:2 679:1 686:1 771:1 905:1 948:1 974:1 1072:1 1102:1 1216:1 1222:1 1224:1 1239:1 1246:1 1249:1 1252:1 1253:1 1254:1 1256:2
-1 138:1 177:1 188:1 243:1 246:1 253:1 255:1 268:1 386:1 394:1 406:1 429:1 486:1 504:1 519:1 561:1 579:1 617:1 696:1 699:1 840:1 844:1 848:1 865:1 921:1 939:1 941:1 986:1 1008:1 1010:1 1012:1 1131:1 1150:1 1217:1 1220:1 1230:1 1247:1 1256:2
-1 138:1 177:1 188:1 235:1 246:1 253:1 255:1 386:1 406:1 429:1 519:1 561:1 579:1 617:1 634:1 696:1 699:1 844:1 848:1 865:1 889:1 921:1 939:1 941:1 986:1 1008:1 1012:1 1131:1 1150:1 1220:1 1256:3
-1 679:1 1249:1 1256:1
-1 679:1 699:2 1220:2 1249:1 1256:2
-1 184:1 504:1 679:2 905:2 1072:2 1224:2 1230:1 1239:2 1249:2 1253:1 1256:7
-1 184:1 383:1 679:1 686:1 699:1 905:1 948:1 1072:1 1144:1 1220:1 1224:1 1239:1 1246:1 1249:1 1252:1 1253:1 1254:1 1256:2
-1 679:1 1010:1 1072:1 1239:1 1247:1 1249:1 1256:1
-1 383:1 679:1 699:1 771:1 905:1 1144:1 1220:1 1222:1 1224:1 1246:1 1249:1 1256:2
-1 184:1 196:1 504:1 679:1 686:1 771:1 905:1 948:1 969:1 1102:1 1215:1 1216:1 1222:1 1223:1 1224:1 1230:1 1249:1 1252:1 1253:1 1254:1 1256:5
-1 216:1 322:1 419:1 504:1 679:1 686:1 699:1 758:1 771:1 905:1 1086:1 1164:1 1220:1 1222:1 1224:1 1230:1 1249:1 1252:1 1256:2
-1 184:1 679:1 905:1 948:1 1072:1 1224:1 1239:1 1249:1 1253:1 1254:1 1256:2
-1 448:1 1241:1 1256:3
-1 679:1 869:1 1072:1 1239:1 1243:1 1249:1 1256:1
-1 679:1 686:1 699:2 905:1 1072:1 1220:2 1224:1 1239:1 1249:1 1252:1 1256:4 1258:7
-1 196:1 346:1 383:1 521:1 679:1 883:1 905:1 1215:1 1224:1 1246:1 1249:1 1256:1 1258:771
-1 184:1 397:1 444:1 576:1 679:1 686:1 699:1 869:1 905:1 948:1 1072:1 1144:1 1178:1 1220:1 1224:1 1239:1 1243:1 1249:1 1252:1 1253:1 1254:1 1256:4
-1 184:1 504:1 679:2 905:2 1072:2 1224:2 1230:1 1239:2 1249:2 1253:1 1256:7
-1 679:1 869:1 905:1 1072:1 1224:1 1239:1 1243:1 1249:1 1256:1
-1 679:1 869:1 905:1 1072:1 1224:1 1239:1 1243:1 1249:1 1256:3
-1 679:1 869:1 1072:1 1239:1 1243:1 1249:1 1256:1
-1 679:1 869:1 1072:1 1239:1 1243:1 1249:1 1256:1
-1 679:1 869:1 1072:1 1239:1 1243:1 1249:1 1256:1
-1 184:1 236:1 314:1 383:1 504:1 679:1 686:1 762:1 771:1 905:1 948:1 969:1 975:1 1072:1 1087:1 1102:1 1216:1 1218:1 1222:1 1223:1 1224:1 1227:1 1230:1 1239:1 1245:1 1246:1 1249:1 1252:1 1253:1 1254:1 1255:1 1256:1
-1 184:1 679:1 686:1 771:1 905:1 948:1 969:1 1072:1 1222:1 1223:1 1224:1 1239:1 1249:1 1252:1 1253:1 1254:1 1256:2
-1 184:1 383:1 679:1 686:1 699:2 905:1 948:1 1102:1 1216:1 1220:2 1224:1 1246:1 1249:1 1252:1 1253:1 1254:1 1256:3
-1 504:1 679:1 771:1 883:1 905:1 1072:1 1222:1 1224:1 1230:1 1239:1 1249:1 1256:1
-1 184:1 318:1 383:1 444:1 500:1 576:1 679:1 686:1 703:1 771:1 825:1 905:1 948:1 1072:1 1102:1 1216:1 1222:1 1224:1 1239:1 1246:1 1249:1 1252:1 1253:1 1254:1 1256:2 1258:2
-1 448:1 1241:1 1256:3
-1 184:1 679:1 699:1 762:1 867:1 905:1 948:1 1010:1 1218:1 1220:1 1224:1 1247:1 1249:1 1253:1 1254:1 1256:1
-1 314:1 330:1 383:1 504:1 579:1 604:1 621:1 679:1 686:1 905:1 948:1 975:1 1010:1 1072:1 1075:1 1173:1 1219:1 1224:1 1227:1 1230:1 1239:1 1245:1 1246:1 1247:1 1249:1 1250:1 1252:1 1254:1 1256:2
-1 184:1 679:1 686:1 905:1 948:1 1224:1 1249:1 1252:1 1253:1 1254:1 1256:3
-1 279:1 414:1 420:1 562:1 679:1 699:1 746:1 1106:1 1220:1 1249:1 1256:4
-1 679:1 699:1 905:1 1072:1 1220:1 1224:1 1239:1 1249:1 1256:5
-1 196:1 283:1 585:1 679:1 699:1 905:1 1010:1 1072:1 1215:1 1220:1 1224:1 1228:1 1239:1 1247:1 1249:1 1256:2
-1 448:1 1241:1 1256:3
-1 679:1 686:1 699:1 1010:1 1072:1 1220:1 1239:1 1247:1 1249:1 1252:1 1256:2
-1 420:1 562:1 679:1 699:2 746:1 768:1 954:1 1174:1 1220:2 1249:1 1256:3
-1 679:1 686:1 699:1 905:1 1072:1 1220:1 1224:1 1239:1 1249:1 1252:1 1256:3
-1 504:1 679:1 686:1 905:1 1224:1 1230:1 1249:1 1252:1 1256:2
-1 232:1 383:1 504:1 679:1 686:1 717:1 771:1 868:1 905:1 975:1 1072:1 1222:1 1224:1 1227:1 1230:1 1238:1 1239:1 1246:1 1249:1 1252:1 1256:1
-1 184:1 196:1 283:1 504:1 638:1 679:1 686:1 692:1 717:1 762:1 771:1 868:1 891:1 905:1 948:1 969:1 975:1 1072:1 1215:1 1218:1 1222:1 1223:1 1224:1 1227:1 1228:1 1230:1 1239:1 1249:1 1252:1 1253:1 1254:1 1256:1 1258:20
-1 679:1 717:1 771:1 868:1 905:1 1072:1 1222:1 1224:1 1239:1 1249:1 1256:1
-1 184:1 504:1 679:1 686:1 717:1 771:1 868:1 891:1 905:1 1222:1 1224:1 1230:1 1249:1 1252:1 1253:1 1256:2
-1 168:1 184:1 196:1 504:1 679:1 686:1 694:1 717:1 762:1 771:1 868:1 905:1 948:1 969:1 975:1 1072:1 1215:1 1218:1 1222:1 1223:1 1224:1 1227:1 1230:1 1239:1 1240:1 1249:1 1252:1 1253:1 1254:1 1256:1 1258:326
-1 179:1 184:1 404:1 473:1 504:1 513:1 526:1 679:1 686:1 717:1 762:1 771:1 868:1 905:1 918:1 948:1 1072:1 1104:1 1108:1 1153:1 1218:1 1222:1 1224:1 1230:1 1239:1 1249:1 1252:1 1253:1 1254:1 1256:1
-1 448:1 1241:1 1256:3
-1 448:1 1241:1 1256:3
-1 141:1 188:1 191:1 246:1 253:1 255:1 266:1 362:1 386:1 396:1 406:1 409:1 422:1 453:1 486:1 519:1 559:1 561:1 569:1 595:1 599:1 615:1 617:1 699:1 816:1 835:1 840:1 844:1 865:1 889:1 921:1 1010:1 1012:1 1123:1 1203:1 1220:1 1247:1 1256:1
-1 184:1 196:1 311:1 679:1 699:1 905:1 987:1 1144:1 1215:1 1220:1 1224:1 1235:1 1249:1 1253:1 1256:2
-1 283:1 679:1 699:1 1010:1 1072:1 1220:1 1228:1 1239:1 1247:1 1249:1 1256:2
-1 232:1 679:1 699:1 771:1 1072:1 1220:1 1222:1 1238:1 1239:1 1249:1 1256:2
-1 246:1 253:1 561:1 579:1 638:1 679:1 699:1 844:1 865:1 1010:1 1012:1 1150:1 1220:1 1247:1 1249:1 1256:1
-1 184:1 504:1 679:3 771:1 869:1 905:2 948:1 1072:2 1222:1 1224:2 1230:1 1239:2 1243:1 1249:3 1253:1 1254:1 1256:6
-1 177:1 246:1 253:1 378:1 486:1 504:1 519:1 535:1 561:1 579:1 638:1 699:1 824:1 844:1 865:1 941:1 1010:1 1012:1 1220:1 1230:1 1247:1 1256:1
-1 141:1 188:1 191:1 246:1 253:1 255:1 266:1 283:1 362:1 396:1 406:1 519:1 561:1 595:1 617:1 699:1 840:1 844:1 865:1 889:1 921:1 941:1 987:1 1010:1 1012:1 1123:1 1145:1 1220:1 1228:1 1235:1 1247:1 1256:2
-1 246:1 253:1 406:1 561:1 699:1 844:1 865:1 1012:1 1220:1 1256:3
-1 246:1 253:1 255:1 283:1 455:1 519:1 561:1 569:1 617:1 699:1 844:1 865:1 921:1 1010:1 1012:1 1065:1 1123:1 1213:1 1220:1 1228:1 1247:1 1256:2
-1 184:1 504:1 679:2 905:2 1072:2 1224:2 1230:1 1239:2 1249:2 1253:1 1256:7
-1 246:1 253:1 561:1 679:1 699:1 844:1 865:1 905:1 922:1 948:1 975:1 1012:1 1220:1 1224:1 1227:1 1249:1 1254:1 1256:2
-1 333:1 679:1 686:1 699:1 1072:1 1220:1 1239:1 1249:1 1252:1 1256:3
-1 188:1 246:1 253:1 255:1 266:1 406:1 486:1 504:1 519:1 561:1 579:1 580:1 595:1 617:1 699:1 844:1 865:1 889:1 921:1 941:1 1010:1 1012:1 1123:1 1220:1 1230:1 1247:1 1256:3 1258:23
-1 188:1 196:1 246:1 253:1 255:1 266:1 283:1 486:1 519:1 561:1 597:1 699:1 844:1 865:1 889:1 921:1 941:1 1012:1 1065:1 1123:1 1178:1 1215:1 1220:1 1228:1 1256:2
-1 184:1 679:1 686:1 905:1 948:1 1072:1 1102:1 1216:1 1224:1 1239:1 1249:1 1252:1 1253:1 1254:1 1256:2
-1 448:1 1241:1 1256:4
-1 246:1 253:1 255:1 458:1 486:1 519:1 561:1 579:1 679:1 686:1 699:1 844:1 865:1 905:1 941:1 1010:1 1012:1 1220:1 1224:1 1247:1 1249:1 1252:1 1256:2
-1 448:1 1241:1 1256:3
-1 679:1 1249:1 1256:3
-1 184:1 196:1 318:1 504:1 679:1 686:1 771:1 905:1 948:1 975:1 1072:1 1102:1 1215:1 1216:1 1222:1 1224:1 1227:1 1230:1 1239:1 1249:1 1252:1 1253:1 1254:1 1256:3
-1 448:1 1241:1 1256:2
-1 196:1 679:1 699:2 1215:1 1220:2 1249:1 1256:2
-1 196:1 679:1 699:2 1215:1 1220:2 1249:1 1256:2
-1 196:1 679:1 905:1 1072:1 1215:1 1224:1 1239:1 1249:1 1256:2
-1 448:1 1241:1 1256:3
-1 349:1 621:1 642:1 652:1 666:1 679:1 1010:1 1185:1 1219:1 1229:1 1231:1 1234:1 1242:1 1247:1 1249:1 1256:4
-1 679:1 905:1 948:1 1224:1 1249:1 1254:1 1256:3
-1 679:1 905:1 1224:1 1249:1 1256:1
-1 246:1 253:1 437:1 458:1 504:1 519:1 561:1 587:1 617:1 644:1 647:1 679:1 699:1 735:1 744:1 771:1 835:1 844:1 848:1 865:1 905:1 921:1 941:1 1012:1 1072:1 1220:1 1222:1 1224:1 1230:1 1239:1 1248:1 1249:1 1256:1 1258:9
-1 141:1 196:1 422:1 638:1 679:1 699:1 852:1 905:1 1010:1 1072:1 1215:1 1220:1 1224:1 1239:1 1247:1 1249:1 1256:1
-1 184:1 504:1 679:1 686:1 692:1 717:1 771:1 868:1 891:1 905:1 948:1 969:1 975:1 1072:1 1222:1 1223:1 1224:1 1227:1 1230:1 1239:1 1249:1 1252:1 1253:1 1254:1 1256:1
-1 184:1 383:1 504:1 679:1 686:1 771:1 905:1 948:1 969:1 987:1 1072:1 1102:1 1136:1 1216:1 1222:1 1223:1 1224:1 1230:1 1235:1 1239:1 1246:1 1249:1 1252:1 1253:1 1254:1 1256:5
-1 383:1 392:1 616:1 648:1 679:1 905:1 982:1 1101:1 1224:1 1246:1 1249:1 1256:2
-1 184:1 679:1 686:1 771:1 905:1 948:1 969:1 1072:1 1222:1 1223:1 1224:1 1239:1 1249:1 1252:1 1253:1 1254:1 1256:3
-1 135:1 225:1 367:1 485:1 516:1 554:1 583:1 679:1 686:1 897:1 905:1 988:1 996:1 1072:1 1224:1 1239:1 1249:1 1252:1 1256:4
-1 184:1 504:1 679:1 686:1 699:1 771:1 905:1 948:1 969:1 975:1 1010:1 1072:1 1102:1 1216:1 1220:1 1222:1 1223:1 1224:1 1227:1 1230:1 1239:1 1247:1 1249:1 1252:1 1253:1 1254:1 1256:3
-1 184:1 679:1 686:1 735:1 744:1 771:1 841:1 905:1 948:1 975:1 1032:1 1072:1 1102:1 1216:1 1222:1 1224:1 1227:1 1239:1 1248:1 1249:1 1252:1 1253:1 1254:1 1256:1
-1 175:1 184:1 235:1 246:1 253:1 504:1 519:1 561:1 579:1 634:1 679:1 686:1 699:1 828:1 844:1 848:1 865:1 905:1 948:1 958:1 959:1 975:1 1010:1 1012:1 1072:1 1102:1 1123:1 1216:1 1220:1 1224:1 1227:1 1230:1 1239:1 1247:1 1249:1 1252:1 1253:1 1254:1 1256:2
-1 679:1 905:1 948:1 969:1 1072:1 1102:1 1216:1 1223:1 1224:1 1239:1 1249:1 1254:1 1256:2
-1 184:1 679:1 686:1 905:1 948:1 975:1 1072:1 1102:1 1216:1 1224:1 1227:1 1239:1 1249:1 1252:1 1253:1 1254:1 1256:2
-1 172:1 184:1 504:2 679:4 905:2 948:1 969:1 1072:2 1223:1 1224:2 1230:2 1239:2 1249:4 1253:1 1254:1 1256:6
-1 184:1 679:1 686:1 771:1 905:1 948:1 1072:1 1222:1 1224:1 1239:1 1249:1 1252:1 1253:1 1254:1 1256:2
-1 679:1 699:1 1081:1 1220:1 1249:1 1256:3
-1 184:1 679:1 686:1 771:1 905:1 948:1 969:1 1072:1 1222:1 1223:1 1224:1 1239:1 1249:1 1252:1 1253:1 1254:1 1256:2
-1 188:1 196:1 246:1 253:1 255:1 406:1 519:1 561:1 585:1 617:1 699:1 718:1 840:1 844:1 865:1 889:1 1010:1 1012:1 1215:1 1220:1 1247:1 1256:3
-1 448:1 1241:1 1256:3
-1 1014:1 1256:1
-1 679:1 699:1 905:1 948:1 1220:1 1224:1 1249:1 1254:1 1256:2
-1 448:1 1241:1 1256:3
-1 448:1 1241:1 1256:3
-1 448:1 1241:1 1256:3
-1 448:1 1241:1 1256:3
-1 448:1 1241:1 1256:3
-1 448:1 1241:1 1256:3
-1 448:1 1241:1 1256:3
-1 321:1 679:1 699:2 1220:2 1249:1 1256:2
-1 184:1 679:1 709:1 905:1 975:1 1072:1 1224:1 1226:1 1227:1 1239:1 1249:1 1253:1 1256:1
-1 679:1 699:1 905:1 1220:1 1224:1 1249:1 1256:5
-1 448:1 1241:1 1256:3
-1 184:1 196:1 504:1 679:1 686:1 699:1 771:1 869:1 905:1 948:1 1072:1 1102:1 1215:1 1216:1 1220:1 1222:1 1224:1 1230:1 1239:1 1243:1 1249:1 1252:1 1253:1 1254:1 1256:4
-1 679:1 699:1 905:1 1220:1 1224:1 1249:1 1256:3
-1 679:1 699:1 905:1 1072:1 1220:1 1224:1 1239:1 1249:1 1256:2
-1 522:1 679:1 686:1 709:1 771:1 969:1 1032:1 1072:1 1222:1 1223:1 1226:1 1239:1 1249:1 1252:1 1256:1
-1 349:1 621:1 642:1 652:1 666:1 679:1 1185:1 1219:1 1229:1 1231:1 1234:1 1242:1 1249:1 1256:2
-1 448:1 1241:1 1256:4
-1 448:1 1241:1 1256:2
-1 679:1 1249:1 1256:4
-1 679:1 1249:1 1256:2
-1 155:1 383:1 500:1 679:1 703:1 825:1 905:1 1224:1 1246:1 1249:1 1256:2
-1 1256:1
-1 278:1 302:1 349:1 445:1 604:1 621:1 642:1 652:1 666:1 679:1 771:1 858:1 1072:1 1185:1 1219:1 1222:1 1229:1 1231:1 1234:1 1237:1 1239:1 1242:1 1249:1 1250:1 1256:3
-1 137:1 188:1 197:1 243:1 246:1 253:1 255:1 386:1 394:1 406:1 430:1 458:1 504:1 519:1 535:1 561:1 579:1 597:1 617:1 696:1 697:1 699:1 715:1 722:1 744:1 842:1 844:1 848:1 865:1 870:1 889:1 921:1 931:1 941:1 1010:1 1012:1 1131:1 1150:1 1220:1 1230:1 1247:1 1248:1 1256:2
-1 138:1 188:1 246:1 253:1 386:1 492:1 519:1 561:1 579:1 617:1 699:1 715:1 722:1 844:1 848:1 865:1 889:1 941:1 1012:1 1131:1 1150:1 1220:1 1256:1
-1 184:1 383:1 679:1 686:1 905:1 948:1 969:1 1072:1 1102:1 1216:1 1223:1 1224:1 1239:1 1246:1 1249:1 1252:1 1253:1 1254:1 1256:2
-1 184:1 383:1 679:1 686:1 905:1 948:1 969:1 1072:1 1102:1 1216:1 1223:1 1224:1 1239:1 1246:1 1249:1 1252:1 1253:1 1254:1 1256:2
-1 332:1 683:1 970:1 1256:2
-1 332:1 683:1 970:1 1256:2
-1 168:1 504:1 679:1 686:1 771:1 975:1 1072:1 1222:1 1227:1 1230:1 1239:1 1240:1 1249:1 1252:1 1256:2
-1 184:1 196:1 209:1 504:1 512:1 522:1 633:1 679:1 686:1 735:1 744:1 762:1 771:1 905:1 948:1 969:1 975:1 1010:1 1072:1 1215:1 1218:1 1221:1 1222:1 1223:1 1224:1 1227:1 1230:1 1236:1 1239:1 1247:1 1248:1 1249:1 1252:1 1253:1 1254:1 1256:2
-1 149:1 679:1 771:1 883:1 905:1 948:1 975:1 1072:1 1222:1 1224:1 1227:1 1239:1 1249:1 1254:1 1256:1
-1 679:1 883:1 905:1 1224:1 1249:1 1256:1
-1 184:1 504:1 679:2 905:2 1072:2 1224:2 1230:1 1239:2 1249:2 1253:1 1256:7
-1 125:1 246:1 253:1 255:1 458:1 504:1 519:1 561:1 579:1 599:1 617:1 699:1 824:1 844:1 865:1 889:1 921:1 941:1 986:1 1010:1 1012:1 1100:1 1119:1 1123:1 1131:1 1150:1 1220:1 1230:1 1247:1 1256:2
-1 679:1 686:1 699:1 735:1 744:1 771:1 975:1 1072:1 1220:1 1222:1 1227:1 1239:1 1248:1 1249:1 1252:1 1256:2
-1 679:1 699:1 1220:1 1249:1 1256:6
-1 225:1 460:1 470:1 516:1 679:1 686:1 699:1 713:1 789:1 897:1 1220:1 1249:1 1252:1 1256:5 1258:150
-1 679:1 699:1 768:1 789:1 1220:1 1249:1 1256:6
-1 679:1 699:1 962:1 1220:1 1249:1 1256:6
-1 225:1 460:1 470:1 485:1 516:1 679:1 699:1 713:1 789:1 897:1 962:1 1220:1 1249:1 1256:5 1258:52
-1 184:1 679:1 686:1 771:1 905:1 948:1 969:1 1072:1 1222:1 1223:1 1224:1 1239:1 1249:1 1252:1 1253:1 1254:1 1256:3
-1 679:1 699:2 869:1 1220:2 1243:1 1249:1 1256:3
-1 165:1 346:1 372:1 521:1 548:1 679:1 792:1 831:1 892:1 915:1 1003:1 1076:1 1112:1 1141:1 1154:1 1249:1 1256:1
-1 120:1 219:2 224:1 372:1 484:1 507:1 589:1 679:1 699:2 779:1 831:1 897:1 989:1 1200:1 1206:1 1220:2 1249:1 1256:2
-1 184:1 679:1 686:1 771:1 905:1 948:1 969:1 1072:1 1222:1 1223:1 1224:1 1239:1 1249:1 1252:1 1253:1 1254:1 1256:3
-1 141:1 196:1 265:1 396:1 566:1 679:1 699:1 905:1 969:1 975:1 987:1 1010:1 1072:1 1215:1 1220:1 1223:1 1224:1 1227:1 1235:1 1239:1 1247:1 1249:1 1256:2
-1 383:1 384:1 656:1 679:1 699:1 905:1 948:1 984:1 1154:1 1220:1 1224:1 1246:1 1249:1 1254:1 1256:2
-1 346:1 504:2 679:4 831:1 905:2 1072:1 1224:2 1230:2 1239:1 1249:4 1256:5
-1 184:1 504:1 679:3 771:1 831:2 905:2 948:1 1072:2 1222:1 1224:2 1230:1 1239:2 1249:3 1253:1 1254:1 1256:6
-1 448:1 1241:1 1256:4
-1 448:1 1241:1 1256:3
-1 346:1 521:1 532:1 679:1 699:2 1054:1 1220:2 1249:1 1256:2
-1 279:1 420:1 562:1 679:1 691:1 699:2 1220:2 1249:1 1256:3
-1 184:1 383:1 504:2 679:4 905:2 948:1 969:1 987:1 1072:2 1102:1 1216:1 1223:1 1224:2 1230:2 1235:1 1239:2 1246:1 1249:4 1253:1 1254:1 1256:6
-1 1148:1 1256:1
-1 159:1 424:1 679:1 699:1 869:1 1220:1 1243:1 1249:1 1256:3
-1 184:1 383:1 504:1 679:1 686:1 771:1 905:1 948:1 969:1 1072:1 1102:1 1216:1 1222:1 1223:1 1224:1 1230:1 1239:1 1246:1 1249:1 1252:1 1253:1 1254:1 1256:5
-1 448:1 1241:1 1256:3
-1 184:1 679:1 686:1 771:1 905:1 948:1 969:1 1072:1 1222:1 1223:1 1224:1 1239:1 1249:1 1252:1 1253:1 1254:1 1256:3
-1 184:1 504:1 679:2 905:2 1072:2 1224:2 1230:1 1239:2 1249:2 1253:1 1256:7
-1 184:1 246:1 253:1 561:1 579:1 679:1 686:1 699:1 778:1 844:1 865:1 889:1 905:1 975:1 1012:1 1220:1 1224:1 1227:1 1249:1 1252:1 1253:1 1256:4
-1 504:1 679:1 686:1 699:1 771:1 905:1 948:1 1220:1 1222:1 1224:1 1230:1 1249:1 1252:1 1254:1 1256:1
-1 547:1 679:1 1249:1 1256:2
-1 246:1 253:1 561:1 579:1 679:1 699:1 771:1 844:1 865:1 905:1 948:1 975:1 1012:1 1220:1 1222:1 1224:1 1227:1 1249:1 1254:1 1256:3
-1 448:1 1241:1 1256:4
-1 489:1 679:1 1003:1 1249:1 1256:2
-1 184:1 383:1 504:3 679:5 686:2 771:1 905:2 948:1 969:1 1072:2 1222:1 1223:1 1224:2 1230:3 1239:2 1246:1 1249:5 1252:2 1253:1 1254:1 1256:6
-1 679:1 686:1 699:1 905:1 1072:1 1220:1 1224:1 1239:1 1249:1 1252:1 1256:3 1258:1
-1 196:1 679:1 905:1 1215:1 1224:1 1249:1 1256:4
-1 448:1 1241:1 1256:3
-1 184:1 679:1 686:1 699:2 771:1 869:1 905:1 948:1 1072:1 1102:1 1216:1 1220:2 1222:1 1224:1 1239:1 1243:1 1249:1 1252:1 1253:1 1254:1 1256:2
-1 184:1 679:1 686:1 771:1 905:1 948:1 969:1 1072:1 1222:1 1223:1 1224:1 1239:1 1249:1 1252:1 1253:1 1254:1 1256:3
-1 314:1 330:1 383:1 504:1 514:1 640:1 679:1 686:1 699:1 762:1 771:1 905:1 937:1 948:1 1010:1 1072:1 1210:1 1218:1 1220:1 1222:1 1224:1 1230:1 1239:1 1245:1 1246:1 1247:1 1249:1 1252:1 1254:1 1256:1
-1 448:1 1241:1 1256:2
-1 184:1 679:1 686:1 771:1 905:1 948:1 969:1 1072:1 1222:1 1223:1 1224:1 1239:1 1249:1 1252:1 1253:1 1254:1 1256:3
-1 451:1 679:1 699:1 905:1 1220:1 1224:1 1249:1 1256:2
-1 383:1 679:1 905:1 948:1 969:1 1223:1 1224:1 1246:1 1249:1 1254:1 1256:2
-1 683:1 970:1 1256:2
-1 1256:1
-1 448:1 1241:1 1256:4
-1 236:1 472:1 679:1 709:1 771:1 883:1 905:1 948:1 969:1 1072:1 1222:1 1223:1 1224:1 1226:1 1239:1 1249:1 1254:1 1256:3 1258:123
-1 196:1 472:1 504:1 679:1 686:1 744:1 748:1 771:1 857:1 883:1 905:1 1017:1 1072:1 1117:1 1184:1 1215:1 1222:1 1224:1 1230:1 1239:1 1248:1 1249:1 1252:1 1256:1 1258:2
-1 448:1 1241:1 1256:2
-1 679:1 1249:1 1256:2
-1 184:1 504:3 679:4 686:2 771:1 905:2 948:1 969:1 1072:2 1102:1 1216:1 1222:1 1223:1 1224:2 1230:3 1239:2 1249:4 1252:2 1253:1 1254:1 1256:6
-1 638:1 679:1 686:1 699:1 905:1 942:1 948:1 975:1 1010:1 1072:1 1175:1 1220:1 1224:1 1227:1 1239:1 1247:1 1249:1 1252:1 1254:1 1256:1
-1 184:1 196:1 477:1 504:1 679:1 686:1 771:1 905:1 948:1 969:1 975:1 1072:1 1102:1 1155:1 1214:1 1215:1 1216:1 1222:1 1223:1 1224:1 1227:1 1230:1 1239:1 1249:1 1252:1 1253:1 1254:1 1256:4
-1 246:1 253:1 561:1 679:1 699:1 771:1 844:1 865:1 1008:1 1012:1 1072:1 1220:1 1222:1 1239:1 1249:1 1256:1
-1 127:1 543:1 679:1 699:1 735:1 744:1 905:1 1072:1 1220:1 1224:1 1239:1 1248:1 1249:1 1256:1
-1 184:1 504:1 679:1 686:1 771:1 905:1 948:1 969:1 1072:1 1102:1 1216:1 1222:1 1223:1 1224:1 1230:1 1239:1 1249:1 1252:1 1253:1 1254:1 1256:5
-1 504:2 679:4 905:2 1072:1 1224:2 1230:2 1239:1 1249:4 1256:6
-1 184:1 504:1 679:2 905:2 1072:2 1224:2 1230:1 1239:2 1249:2 1253:1 1256:7
-1 679:1 686:1 905:1 948:1 1072:1 1102:1 1216:1 1224:1 1239:1 1249:1 1252:1 1254:1 1256:2
-1 184:1 679:1 686:1 905:1 948:1 1072:1 1102:1 1216:1 1224:1 1239:1 1249:1 1252:1 1253:1 1254:1 1256:1
-1 448:1 1241:1 1256:3
-1 504:1 679:1 686:1 905:1 1224:1 1230:1 1249:1 1252:1 1256:1
-1 485:1 487:1 516:1 679:1 699:1 897:1 1220:1 1249:1 1256:3
-1 679:1 699:2 885:1 905:1 1072:1 1220:2 1224:1 1239:1 1249:1 1256:5
-1 247:1 477:1 504:1 679:1 686:1 771:1 905:1 948:1 975:1 1072:1 1102:1 1214:1 1216:1 1222:1 1224:1 1227:1 1230:1 1239:1 1249:1 1252:1 1254:1 1256:4
-1 184:1 504:3 679:6 771:1 905:2 948:1 969:1 1072:2 1087:1 1102:1 1216:1 1222:1 1223:1 1224:2 1230:3 1239:2 1249:6 1253:1 1254:1 1255:1 1256:6
-1 184:1 504:2 679:4 686:1 771:1 905:2 948:1 969:1 1072:2 1102:1 1216:1 1222:1 1223:1 1224:2 1230:2 1239:2 1249:4 1252:1 1253:1 1254:1 1256:6
-1 184:1 679:1 686:1 771:1 905:1 948:1 969:1 1072:1 1222:1 1223:1 1224:1 1239:1 1249:1 1252:1 1253:1 1254:1 1256:3
-1 184:1 504:1 679:3 771:1 905:2 948:1 1072:2 1222:1 1224:2 1230:1 1239:2 1249:3 1253:1 1254:1 1256:6
-1 448:1 1241:1 1256:3
-1 184:1 504:2 679:4 905:2 1072:3 1224:2 1230:2 1239:3 1249:4 1253:1 1256:4
-1 679:1 1249:1 1256:2
-1 188:1 246:1 253:1 255:1 330:1 519:1 561:1 579:1 592:1 679:1 686:1 699:1 840:1 844:1 848:1 865:1 905:1 941:1 975:1 1012:1 1220:1 1224:1 1227:1 1244:1 1249:1 1252:1 1256:3
-1 679:1 905:1 1224:1 1249:1 1256:2
-1 184:1 322:1 679:1 686:1 699:1 905:1 948:1 1072:1 1144:1 1220:1 1224:1 1239:1 1249:1 1252:1 1253:1 1254:1 1256:2 1258:1
-1 188:1 196:1 246:1 253:1 255:1 266:1 283:1 519:1 561:1 699:1 844:1 865:1 889:1 921:1 1010:1 1012:1 1123:1 1215:1 1220:1 1228:1 1247:1 1256:1
-1 184:1 679:1 686:1 771:1 905:1 948:1 969:1 1072:1 1222:1 1223:1 1224:1 1239:1 1249:1 1252:1 1253:1 1254:1 1256:2
-1 679:1 1249:1 1256:3
-1 504:1 679:1 771:1 905:1 1072:1 1222:1 1224:1 1230:1 1239:1 1249:1 1256:1
-1 679:1 686:1 699:1 764:1 905:1 1010:1 1072:1 1220:1 1224:1 1239:1 1247:1 1249:1 1252:1 1256:2
-1 196:1 613:1 679:1 905:1 1215:1 1224:1 1249:1 1256:2
-1 235:1 246:1 253:1 579:1 634:1 679:1 699:1 811:1 844:1 865:1 1010:1 1012:1 1072:1 1220:1 1239:1 1247:1 1249:1 1256:3
-1 184:1 196:1 283:1 383:1 504:1 509:1 512:1 638:1 679:1 686:1 735:1 771:1 885:1 905:1 907:1 948:1 969:1 975:1 1072:1 1087:1 1215:1 1222:1 1223:1 1224:1 1225:1 1227:1 1228:1 1230:1 1233:1 1236:1 1239:1 1246:1 1249:1 1252:1 1253:1 1254:1 1255:1 1256:2
-1 679:1 686:1 699:2 905:1 1072:1 1220:2 1224:1 1239:1 1249:1 1252:1 1256:4 1258:7
-1 184:1 504:1 679:4 905:2 1072:3 1224:2 1230:1 1239:3 1249:4 1253:1 1256:4
-1 184:1 504:1 679:2 905:2 1072:2 1224:2 1230:1 1239:2 1249:2 1253:1 1256:7
-1 504:1 579:1 679:1 686:1 699:1 975:1 1220:1 1227:1 1230:1 1249:1 1252:1 1256:2
-1 211:1 227:1 281:1 638:1 679:1 699:1 720:1 789:1 898:1 905:1 928:1 1060:1 1209:1 1220:1 1224:1 1249:1 1256:5
-1 184:1 504:1 679:4 905:2 1072:3 1224:2 1230:1 1239:3 1249:4 1253:1 1256:4
-1 184:1 504:1 679:2 905:2 1072:2 1224:2 1230:1 1239:2 1249:2 1253:1 1256:7
-1 679:1 1249:1 1256:4
-1 679:1 686:1 699:1 905:1 975:1 1010:1 1072:1 1096:1 1220:1 1224:1 1227:1 1239:1 1247:1 1249:1 1252:1 1256:1
-1 184:1 504:2 679:4 905:2 1072:3 1224:2 1230:2 1239:3 1249:4 1253:1 1256:4
-1 679:1 1249:1 1256:2
-1 159:1 184:1 196:1 331:1 424:1 616:1 679:1 686:1 699:1 770:1 771:1 905:1 948:1 1072:1 1102:1 1215:1 1216:1 1220:1 1222:1 1224:1 1239:1 1249:1 1252:1 1253:1 1254:1 1256:2
-1 184:1 196:1 283:1 504:1 679:1 686:1 718:1 771:1 905:1 948:1 975:1 1072:1 1102:1 1215:1 1216:1 1222:1 1224:1 1227:1 1228:1 1230:1 1239:1 1249:1 1252:1 1253:1 1254:1 1256:1
-1 168:1 184:1 283:1 322:1 679:1 686:1 699:1 771:1 869:1 905:1 948:1 1072:1 1102:1 1216:1 1220:1 1222:1 1224:1 1228:1 1239:1 1240:1 1243:1 1249:1 1252:1 1253:1 1254:1 1256:4
-1 172:1 244:1 679:1 967:1 1249:1 1256:1
-1 170:1 504:1 566:1 679:1 686:1 699:1 771:1 854:1 905:1 948:1 975:1 1010:1 1072:1 1220:1 1222:1 1224:1 1227:1 1230:1 1239:1 1247:1 1249:1 1252:1 1254:1 1256:3
-1 679:1 699:1 1046:1 1220:1 1249:1 1256:5
-1 699:1 756:1 1220:1 1256:4
-1 448:1 1241:1 1256:2
-1 184:1 679:1 686:1 771:1 905:1 948:1 969:1 1072:1 1222:1 1223:1 1224:1 1239:1 1249:1 1252:1 1253:1 1254:1 1256:3
-1 448:1 1241:1 1256:3
-1 168:1 184:1 504:3 679:5 686:1 771:1 905:2 948:1 1072:2 1102:1 1216:1 1222:1 1224:2 1230:3 1239:2 1240:1 1249:5 1252:1 1253:1 1254:1 1256:6
-1 127:1 161:1 232:1 246:1 253:1 330:1 352:1 504:1 561:1 579:1 634:1 679:1 686:1 699:1 844:1 865:1 889:1 905:1 975:1 1012:1 1072:1 1220:1 1224:1 1227:1 1230:1 1238:1 1239:1 1249:1 1252:1 1256:3
-1 679:1 905:1 948:1 1224:1 1249:1 1254:1 1256:3
-1 184:1 495:1 679:1 686:1 905:1 948:1 1072:1 1224:1 1239:1 1249:1 1252:1 1253:1 1254:1 1256:3
-1 448:1 1241:1 1256:3
-1 679:1 686:1 735:1 744:1 771:1 905:1 975:1 1072:1 1222:1 1224:1 1227:1 1239:1 1248:1 1249:1 1252:1 1256:1
-1 1014:1 1256:1
-1 184:1 196:1 383:1 472:1 504:1 679:1 686:1 762:1 771:1 799:1 820:1 883:1 905:1 948:1 969:1 1072:1 1215:1 1218:1 1222:1 1223:1 1224:1 1230:1 1239:1 1246:1 1249:1 1252:1 1253:1 1254:1 1256:1 1258:379
-1 184:1 504:1 679:1 686:1 694:1 717:1 762:1 771:1 868:1 905:1 948:1 969:1 975:1 1072:1 1218:1 1222:1 1223:1 1224:1 1227:1 1230:1 1239:1 1249:1 1252:1 1253:1 1254:1 1256:1
-1 184:1 504:1 679:1 686:1 694:1 717:1 762:1 771:1 868:1 905:1 948:1 969:1 975:1 1072:1 1218:1 1222:1 1223:1 1224:1 1227:1 1230:1 1239:1 1249:1 1252:1 1253:1 1254:1 1256:1
-1 196:1 679:1 883:1 929:1 1072:1 1215:1 1239:1 1249:1 1256:1
-1 184:1 342:1 504:2 679:5 905:2 948:1 969:1 1072:2 1223:1 1224:2 1230:2 1239:2 1249:5 1253:1 1254:1 1256:6
-1 342:1 448:1 679:1 801:1 1241:1 1249:1 1256:2
-1 448:1 1241:1 1256:3
-1 448:1 1241:1 1256:3
-1 184:1 504:1 679:1 686:1 771:1 905:1 948:1 969:1 1072:1 1222:1 1223:1 1224:1 1230:1 1239:1 1249:1 1252:1 1253:1 1254:1 1256:5
-1 175:1 235:1 246:1 253:1 561:1 579:1 634:1 699:1 700:1 844:1 865:1 910:1 941:1 975:1 1012:1 1220:1 1227:1 1256:2
-1 184:1 504:1 679:2 905:2 1072:2 1224:2 1230:1 1239:2 1249:2 1253:1 1256:7
-1 679:1 699:1 1220:1 1249:1 1256:6
-1 679:1 699:1 1220:1 1249:1 1256:6
-1 653:1 679:1 686:1 699:1 905:1 1072:1 1220:1 1224:1 1239:1 1249:1 1252:1 1256:5
-1 188:1 196:1 246:1 253:1 255:1 266:1 283:1 519:1 561:1 617:1 699:1 844:1 865:1 889:1 921:1 1010:1 1012:1 1123:1 1215:1 1220:1 1228:1 1247:1 1256:1
-1 369:1 383:1 679:1 686:1 905:1 948:1 1039:1 1155:1 1224:1 1246:1 1249:1 1252:1 1254:1 1256:1
-1 679:1 699:1 1220:1 1249:1 1256:2
-1 184:1 504:2 679:5 905:2 948:1 969:1 1072:2 1223:1 1224:2 1230:2 1239:2 1249:5 1253:1 1254:1 1256:6
-1 679:1 1249:1 1256:2 1258:21
-1 679:1 1249:1 1256:2
-1 448:1 1241:1 1256:2
-1 246:1 253:1 458:1 519:1 617:1 621:1 643:1 679:1 844:1 848:1 865:1 905:1 921:1 1012:1 1062:1 1072:1 1119:1 1173:1 1219:1 1224:1 1239:1 1249:1 1256:1
-1 175:1 188:1 235:1 246:1 253:1 519:1 535:1 561:1 579:1 634:1 699:1 844:1 848:1 865:1 910:1 941:1 1010:1 1012:1 1123:1 1150:1 1220:1 1247:1 1256:1
-1 184:1 679:1 686:1 771:1 905:1 948:1 969:1 1072:1 1222:1 1223:1 1224:1 1239:1 1249:1 1252:1 1253:1 1254:1 1256:3
-1 135:1 225:1 367:1 485:1 487:1 516:1 545:1 583:1 622:1 679:1 686:1 699:2 897:1 903:1 988:1 994:1 996:1 1072:1 1161:1 1180:1 1220:2 1239:1 1249:1 1252:1 1256:2 1258:299
-1 184:1 679:1 686:1 771:1 905:1 948:1 969:1 1072:1 1222:1 1223:1 1224:1 1239:1 1249:1 1252:1 1253:1 1254:1 1256:3
-1 679:1 699:1 1220:1 1249:1 1256:2
-1 1014:1 1256:1
-1 448:1 1241:1 1256:3
-1 318:1 383:1 446:1 576:1 679:1 686:1 825:1 905:1 948:1 1003:1 1072:1 1102:1 1216:1 1224:1 1239:1 1246:1 1249:1 1252:1 1254:1 1256:1
-1 441:1 679:1 1249:1 1256:4 1258:3
-1 448:1 1241:1 1256:3
-1 184:1 679:1 686:1 771:1 905:1 948:1 969:1 1072:1 1222:1 1223:1 1224:1 1239:1 1249:1 1252:1 1253:1 1254:1 1256:2
-1 384:1 679:1 699:1 905:1 948:1 1102:1 1216:1 1220:1 1224:1 1249:1 1254:1 1256:2
-1 196:1 236:1 237:1 383:1 504:1 679:1 686:1 699:1 771:1 905:1 948:1 1072:1 1102:1 1215:1 1216:1 1220:1 1222:1 1224:1 1230:1 1239:1 1246:1 1249:1 1252:1 1254:1 1256:4
-1 610:1 679:1 1249:1 1256:3
-1 679:1 905:1 1072:1 1224:1 1239:1 1249:1 1256:2
-1 184:1 504:2 679:1 905:2 948:1 969:1 1072:2 1102:1 1216:1 1223:1 1224:2 1230:2 1239:2 1249:1 1253:1 1254:1 1256:11
-1 278:1 349:1 604:1 621:1 642:1 650:1 652:1 666:1 679:1 1072:1 1185:1 1219:1 1229:1 1231:1 1234:1 1239:1 1242:1 1249:1 1250:1 1256:4 1258:36
-1 214:1 679:1 905:1 948:1 1224:1 1249:1 1254:1 1256:1
-1 1014:1 1256:1
-1 679:1 1249:1 1256:1
-1 184:1 679:1 771:1 868:1 905:1 948:1 1072:1 1222:1 1224:1 1239:1 1249:1 1253:1 1254:1 1256:2
-1 184:1 504:1 679:1 699:2 771:1 905:1 1102:1 1216:1 1220:2 1222:1 1224:1 1230:1 1249:1 1253:1 1256:3
-1 679:1 1249:1 1256:1
-1 184:1 504:1 679:4 905:2 1072:3 1224:2 1230:1 1239:3 1249:4 1253:1 1256:5
-1 232:1 627:1 638:1 679:1 699:1 905:1 987:1 1010:1 1072:1 1220:1 1224:1 1235:1 1238:1 1239:1 1247:1 1249:1 1256:1
-1 188:1 209:1 246:1 253:1 255:1 266:1 382:1 386:1 437:1 453:1 486:1 519:1 561:1 569:1 572:1 599:1 617:1 643:1 644:1 645:1 662:1 699:1 840:1 844:1 848:1 865:1 889:1 906:1 921:1 941:1 1010:1 1012:1 1097:1 1119:1 1123:1 1131:1 1145:1 1220:1 1221:1 1247:1 1256:2
-1 448:1 1241:1 1256:3
-1 448:1 1241:1 1256:3
-1 184:1 504:1 679:4 905:2 1072:3 1224:2 1230:1 1239:3 1249:4 1253:1 1256:4
-1 196:1 679:1 1215:1 1249:1 1256:2
-1 346:1 679:1 1058:1 1249:1 1256:3
-1 448:1 1241:1 1256:3
-1 184:1 679:1 686:1 771:1 905:1 948:1 969:1 1072:1 1222:1 1223:1 1224:1 1239:1 1249:1 1252:1 1253:1 1254:1 1256:4
-1 1010:1 1247:1 1256:2
-1 184:1 679:1 686:1 905:1 948:1 1072:1 1136:1 1224:1 1239:1 1249:1 1252:1 1253:1 1254:1 1256:3
-1 184:1 679:1 686:1 771:1 905:1 948:1 969:1 1072:1 1222:1 1223:1 1224:1 1239:1 1249:1 1252:1 1253:1 1254:1 1256:2
-1 184:1 196:1 679:1 686:1 905:1 948:1 987:1 1072:1 1102:1 1215:1 1216:1 1224:1 1235:1 1239:1 1249:1 1252:1 1253:1 1254:1 1256:1
-1 679:1 699:1 1220:1 1249:1 1256:5
-1 183:1 188:1 243:1 246:1 253:1 255:1 266:1 386:1 409:1 437:1 486:1 519:1 561:1 580:1 617:1 638:1 645:1 699:1 751:1 780:1 844:1 865:1 921:1 939:1 941:1 1010:1 1012:1 1108:1 1123:1 1145:1 1150:1 1220:1 1247:1 1256:2
-1 335:1 679:1 883:1 1249:1 1256:2 1258:1
-1 170:1 448:1 504:1 679:1 699:1 771:1 905:1 1072:1 1220:1 1222:1 1224:1 1230:1 1239:1 1241:1 1249:1 1256:1
-1 448:1 1241:1 1256:2
-1 184:1 638:1 679:1 686:1 771:1 807:1 869:1 905:1 948:1 1072:1 1102:1 1216:1 1222:1 1224:1 1239:1 1243:1 1249:1 1252:1 1253:1 1254:1 1256:3
-1 184:1 679:1 686:1 771:1 868:1 905:1 948:1 1072:1 1102:1 1216:1 1222:1 1224:1 1239:1 1249:1 1252:1 1253:1 1254:1 1256:2
-1 184:1 504:1 679:2 905:2 1072:2 1224:2 1230:1 1239:2 1249:2 1253:1 1256:7
-1 679:1 1249:1 1256:1
-1 679:1 1249:1 1256:2
-1 1256:1
-1 168:1 448:1 504:1 679:1 686:1 699:1 771:1 905:1 939:1 958:1 969:1 975:1 1010:1 1072:1 1220:1 1222:1 1223:1 1224:1 1227:1 1230:1 1239:1 1240:1 1241:1 1247:1 1249:1 1252:1 1256:2
-1 184:1 246:1 253:1 383:1 504:1 566:1 579:1 679:1 686:1 699:1 751:1 762:1 844:1 865:1 889:1 905:1 948:1 975:1 1012:1 1072:1 1102:1 1108:1 1216:1 1218:1 1220:1 1224:1 1227:1 1230:1 1239:1 1246:1 1249:1 1252:1 1253:1 1254:1 1256:1
-1 184:1 246:1 253:1 561:1 579:1 679:1 686:1 699:1 844:1 865:1 905:1 975:1 1012:1 1220:1 1224:1 1227:1 1249:1 1252:1 1253:1 1256:2
-1 369:1 568:1 679:1 771:1 825:1 905:1 948:1 1039:1 1155:1 1222:1 1224:1 1249:1 1254:1 1256:2
-1 196:1 209:1 239:1 311:1 434:1 504:1 679:1 699:1 771:1 850:1 905:1 969:1 975:1 1010:1 1072:1 1215:1 1220:1 1221:1 1222:1 1223:1 1224:1 1227:1 1230:1 1239:1 1247:1 1249:1 1256:1 1258:5
-1 504:1 679:1 699:1 771:1 905:1 1010:1 1072:1 1220:1 1222:1 1224:1 1230:1 1239:1 1247:1 1249:1 1256:2 1258:5
-1 184:1 504:1 679:1 686:1 699:1 771:1 905:1 975:1 1010:1 1072:1 1102:1 1216:1 1220:1 1222:1 1224:1 1227:1 1230:1 1239:1 1247:1 1249:1 1252:1 1253:1 1256:2 1258:5
-1 679:1 699:2 1220:2 1249:1 1256:2
-1 235:1 246:1 253:1 458:1 561:1 634:1 699:1 844:1 848:1 865:1 1012:1 1220:1 1256:3
-1 504:1 679:1 699:1 771:1 905:1 1072:1 1220:1 1222:1 1224:1 1230:1 1239:1 1249:1 1256:3
-1 504:1 679:1 699:1 771:1 905:1 1072:1 1220:1 1222:1 1224:1 1230:1 1239:1 1249:1 1256:3
-1 679:1 699:1 1010:1 1072:1 1188:1 1220:1 1239:1 1247:1 1249:1 1256:2
-1 426:1 504:1 579:1 679:1 699:1 842:1 905:1 1010:1 1072:1 1082:1 1108:1 1220:1 1224:1 1230:1 1239:1 1247:1 1249:1 1256:1
-1 579:1 679:1 699:1 905:1 1010:1 1072:1 1220:1 1224:1 1239:1 1247:1 1249:1 1256:1
-1 679:1 699:1 905:1 948:1 1072:1 1220:1 1224:1 1239:1 1249:1 1254:1 1256:2
-1 184:1 350:1 679:1 762:1 868:1 891:1 905:1 948:1 977:1 1204:1 1218:1 1224:1 1249:1 1253:1 1254:1 1256:1
-1 193:1 679:1 686:1 771:1 905:1 907:1 948:1 969:1 975:1 1072:1 1102:1 1216:1 1222:1 1223:1 1224:1 1225:1 1227:1 1239:1 1249:1 1252:1 1254:1 1256:1
-1 184:1 196:1 232:1 504:1 512:1 679:1 686:1 744:1 771:1 854:1 905:1 907:1 948:1 969:1 975:1 987:1 1072:1 1102:1 1215:1 1216:1 1222:1 1223:1 1224:1 1225:1 1227:1 1230:1 1235:1 1236:1 1238:1 1239:1 1248:1 1249:1 1252:1 1253:1 1254:1 1256:1
-1 184:1 196:1 504:1 679:1 686:1 766:1 771:1 905:1 948:1 969:1 975:1 1072:1 1102:1 1215:1 1216:1 1222:1 1223:1 1224:1 1227:1 1230:1 1239:1 1249:1 1252:1 1253:1 1254:1 1256:1
-1 184:1 477:1 504:1 679:1 686:1 771:1 905:1 948:1 975:1 1072:1 1102:1 1214:1 1216:1 1222:1 1224:1 1227:1 1230:1 1239:1 1249:1 1252:1 1253:1 1254:1 1256:1
-1 232:1 679:1 686:1 699:1 905:1 1144:1 1220:1 1224:1 1238:1 1249:1 1252:1 1256:2
-1 184:1 504:2 679:4 686:1 905:2 948:1 969:1 1072:2 1223:1 1224:2 1230:2 1239:2 1249:4 1252:1 1253:1 1254:1 1256:6
-1 420:1 562:1 679:1 699:1 1106:1 1220:1 1249:1 1256:2
-1 279:1 420:1 562:1 679:1 699:2 1072:1 1106:1 1220:2 1239:1 1249:1 1256:2
-1 184:1 383:1 504:2 679:4 905:2 948:1 1072:2 1224:2 1230:2 1239:2 1246:1 1249:4 1253:1 1254:1 1256:6
-1 184:1 504:2 679:5 905:2 948:1 969:1 1072:2 1102:1 1216:1 1223:1 1224:2 1230:2 1239:2 1249:5 1253:1 1254:1 1256:7
-1 1014:1 1256:1
-1 130:1 165:1 372:1 505:1 563:1 679:1 831:1 1122:1 1154:1 1249:1 1256:3
-1 184:1 246:1 253:1 268:1 679:1 686:1 699:1 771:1 844:1 865:1 889:1 905:1 1012:1 1072:1 1217:1 1220:1 1222:1 1224:1 1239:1 1249:1 1252:1 1253:1 1256:2
-1 278:1 286:1 302:1 349:1 445:1 604:1 621:1 642:1 652:1 666:1 679:1 858:1 900:1 1185:1 1219:1 1229:1 1231:1 1234:1 1237:1 1242:1 1249:1 1250:1 1256:3
-1 448:1 1241:1 1256:3
-1 188:1 246:1 253:1 519:1 561:1 617:1 696:1 699:1 844:1 848:1 865:1 941:1 1012:1 1149:1 1150:1 1220:1 1256:1
-1 188:1 246:1 253:1 255:1 406:1 519:1 561:1 573:1 579:1 617:1 696:1 699:1 844:1 848:1 865:1 889:1 921:1 939:1 941:1 1008:1 1012:1 1150:1 1220:1 1256:2
-1 175:1 188:1 194:1 196:1 222:1 235:1 246:1 251:1 253:1 307:1 320:1 330:1 351:1 410:1 430:1 480:1 504:1 519:1 535:1 561:1 579:1 590:1 617:1 630:1 634:1 670:1 686:1 699:1 749:1 771:1 824:1 828:1 844:1 848:1 865:1 866:1 870:1 873:1 905:1 910:1 921:1 937:1 941:1 948:1 986:1 1008:1 1012:1 1123:1 1131:1 1132:1 1149:1 1150:1 1212:1 1215:1 1220:1 1222:1 1224:1 1230:1 1252:1 1254:1 1256:2
-1 1014:1 1256:1
-1 679:1 869:1 1243:1 1249:1 1256:2
-1 504:1 638:1 679:1 686:1 771:1 905:1 975:1 1072:1 1222:1 1224:1 1227:1 1230:1 1239:1 1249:1 1252:1 1256:1
-1 679:1 905:1 1072:1 1224:1 1239:1 1249:1 1256:2
-1 184:1 504:3 679:4 686:1 771:1 905:2 948:1 969:1 1072:2 1102:1 1216:1 1222:1 1223:1 1224:2 1230:3 1239:2 1249:4 1252:1 1253:1 1254:1 1256:6
-1 184:1 679:1 686:1 771:1 905:1 948:1 969:1 1072:1 1222:1 1223:1 1224:1 1239:1 1249:1 1252:1 1253:1 1254:1 1256:3
-1 610:1 679:1 1249:1 1256:4
-1 311:1 679:1 969:1 987:1 1072:1 1102:1 1216:1 1223:1 1235:1 1239:1 1249:1 1256:1
-1 196:1 311:1 679:1 969:1 987:1 1072:1 1102:1 1215:1 1216:1 1223:1 1235:1 1239:1 1249:1 1256:1
-1 679:1 686:1 762:1 771:1 905:1 1072:1 1218:1 1222:1 1224:1 1239:1 1249:1 1252:1 1256:1
-1 193:1 196:1 311:1 504:1 679:1 771:1 969:1 987:1 1072:1 1102:1 1215:1 1216:1 1222:1 1223:1 1230:1 1235:1 1239:1 1249:1 1256:1
-1 679:1 969:1 987:1 1072:1 1102:1 1216:1 1223:1 1235:1 1239:1 1249:1 1256:1
-1 311:1 679:1 969:1 1072:1 1102:1 1216:1 1223:1 1239:1 1249:1 1256:1
-1 196:1 311:1 679:1 905:1 948:1 969:1 987:1 1072:1 1102:1 1215:1 1216:1 1223:1 1224:1 1235:1 1239:1 1249:1 1254:1 1256:1
-1 1014:1 1256:1
-1 311:1 679:1 969:1 987:1 1072:1 1102:1 1216:1 1223:1 1235:1 1239:1 1249:1 1256:1
-1 196:1 283:1 383:1 504:1 679:1 771:1 969:1 1072:1 1102:1 1215:1 1216:1 1222:1 1223:1 1228:1 1230:1 1239:1 1246:1 1249:1 1256:1
-1 679:1 1249:1 1256:2
-1 184:1 388:1 504:1 679:1 686:1 699:1 771:1 842:1 905:1 948:1 969:1 975:1 1010:1 1072:1 1220:1 1222:1 1223:1 1224:1 1227:1 1230:1 1239:1 1247:1 1249:1 1252:1 1253:1 1254:1 1256:2
-1 311:1 679:1 969:1 987:1 1072:1 1102:1 1216:1 1223:1 1235:1 1239:1 1249:1 1256:1
-1 196:1 311:1 679:1 905:1 948:1 969:1 987:1 1072:1 1102:1 1215:1 1216:1 1223:1 1224:1 1235:1 1239:1 1249:1 1254:1 1256:1
-1 196:1 679:1 969:1 987:1 1072:1 1102:1 1215:1 1216:1 1223:1 1235:1 1239:1 1249:1 1256:1
-1 504:1 679:1 686:1 762:1 771:1 1003:1 1072:1 1141:1 1218:1 1222:1 1230:1 1239:1 1249:1 1252:1 1256:1
-1 244:1 679:1 905:1 1138:1 1224:1 1249:1 1256:1
-1 679:1 699:1 905:1 1010:1 1072:1 1220:1 1224:1 1239:1 1247:1 1249:1 1256:1
-1 244:1 679:1 771:1 1072:1 1222:1 1239:1 1249:1 1256:2
-1 1256:1
-1 448:1 1241:1 1256:3
-1 127:1 184:1 254:1 314:1 383:1 504:1 509:1 522:1 679:1 686:1 699:1 723:1 762:1 771:1 905:1 948:1 975:1 1010:1 1039:1 1072:1 1126:1 1218:1 1220:1 1222:1 1224:1 1227:1 1230:1 1233:1 1239:1 1245:1 1246:1 1247:1 1249:1 1252:1 1253:1 1254:1 1256:2
-1 448:1 1241:1 1256:4
-1 448:1 1241:1 1256:2
-1 679:1 1249:1 1256:2
-1 184:1 236:1 383:1 679:1 686:1 771:1 905:1 948:1 1072:1 1102:1 1216:1 1222:1 1224:1 1239:1 1246:1 1249:1 1252:1 1253:1 1254:1 1256:2
-1 184:1 679:1 905:1 1072:1 1102:1 1216:1 1224:1 1239:1 1249:1 1253:1 1256:2
-1 184:1 236:1 383:1 679:1 686:1 771:1 905:1 948:1 1072:1 1102:1 1216:1 1222:1 1224:1 1239:1 1246:1 1249:1 1252:1 1253:1 1254:1 1256:2
-1 184:1 679:1 686:1 771:1 905:1 948:1 1072:1 1102:1 1216:1 1222:1 1224:1 1239:1 1249:1 1252:1 1253:1 1254:1 1256:3
-1 638:1 679:1 699:1 744:1 905:1 1036:1 1072:1 1220:1 1224:1 1239:1 1248:1 1249:1 1256:2
-1 184:1 232:1 340:1 504:1 638:1 679:1 686:1 699:1 771:1 905:1 925:1 965:1 975:1 1010:1 1035:1 1072:1 1168:1 1199:1 1220:1 1222:1 1224:1 1227:1 1230:1 1238:1 1239:1 1247:1 1249:1 1252:1 1253:1 1256:1
-1 679:1 699:1 771:1 905:1 975:1 1010:1 1072:1 1220:1 1222:1 1224:1 1227:1 1239:1 1247:1 1249:1 1256:1
-1 184:1 679:1 686:1 771:1 905:1 948:1 969:1 1072:1 1222:1 1223:1 1224:1 1239:1 1249:1 1252:1 1253:1 1254:1 1256:3
-1 679:1 905:1 1003:1 1092:1 1224:1 1249:1 1256:2
-1 184:1 383:1 504:1 660:1 679:1 686:1 699:1 771:1 905:1 948:1 1072:1 1102:1 1216:1 1220:1 1222:1 1224:1 1230:1 1239:1 1246:1 1249:1 1252:1 1253:1 1254:1 1256:4
-1 372:1 383:1 679:1 831:1 1122:1 1246:1 1249:1 1256:2
-1 504:1 638:1 679:1 686:1 771:1 905:1 948:1 1072:1 1222:1 1224:1 1230:1 1239:1 1249:1 1252:1 1254:1 1256:2
