1 631:1 1368:1 1398:5
1 457:1 1252:1 1398:4
1 631:1 1102:1 1319:1 1368:1 1398:6
1 631:1 1368:1 1398:5
1 631:1 1368:1 1398:7
1 241:1 623:1 631:1 1102:1 1302:1 1319:1 1361:1 1368:1 1398:2
1 175:1 241:1 288:1 623:1 631:1 635:1 1102:1 1125:1 1254:1 1302:1 1319:1 1338:1 1340:1 1361:1 1368:1 1370:1 1398:4
1 175:1 241:1 288:1 631:1 715:1 1102:1 1230:1 1254:1 1302:1 1319:1 1338:1 1368:1 1398:2
1 631:1 1368:1 1398:6
1 175:1 241:1 288:1 528:1 551:1 623:1 631:1 635:1 706:1 715:1 829:1 853:1 911:1 951:1 1102:1 1125:1 1221:1 1230:1 1254:1 1289:1 1302:1 1314:1 1319:1 1322:1 1333:1 1338:1 1340:1 1361:1 1362:1 1368:1 1370:1 1392:1 1398:5 1400:3
1 175:1 241:2 288:2 623:3 631:4 635:2 636:1 706:1 715:4 853:1 1102:2 1125:1 1221:1 1230:4 1254:1 1302:2 1319:2 1333:1 1338:2 1340:1 1361:3 1368:4 1370:2 1372:1 1398:6
1 1398:3
1 631:1 1368:1 1398:5
1 631:1 1368:1 1398:6
1 457:1 1252:1 1398:5
1 175:1 241:1 288:1 623:1 631:1 635:1 1102:1 1125:1 1254:1 1302:1 1319:1 1338:1 1340:1 1361:1 1368:1 1370:1 1398:4
1 623:1 631:1 1102:1 1319:1 1361:1 1368:1 1398:4
1 631:1 1368:1 1398:4
1 175:1 631:1 1254:1 1368:1 1398:5
1 631:1 1368:1 1398:3
1 631:1 1368:1 1398:7
1 631:1 1368:1 1398:5
1 631:1 1368:1 1398:3
1 528:1 631:1 1289:1 1368:1 1398:3
1 631:1 1368:1 1398:5
1 631:1 1368:1 1398:6
1 631:1 1368:1 1398:6
1 631:1 1368:1 1398:6
1 175:1 241:2 288:2 623:3 631:4 635:2 636:1 706:1 715:4 853:1 1102:2 1125:1 1221:1 1230:4 1254:1 1302:2 1319:2 1333:1 1338:2 1340:1 1361:3 1368:4 1370:2 1372:1 1398:6
1 457:1 1252:1 1398:4
1 631:1 1368:1 1398:2
1 631:1 1368:1 1398:6
1 175:1 241:1 288:1 631:1 715:1 1102:1 1230:1 1254:1 1302:1 1319:1 1338:1 1368:1 1398:3
1 631:1 1368:1 1398:6
1 631:1 1368:1 1398:6
1 631:1 1368:1 1398:5
1 631:1 1368:1 1398:6
1 631:1 1368:1 1398:6
1 175:1 241:1 288:1 623:1 631:1 635:1 1102:1 1125:1 1254:1 1302:1 1319:1 1338:1 1340:1 1361:1 1368:1 1370:1 1398:4
1 631:1 1368:1 1398:8
1 175:1 241:1 288:1 623:1 631:1 635:1 1102:1 1125:1 1254:1 1302:1 1319:1 1338:1 1340:1 1361:1 1368:1 1370:1 1398:4
1 175:1 241:1 288:1 631:1 715:1 1102:1 1230:1 1254:1 1302:1 1319:1 1338:1 1368:1 1398:2
1 631:1 1368:1 1398:6
1 631:1 1102:1 1319:1 1368:1 1398:5
1 631:1 1368:1 1398:7
1 631:1 1368:1 1398:4
1 631:1 1368:1 1398:6
1 631:1 1368:1 1398:6
1 631:1 1368:1 1398:5
1 631:1 1368:1 1398:5
1 175:1 241:1 288:1 623:1 631:1 635:1 1102:1 1125:1 1254:1 1302:1 1319:1 1338:1 1340:1 1361:1 1368:1 1370:1 1398:4
1 457:1 1252:1 1398:5
1 631:1 1368:1 1398:3
1 631:1 1368:1 1398:5
1 631:1 1368:1 1398:5
1 457:1 1252:1 1398:5
1 631:1 1368:1 1398:6
1 457:1 1252:1 1398:5
1 631:1 1368:1 1398:3
1 631:1 1368:1 1398:6
1 631:1 1368:1 1398:6
1 175:1 241:1 288:1 623:1 631:1 635:1 1102:1 1125:1 1254:1 1302:1 1319:1 1338:1 1340:1 1361:1 1368:1 1370:1 1398:5
1 631:1 1368:1 1398:6
1 1398:2
1 631:1 1368:1 1398:6
1 631:1 1368:1 1398:6
1 631:1 1368:1 1398:3
1 631:1 1368:1 1398:5
1 175:1 241:1 288:1 623:1 631:1 635:1 1102:1 1125:1 1254:1 1302:1 1319:1 1338:1 1340:1 1361:1 1368:1 1370:1 1398:3
1 631:1 1368:1 1398:4
1 631:1 1079:1 1175:1 1294:1 1368:1 1374:1 1398:6
1 241:1 631:1 951:1 1302:1 1368:1 1392:1 1398:3
1 631:1 1368:1 1398:4
1 175:1 241:1 288:1 623:2 631:5 635:1 715:3 911:1 1102:3 1125:1 1230:3 1254:1 1302:1 1319:3 1338:1 1340:1 1361:2 1362:1 1368:5 1370:1 1398:5 1400:3
1 175:1 241:1 288:1 623:1 631:1 635:1 1102:1 1125:1 1254:1 1302:1 1319:1 1338:1 1340:1 1361:1 1368:1 1370:1 1398:4
1 457:1 1252:1 1398:5
1 457:1 1252:1 1398:5
1 631:1 1102:1 1319:1 1368:1 1398:6
1 631:1 1368:1 1398:3
1 631:1 1102:1 1319:1 1368:1 1398:6
1 175:1 241:1 288:1 623:1 631:1 635:1 1102:1 1125:1 1254:1 1302:1 1319:1 1338:1 1340:1 1361:1 1368:1 1370:1 1398:3
1 457:1 1252:1 1398:4
1 457:1 1252:1 1398:4
1 631:1 1368:1 1398:6
1 631:1 1368:1 1398:6
1 457:1 1252:1 1398:5
1 631:1 1368:1 1398:4
1 631:1 1368:1 1398:5
1 175:1 241:1 288:1 623:1 631:1 713:1 722:1 1079:1 1080:1 1083:1 1102:1 1228:1 1239:1 1254:1 1294:1 1295:1 1298:1 1302:1 1319:1 1338:1 1361:1 1368:1 1398:4
1 631:1 1368:1 1398:2
1 631:1 1368:1 1398:5
1 631:1 1368:1 1398:5
1 457:1 1252:1 1398:3
1 631:1 1368:1 1398:6
1 631:1 1368:1 1398:6
1 175:1 241:1 288:1 623:1 631:1 635:1 1102:1 1125:1 1254:1 1302:1 1319:1 1338:1 1340:1 1361:1 1368:1 1370:1 1398:4
1 631:1 1368:1 1398:6
1 175:1 241:1 288:1 623:1 631:1 635:1 715:1 1102:1 1125:1 1230:1 1254:1 1302:1 1319:1 1338:1 1340:1 1361:1 1368:1 1370:1 1398:5 1400:2
1 631:1 1368:1 1398:6
1 631:1 1368:1 1398:4
1 631:1 1368:1 1398:6
1 631:1 1102:1 1319:1 1368:1 1398:6
1 1398:3
1 631:1 1102:1 1319:1 1368:1 1398:6
1 175:1 241:1 288:1 623:1 631:1 635:1 1102:1 1125:1 1254:1 1302:1 1319:1 1338:1 1340:1 1361:1 1368:1 1370:1 1398:4
1 631:1 1368:1 1398:6
1 631:1 1368:1 1398:6
1 631:1 1368:1 1398:5
1 631:1 1368:1 1398:6
1 631:1 1368:1 1398:4
1 631:1 1368:1 1398:6
1 631:1 1368:1 1398:5
1 631:1 1368:1 1398:6
1 631:1 1368:1 1398:7
1 241:1 623:1 631:1 951:1 1302:1 1361:1 1368:1 1392:1 1398:2
1 631:1 1102:1 1319:1 1368:1 1398:6
1 631:1 1102:1 1319:1 1368:1 1398:5
1 631:1 1368:1 1398:3
1 631:1 1368:1 1398:6
1 631:1 1368:1 1398:5
1 631:1 1102:1 1319:1 1368:1 1398:6
1 631:1 1368:1 1398:6
1 241:1 623:1 631:1 1102:1 1302:1 1319:1 1361:1 1368:1 1398:2
1 623:1 631:1 1361:1 1368:1 1398:4
1 631:1 1368:1 1398:4
1 457:1 1252:1 1398:5
1 631:1 1368:1 1398:6
1 175:1 241:1 288:1 623:1 631:1 715:1 1102:1 1125:1 1230:1 1254:1 1302:1 1319:1 1338:1 1340:1 1361:1 1368:1 1398:8
1 631:1 1368:1 1398:5
1 631:1 1102:1 1319:1 1368:1 1398:4
1 631:1 1368:1 1398:6
1 631:1 1368:1 1398:5
1 631:1 1102:1 1319:1 1368:1 1398:3
1 631:1 1368:1 1398:5
1 175:1 241:1 288:1 623:1 631:1 635:1 1102:1 1254:1 1302:1 1319:1 1338:1 1361:1 1368:1 1370:1 1398:4
1 631:1 1368:1 1398:5
1 457:1 1252:1 1398:5
1 631:1 1368:1 1398:6
1 631:1 1368:1 1398:6
1 631:1 1368:1 1398:6
1 1398:2
1 175:1 631:1 1254:1 1368:1 1398:4
1 457:1 1252:1 1398:5
1 175:1 241:1 288:1 631:1 715:1 1102:1 1230:1 1254:1 1302:1 1319:1 1338:1 1368:1 1398:3
1 528:1 631:1 1102:1 1289:1 1319:1 1368:1 1398:7
1 631:1 1368:1 1398:5
1 241:1 288:1 336:1 528:1 623:1 631:1 715:1 829:1 849:1 864:1 888:1 1057:1 1095:1 1102:1 1230:1 1274:1 1289:1 1302:1 1314:1 1315:1 1319:1 1329:1 1338:1 1342:1 1351:1 1358:1 1361:1 1368:1 1398:4
1 631:1 1368:1 1398:3
1 631:1 1102:1 1319:1 1368:1 1398:4
1 631:1 1368:1 1398:6
1 631:1 1368:1 1398:5
1 631:1 1368:1 1398:5
1 175:1 241:1 288:1 623:1 631:1 635:1 706:1 715:1 722:1 1102:1 1125:1 1175:1 1221:1 1230:1 1239:1 1254:1 1302:1 1319:1 1338:1 1340:1 1361:1 1368:1 1370:1 1374:1 1398:2
1 631:1 1102:1 1319:1 1368:1 1398:4
1 631:1 1368:1 1398:5
1 175:1 241:1 288:1 528:1 623:1 631:1 635:1 706:1 715:1 853:1 951:1 1102:1 1125:1 1221:1 1230:1 1254:1 1289:1 1302:1 1319:1 1333:1 1338:1 1340:1 1361:1 1368:1 1370:1 1392:1 1398:5 1400:2
1 631:1 1368:1 1398:5
1 1398:2
1 631:1 1368:1 1398:5
1 457:1 1252:1 1398:4
1 631:1 1368:1 1398:6
1 631:1 1102:1 1319:1 1368:1 1398:4
1 134:1 140:1 146:1 148:1 151:1 247:1 272:1 274:1 295:1 318:1 336:1 347:1 355:1 382:1 392:1 415:1 437:1 452:1 503:1 530:1 536:1 539:1 557:1 564:1 609:1 628:1 647:1 649:1 690:1 715:1 745:1 746:1 812:1 852:1 949:1 974:1 994:1 995:1 1006:1 1031:1 1068:1 1144:1 1162:1 1192:1 1217:1 1219:1 1222:1 1224:1 1229:1 1230:1 1232:1 1233:1 1236:1 1238:1 1240:1 1241:1 1243:1 1250:1 1255:1 1256:1 1257:1 1263:1 1265:1 1267:1 1273:1 1283:1 1284:1 1290:1 1292:1 1300:1 1307:1 1310:1 1325:1 1326:1 1327:1 1332:1 1336:1 1341:1 1348:1 1352:1 1355:1 1356:1 1357:1 1358:1 1366:1 1367:1 1373:1 1377:1 1378:1 1382:1 1385:1 1391:1 1396:1 1397:1 1398:5
1 631:1 1368:1 1398:6
1 175:1 241:1 288:1 551:1 623:1 631:1 635:1 706:1 1102:1 1175:1 1221:1 1254:1 1302:1 1319:1 1322:1 1338:1 1361:1 1368:1 1370:1 1374:1 1398:2
1 175:1 241:1 288:1 623:1 631:1 715:1 832:1 1102:1 1230:1 1254:1 1302:1 1319:1 1320:1 1338:1 1361:1 1368:1 1398:3
1 631:1 1368:1 1398:4
1 631:1 1368:1 1398:6
1 631:1 715:1 758:1 1230:1 1261:1 1368:1 1398:2
1 623:2 631:2 635:1 715:1 1102:2 1230:1 1319:2 1361:2 1368:2 1370:1 1398:8
1 175:1 241:1 288:1 631:1 715:1 1102:1 1230:1 1254:1 1302:1 1319:1 1338:1 1368:1 1398:2
1 631:1 1368:1 1398:6
1 631:1 1368:1 1398:6
1 457:1 1252:1 1398:5
1 631:1 1368:1 1398:6
1 457:1 1252:1 1398:4
1 175:1 241:1 256:1 288:2 623:3 631:5 635:1 636:1 713:1 715:3 911:1 1102:3 1125:1 1228:1 1230:3 1254:1 1302:1 1316:1 1319:3 1338:2 1340:1 1361:3 1362:1 1368:5 1370:1 1372:1 1398:7
1 175:1 241:1 288:1 623:1 631:1 635:1 1102:1 1125:1 1254:1 1302:1 1319:1 1338:1 1340:1 1361:1 1368:1 1370:1 1398:4
1 288:1 354:1 528:1 551:1 623:1 631:1 713:1 722:1 1079:1 1083:1 1102:1 1228:1 1239:1 1289:1 1294:1 1298:1 1319:1 1322:1 1338:1 1361:1 1368:1 1369:1 1398:6
1 631:1 1368:1 1398:6
1 631:1 1368:1 1398:5
1 631:1 1368:1 1398:8
1 175:1 241:1 288:1 623:1 631:1 635:1 1102:1 1125:1 1254:1 1302:1 1319:1 1338:1 1340:1 1361:1 1368:1 1370:1 1398:5
1 175:1 631:1 1102:1 1254:1 1319:1 1368:1 1398:5
1 241:1 631:1 1302:1 1368:1 1398:6
1 175:1 241:1 288:1 623:1 631:1 635:1 1102:1 1125:1 1254:1 1302:1 1319:1 1338:1 1340:1 1361:1 1368:1 1370:1 1398:4
1 631:1 1368:1 1398:3
1 631:1 1368:1 1398:4
1 631:1 1368:1 1398:6
1 631:1 1368:1 1398:6
1 175:3 241:2 288:3 344:1 528:1 551:1 616:1 623:2 631:5 635:1 706:1 715:3 804:1 1057:1 1102:4 1125:1 1175:1 1221:1 1230:3 1254:3 1274:1 1285:1 1289:1 1302:2 1319:4 1322:1 1338:3 1340:1 1359:1 1361:2 1363:1 1368:5 1370:1 1374:1 1398:4 1400:2
1 631:1 1368:1 1398:6
1 631:1 1368:1 1398:6
1 631:1 1368:1 1398:5
1 631:1 1368:1 1398:5
1 631:1 1102:1 1319:1 1368:1 1398:4
1 457:1 1252:1 1398:3
1 631:1 1368:1 1398:5
1 631:1 1368:1 1398:6
1 631:1 1368:1 1398:6
1 175:1 241:1 288:1 631:1 715:1 1102:1 1230:1 1254:1 1302:1 1319:1 1338:1 1368:1 1398:2
1 457:1 1252:1 1398:5
1 631:1 1368:1 1398:6
1 175:1 241:1 288:1 623:1 631:1 635:1 1102:1 1125:1 1254:1 1302:1 1319:1 1338:1 1340:1 1361:1 1368:1 1370:1 1398:4
1 631:1 1368:1 1398:7
1 631:1 1368:1 1398:6
1 631:1 1102:1 1319:1 1368:1 1398:6
1 631:1 1368:1 1398:5
1 631:1 1368:1 1398:2
1 336:1 1358:1 1398:4
1 175:1 241:1 288:1 623:1 631:1 635:1 1102:1 1125:1 1254:1 1302:1 1319:1 1338:1 1340:1 1361:1 1368:1 1370:1 1398:4
1 631:1 1368:1 1398:7
1 631:1 1368:1 1398:3
1 175:1 241:1 288:1 514:1 623:1 631:1 635:1 636:1 694:1 706:1 713:1 715:1 758:1 829:1 864:1 1057:1 1102:1 1175:1 1220:1 1221:1 1228:1 1230:1 1254:1 1261:1 1274:1 1279:1 1302:1 1314:1 1319:1 1338:1 1342:1 1361:1 1368:1 1370:1 1372:1 1374:1 1398:5
1 631:1 1368:1 1398:6
1 241:1 623:1 631:1 1102:1 1302:1 1319:1 1361:1 1368:1 1398:2
1 241:1 631:1 1302:1 1368:1 1398:6
1 175:1 241:2 288:2 623:3 631:4 635:2 636:1 706:1 715:4 853:1 1102:2 1125:1 1221:1 1230:4 1254:1 1302:2 1319:2 1333:1 1338:2 1340:1 1361:3 1368:4 1370:2 1372:1 1398:6
1 457:1 1252:1 1398:5
1 631:1 1368:1 1398:3
1 1398:3
1 631:1 1368:1 1398:6
1 175:1 631:1 1254:1 1368:1 1398:2
1 631:1 1368:1 1398:6
1 175:1 241:1 288:1 344:1 623:1 631:1 635:1 636:1 706:1 713:1 715:1 829:1 1057:1 1079:1 1102:1 1221:1 1228:1 1230:1 1254:1 1274:1 1294:1 1302:1 1314:1 1319:1 1338:1 1361:1 1363:1 1368:1 1370:1 1372:1 1398:4
1 631:1 1368:1 1398:6
1 218:1 241:1 288:1 318:1 512:1 535:1 623:1 631:1 649:1 709:1 715:1 945:1 975:1 1018:1 1090:1 1102:1 1182:1 1218:1 1225:1 1230:1 1248:1 1277:1 1280:1 1299:1 1302:1 1308:1 1319:1 1338:1 1352:1 1361:1 1368:1 1379:1 1382:1 1388:1 1398:3 1400:5
1 631:1 1368:1 1398:6
1 631:1 1368:1 1398:5
1 631:1 1368:1 1398:6
1 631:1 1368:1 1398:4
1 175:1 241:2 288:2 623:2 631:2 635:2 636:1 706:1 715:2 853:1 1102:2 1125:1 1221:1 1230:2 1254:1 1302:2 1319:2 1333:1 1338:2 1340:1 1361:2 1368:2 1370:2 1372:1 1398:8
1 631:1 1368:1 1398:6
1 241:1 623:1 631:1 1102:1 1302:1 1319:1 1361:1 1368:1 1398:2
1 457:1 1252:1 1398:4
1 175:1 241:1 288:1 623:1 631:1 635:1 1102:1 1125:1 1254:1 1302:1 1319:1 1338:1 1340:1 1361:1 1368:1 1370:1 1398:4
1 175:1 241:1 288:1 623:1 631:1 635:1 706:1 715:1 829:1 951:1 1102:1 1221:1 1230:1 1254:1 1302:1 1314:1 1319:1 1338:1 1361:1 1368:1 1370:1 1392:1 1398:2
1 631:1 1368:1 1398:6
1 175:1 241:1 288:1 631:1 715:1 1102:1 1230:1 1254:1 1302:1 1319:1 1338:1 1368:1 1398:2
1 457:1 1252:1 1398:5
1 175:1 631:1 1102:1 1254:1 1319:1 1368:1 1398:3
1 175:1 241:1 288:1 344:1 551:1 616:1 623:1 631:1 635:1 706:1 715:1 722:1 853:1 864:1 1080:1 1102:1 1125:1 1175:1 1221:1 1230:1 1239:1 1254:1 1295:1 1302:1 1319:1 1322:1 1333:1 1338:1 1340:1 1342:1 1359:1 1361:1 1363:1 1368:1 1370:1 1374:1 1398:3
1 631:1 1368:1 1398:4
1 631:1 1368:1 1398:7
1 457:1 1252:1 1398:5
1 631:1 1368:1 1398:6
1 631:1 1368:1 1398:6
1 241:1 623:1 631:1 1102:1 1302:1 1319:1 1361:1 1368:1 1398:3
1 631:1 1368:1 1398:7
1 631:1 1102:1 1319:1 1368:1 1398:2
1 631:1 715:1 758:1 1230:1 1261:1 1368:1 1398:3
1 631:1 1368:1 1398:4
1 631:1 1368:1 1398:6
1 457:1 1252:1 1398:3
1 631:1 1368:1 1398:5
1 631:1 1368:1 1398:6
1 631:1 1368:1 1398:5
1 631:1 1368:1 1398:8
1 631:1 1368:1 1398:6
1 1398:2
1 631:1 1368:1 1398:7
1 175:1 241:1 288:1 623:1 631:1 635:1 1102:1 1125:1 1254:1 1302:1 1319:1 1338:1 1340:1 1361:1 1368:1 1370:1 1398:4
1 175:1 631:1 1254:1 1368:1 1398:4
1 175:1 241:1 288:1 631:1 715:1 1102:1 1230:1 1254:1 1302:1 1319:1 1338:1 1368:1 1398:2
1 631:1 1368:1 1398:7
1 457:1 1252:1 1398:6
1 631:1 1368:1 1398:6
1 336:1 354:1 528:1 623:1 631:2 852:1 1249:1 1289:1 1332:1 1358:1 1361:1 1368:2 1369:1 1398:5
1 457:1 1252:1 1398:5
1 631:1 1368:1 1398:3
1 631:1 1102:1 1319:1 1368:1 1398:2
1 175:1 241:2 288:2 623:3 631:4 635:2 636:1 706:1 715:4 853:1 1102:2 1125:1 1221:1 1230:4 1254:1 1302:2 1319:2 1333:1 1338:2 1340:1 1361:3 1368:4 1370:2 1372:1 1398:6
1 528:1 623:1 631:1 635:1 1102:1 1289:1 1319:1 1361:1 1368:1 1370:1 1398:3
1 175:1 241:1 288:1 623:1 631:1 635:1 1102:1 1125:1 1254:1 1302:1 1319:1 1338:1 1340:1 1361:1 1368:1 1370:1 1398:5
1 631:1 1368:1 1398:6
1 631:1 1368:1 1398:5
1 631:1 1368:1 1398:6
1 631:1 1368:1 1398:6
1 631:1 1368:1 1398:6
1 457:1 1252:1 1398:5
1 631:1 1368:1 1398:7
1 175:1 241:1 288:1 623:1 631:1 635:1 1102:1 1125:1 1254:1 1302:1 1319:1 1338:1 1340:1 1361:1 1368:1 1370:1 1398:5
1 175:1 241:1 288:1 623:1 631:1 635:1 1102:1 1125:1 1254:1 1302:1 1319:1 1338:1 1340:1 1361:1 1368:1 1370:1 1398:4
1 175:1 484:1 528:1 623:1 631:1 635:1 1102:1 1125:1 1254:1 1262:1 1289:1 1319:1 1340:1 1361:1 1368:1 1370:1 1398:4
1 631:1 1368:1 1398:6
1 175:1 241:1 288:2 623:1 631:1 635:1 636:1 706:1 715:1 758:1 1102:1 1125:1 1175:1 1221:1 1230:1 1254:1 1261:1 1302:1 1319:1 1338:2 1340:1 1361:1 1368:1 1370:1 1372:1 1374:1 1398:4 1400:4252
1 631:1 1368:1 1398:4
1 631:1 1368:1 1398:7
1 631:1 1368:1 1398:6
1 631:1 1368:1 1398:7
1 631:1 1368:1 1398:6
1 631:1 1368:1 1398:5
1 631:1 1368:1 1398:6
1 631:1 1368:1 1398:5
1 631:1 1368:1 1398:5
1 241:1 631:1 1302:1 1368:1 1398:6
1 631:1 1368:1 1398:6
1 631:1 1368:1 1398:5
1 631:1 1368:1 1398:6
1 457:1 1252:1 1398:5
1 631:1 1368:1 1398:3
1 631:1 1368:1 1398:5
1 623:2 631:2 635:1 715:1 1102:2 1230:1 1319:2 1361:2 1368:2 1370:1 1398:7
1 631:1 1368:1 1398:7
1 288:1 631:1 1102:1 1319:1 1338:1 1368:1 1398:3
1 631:1 1368:1 1398:6
1 631:1 1368:1 1398:6
1 175:1 241:1 288:1 623:1 631:1 635:1 1102:1 1125:1 1254:1 1302:1 1319:1 1338:1 1340:1 1361:1 1368:1 1370:1 1398:5
1 623:1 631:1 1361:1 1368:1 1398:5
1 457:1 1252:1 1398:3
1 175:1 241:2 288:2 623:2 631:2 635:1 706:1 715:2 853:1 1102:2 1125:1 1221:1 1230:2 1254:1 1302:2 1319:2 1333:1 1338:2 1340:1 1361:2 1368:2 1370:1 1398:8
1 175:1 241:1 256:1 288:1 376:1 623:1 631:1 636:1 706:1 713:1 715:1 722:1 725:1 815:1 829:1 1079:1 1102:1 1175:1 1221:1 1228:1 1230:1 1239:1 1242:1 1254:1 1294:1 1297:1 1302:1 1314:1 1316:1 1319:1 1338:1 1361:1 1368:1 1372:1 1374:1 1394:1 1398:3 1400:1551
1 631:1 1368:1 1398:5
1 631:1 1102:1 1319:1 1368:1 1398:3
1 175:1 631:1 1254:1 1368:1 1398:2
1 631:1 1368:1 1398:6
1 175:1 241:1 288:1 344:1 551:1 616:1 623:1 631:1 635:1 706:1 715:1 722:1 853:1 864:1 1080:1 1102:1 1125:1 1175:1 1221:1 1230:1 1239:1 1254:1 1295:1 1302:1 1319:1 1322:1 1333:1 1338:1 1340:1 1342:1 1359:1 1361:1 1363:1 1368:1 1370:1 1374:1 1398:3
1 631:1 1368:1 1398:5
1 631:1 1102:1 1319:1 1368:1 1398:3
1 631:1 1368:1 1398:2
1 631:1 1368:1 1398:5
1 631:1 1368:1 1398:6
1 631:1 1368:1 1398:4
1 175:1 241:1 288:1 623:1 631:1 635:1 1102:1 1125:1 1254:1 1302:1 1319:1 1338:1 1340:1 1361:1 1368:1 1370:1 1398:5
1 631:1 1368:1 1398:6
1 631:1 1368:1 1398:4
1 175:1 241:1 288:1 623:1 631:1 635:1 1102:1 1125:1 1254:1 1302:1 1319:1 1338:1 1340:1 1361:1 1368:1 1370:1 1398:4
1 631:1 1368:1 1398:5
1 623:1 631:1 1361:1 1368:1 1398:4
1 241:1 288:1 336:1 528:1 623:1 631:1 715:1 829:1 849:1 864:1 888:1 1057:1 1095:1 1102:1 1230:1 1274:1 1289:1 1302:1 1314:1 1315:1 1319:1 1329:1 1338:1 1342:1 1351:1 1358:1 1361:1 1368:1 1398:4
1 631:1 1368:1 1398:4
1 457:1 1252:1 1398:5
1 631:1 1368:1 1398:4
1 631:1 1368:1 1398:6
1 1398:3
1 631:1 1368:1 1398:7
1 631:1 1368:1 1398:5
1 631:1 1368:1 1398:7
1 175:1 241:1 288:1 623:1 631:1 635:1 1102:1 1125:1 1254:1 1302:1 1319:1 1338:1 1340:1 1361:1 1368:1 1370:1 1398:5
1 457:1 1252:1 1398:3
1 631:1 1368:1 1398:7
1 288:1 528:1 631:1 1289:1 1338:1 1368:1 1398:4
1 631:1 1368:1 1398:5
1 457:1 1252:1 1398:3
1 631:1 1368:1 1398:5
1 175:1 241:1 288:1 344:1 495:1 623:1 631:1 636:1 713:1 715:1 832:1 951:1 1079:1 1093:1 1102:1 1125:1 1228:1 1230:1 1254:1 1269:1 1294:1 1302:1 1313:1 1319:1 1320:1 1338:1 1340:1 1361:1 1363:1 1368:1 1372:1 1392:1 1398:3
1 623:1 631:1 1079:1 1102:1 1294:1 1319:1 1361:1 1368:1 1398:3 1400:62
1 457:1 1252:1 1398:5
1 631:1 1368:1 1398:5
1 631:1 1368:1 1398:4
1 631:1 1368:1 1398:6
1 175:1 241:1 288:1 623:1 631:1 635:1 1102:1 1125:1 1254:1 1302:1 1319:1 1338:1 1340:1 1361:1 1368:1 1370:1 1398:3
1 631:1 1368:1 1398:5
1 631:1 1368:1 1398:4 1400:1
1 631:1 1368:1 1398:1
1 631:1 1368:1 1398:6
1 631:1 1368:1 1398:6
1 631:1 1368:1 1398:6
1 241:1 288:1 336:1 623:1 631:1 1080:1 1102:1 1175:1 1295:1 1302:1 1319:1 1338:1 1358:1 1361:1 1368:1 1374:1 1398:4 1400:1
1 631:1 1368:1 1398:6
1 175:1 241:1 288:1 514:1 623:1 631:1 635:1 636:1 694:1 706:1 713:1 715:1 758:1 829:1 864:1 1057:1 1102:1 1175:1 1220:1 1221:1 1228:1 1230:1 1254:1 1261:1 1274:1 1279:1 1302:1 1314:1 1319:1 1338:1 1342:1 1361:1 1368:1 1370:1 1372:1 1374:1 1398:5
1 631:1 1368:1 1398:5
1 175:1 241:1 288:1 623:1 631:1 635:1 1102:1 1125:1 1254:1 1302:1 1319:1 1338:1 1340:1 1361:1 1368:1 1370:1 1398:5
1 631:1 1368:1 1398:5
1 631:1 1368:1 1398:5
1 631:1 1368:1 1398:6
1 457:1 1252:1 1398:5
1 175:1 241:1 288:1 623:1 631:1 635:1 1102:1 1125:1 1254:1 1302:1 1319:1 1338:1 1340:1 1361:1 1368:1 1370:1 1398:4
1 631:1 1368:1 1398:4
1 631:1 1368:1 1398:6
1 631:1 1368:1 1398:6
1 631:1 1368:1 1398:5
1 631:1 1368:1 1398:6
1 1398:3
1 1398:2
1 631:1 1368:1 1398:6
1 457:1 1252:1 1398:5
1 241:1 623:1 631:1 1102:1 1302:1 1319:1 1361:1 1368:1 1398:2
1 631:1 1368:1 1398:4
1 631:1 1368:1 1398:6
1 134:1 140:1 146:1 148:1 151:1 247:1 272:1 274:1 295:1 318:1 336:1 347:1 355:1 382:1 392:1 415:1 437:1 452:1 503:1 530:1 536:1 539:1 557:1 564:1 609:1 628:1 647:1 649:1 690:1 715:1 745:1 746:1 812:1 852:1 949:1 974:1 994:1 995:1 1006:1 1031:1 1068:1 1144:1 1162:1 1192:1 1217:1 1219:1 1222:1 1224:1 1229:1 1230:1 1232:1 1233:1 1236:1 1238:1 1240:1 1241:1 1243:1 1250:1 1255:1 1256:1 1257:1 1263:1 1265:1 1267:1 1273:1 1283:1 1284:1 1290:1 1292:1 1300:1 1307:1 1310:1 1325:1 1326:1 1327:1 1332:1 1336:1 1341:1 1348:1 1352:1 1355:1 1356:1 1357:1 1358:1 1366:1 1367:1 1373:1 1377:1 1378:1 1382:1 1385:1 1391:1 1396:1 1397:1 1398:5
1 631:1 1368:1 1398:6
1 241:1 288:1 336:1 528:1 623:1 631:1 715:1 829:1 849:1 864:1 888:1 1057:1 1095:1 1102:1 1230:1 1274:1 1289:1 1302:1 1314:1 1315:1 1319:1 1329:1 1338:1 1342:1 1351:1 1358:1 1361:1 1368:1 1398:4
1 631:1 1368:1 1398:1
1 175:1 241:1 288:1 623:1 631:1 635:1 1102:1 1254:1 1302:1 1319:1 1338:1 1361:1 1368:1 1370:1 1398:4
1 631:1 1368:1 1398:6
1 175:1 241:2 288:2 623:3 631:4 635:2 636:1 706:1 715:4 853:1 1102:2 1125:1 1221:1 1230:4 1254:1 1302:2 1319:2 1333:1 1338:2 1340:1 1361:3 1368:4 1370:2 1372:1 1398:5
1 457:1 1252:1 1398:6
1 631:1 1368:1 1398:6
1 457:1 1252:1 1398:4
1 631:1 1368:1 1398:6
1 631:1 1368:1 1398:6
1 631:1 1368:1 1398:6
1 631:1 1102:1 1319:1 1368:1 1398:3
1 631:1 1368:1 1398:7
1 457:1 1252:1 1398:4
1 631:1 1368:1 1398:5
1 457:1 1252:1 1398:4
1 631:1 1368:1 1398:6
1 631:1 1102:1 1319:1 1368:1 1398:4
1 631:1 1368:1 1398:7
1 175:1 223:1 241:1 288:1 311:1 336:1 368:1 453:1 484:1 528:1 623:1 631:1 635:1 713:1 715:1 742:1 782:1 829:1 832:1 911:1 1083:1 1093:1 1102:1 1125:1 1228:1 1230:1 1251:1 1253:1 1254:1 1262:1 1271:1 1282:1 1289:1 1298:1 1302:1 1313:1 1314:1 1319:1 1320:1 1338:1 1340:1 1349:1 1358:1 1361:1 1362:1 1368:1 1370:1 1386:1 1398:3
1 631:1 1368:1 1398:5
1 631:1 1368:1 1398:5
1 175:1 241:1 288:1 623:1 631:1 635:1 706:1 715:1 911:1 1102:1 1125:1 1221:1 1230:1 1254:1 1302:1 1319:1 1338:1 1340:1 1361:1 1362:1 1368:1 1370:1 1398:4 1400:3
1 1398:3
1 631:1 1368:1 1398:6
1 631:1 1368:1 1398:5
1 631:1 1368:1 1398:4
1 631:1 1368:1 1398:6
1 631:1 1368:1 1398:6
1 631:1 1368:1 1398:5
1 631:1 1368:1 1398:5
1 457:1 1252:1 1398:5
1 175:1 241:1 288:1 623:1 631:1 715:1 832:1 1102:1 1230:1 1254:1 1302:1 1319:1 1320:1 1338:1 1361:1 1368:1 1398:3
1 241:1 623:1 631:1 1102:1 1302:1 1319:1 1361:1 1368:1 1398:2
1 631:1 1368:1 1398:6
1 631:1 1368:1 1398:6
1 631:1 1368:1 1398:6
1 457:1 1252:1 1398:5
1 631:1 1368:1 1398:6
1 631:1 1368:1 1398:5
1 631:1 1368:1 1398:6
1 631:1 1368:1 1398:6
1 457:1 1252:1 1398:5
1 631:1 1368:1 1398:6
1 631:1 1368:1 1398:5
1 631:1 1368:1 1398:6
1 457:1 1252:1 1398:5
1 175:1 241:1 288:1 631:1 715:1 1102:1 1230:1 1254:1 1302:1 1319:1 1338:1 1368:1 1398:3
1 631:1 1368:1 1398:5
1 457:1 631:1 1252:1 1368:1 1398:6
1 631:1 1368:1 1398:4
1 631:1 1368:1 1398:5
1 457:1 1252:1 1398:5
1 631:1 1368:1 1398:5
1 631:1 1368:1 1398:5
1 457:1 1252:1 1398:4
1 631:1 1368:1 1398:3
1 631:1 1368:1 1398:6
1 631:1 1368:1 1398:6
1 631:1 1368:1 1398:6
1 175:1 241:1 288:1 623:1 631:1 715:1 1102:1 1125:1 1230:1 1254:1 1302:1 1319:1 1338:1 1340:1 1361:1 1368:1 1398:8
1 631:1 1368:1 1398:6
1 631:1 1368:1 1398:7
1 631:1 1368:1 1398:9
1 175:1 241:1 288:1 623:1 631:1 635:1 1102:1 1125:1 1254:1 1302:1 1319:1 1338:1 1340:1 1361:1 1368:1 1370:1 1398:3
1 631:1 1368:1 1398:6
1 631:1 1368:1 1398:5
1 631:1 1368:1 1398:4
1 175:1 631:1 1102:1 1254:1 1319:1 1368:1 1398:3
1 175:1 241:1 288:1 623:1 631:1 715:1 1102:1 1125:1 1230:1 1254:1 1302:1 1319:1 1338:1 1340:1 1361:1 1368:1 1398:8
1 631:1 1368:1 1398:5
1 631:1 1368:1 1398:6
1 457:1 1252:1 1398:5
1 631:1 1368:1 1398:6
1 631:1 1368:1 1398:6
1 631:1 1368:1 1398:6
1 631:1 1368:1 1398:5
1 631:1 1368:1 1398:7
1 175:1 241:1 288:1 623:1 631:1 635:1 1102:1 1125:1 1254:1 1302:1 1319:1 1338:1 1340:1 1361:1 1368:1 1370:1 1398:4
1 631:1 1368:1 1398:4
1 175:1 241:1 288:1 344:1 623:1 631:1 758:1 1079:1 1102:1 1254:1 1261:1 1294:1 1302:1 1319:1 1338:1 1361:1 1363:1 1368:1 1398:2
1 631:1 1368:1 1398:6
1 631:1 1368:1 1398:6
1 631:1 1368:1 1398:5
1 631:1 1368:1 1398:5
1 175:1 241:1 288:1 623:1 631:1 635:1 1102:1 1125:1 1254:1 1302:1 1319:1 1338:1 1340:1 1361:1 1368:1 1370:1 1398:4
1 623:1 631:1 1102:1 1319:1 1361:1 1368:1 1398:3
1 457:1 1252:1 1398:5
1 175:1 241:1 288:1 623:1 631:1 715:1 1102:1 1125:1 1230:1 1254:1 1302:1 1319:1 1338:1 1340:1 1361:1 1368:1 1398:8
1 631:1 1368:1 1398:6
1 631:1 1368:1 1398:6
1 631:1 1368:1 1398:7
1 631:1 1368:1 1398:6
1 631:1 1368:1 1398:1
1 288:1 631:1 1102:1 1319:1 1338:1 1368:1 1398:3
1 631:1 1368:1 1398:5
1 631:1 1368:1 1398:6
1 631:1 1368:1 1398:5
1 175:1 241:1 256:1 288:1 344:1 558:1 623:1 631:1 636:1 694:1 706:1 713:1 715:1 758:1 829:1 864:1 1057:1 1102:1 1220:1 1221:1 1228:1 1230:1 1254:1 1261:1 1274:1 1302:1 1314:1 1316:1 1319:1 1330:1 1338:1 1342:1 1361:1 1363:1 1368:1 1372:1 1398:4
1 631:1 1368:1 1398:6
1 631:1 1102:1 1319:1 1368:1 1398:4
1 631:1 1368:1 1398:6
1 631:1 1368:1 1398:5
1 631:1 1368:1 1398:6
1 457:1 1252:1 1398:5
1 631:1 1368:1 1398:5
1 631:1 1368:1 1398:3
1 175:1 241:1 288:1 623:1 631:1 715:1 1102:1 1125:1 1230:1 1254:1 1302:1 1319:1 1338:1 1340:1 1361:1 1368:1 1398:8
1 631:1 1368:1 1398:6
1 175:1 241:1 288:1 623:1 631:1 635:1 1102:1 1125:1 1254:1 1302:1 1319:1 1338:1 1340:1 1361:1 1368:1 1370:1 1398:4
1 175:1 484:1 528:1 623:1 631:1 635:1 1102:1 1125:1 1254:1 1262:1 1289:1 1319:1 1340:1 1361:1 1368:1 1370:1 1398:4
1 631:1 1368:1 1398:6
1 528:1 623:1 631:1 1289:1 1361:1 1368:1 1398:4
1 175:1 241:1 288:1 623:1 631:1 635:1 1102:1 1125:1 1254:1 1302:1 1319:1 1338:1 1340:1 1361:1 1368:1 1370:1 1398:3
1 623:1 631:1 635:1 715:1 1102:1 1230:1 1319:1 1361:1 1368:1 1370:1 1398:4 1400:2
1 631:1 1102:1 1319:1 1368:1 1398:5
1 631:1 1368:1 1398:6
1 631:1 1368:1 1398:4
1 631:1 1368:1 1398:5
1 175:1 241:1 256:1 288:1 344:1 558:1 623:1 631:1 635:1 636:1 706:1 713:1 715:1 725:1 758:1 790:1 829:1 864:1 946:1 1057:1 1102:1 1125:1 1175:1 1221:1 1228:1 1230:1 1242:1 1254:1 1261:1 1274:1 1275:1 1302:1 1314:1 1316:1 1319:1 1330:1 1338:1 1340:1 1342:1 1361:1 1363:1 1368:1 1370:1 1372:1 1374:1 1389:1 1398:3
1 631:1 1368:1 1398:6
1 631:1 1368:1 1398:6
1 175:1 241:1 288:1 623:1 631:1 635:1 1102:1 1125:1 1254:1 1302:1 1319:1 1338:1 1340:1 1361:1 1368:1 1370:1 1398:3
1 457:1 1252:1 1398:5
1 631:1 1368:1 1398:7
1 631:1 1368:1 1398:5
1 631:1 1368:1 1398:6
1 631:1 1368:1 1398:6
1 631:1 1102:1 1319:1 1368:1 1398:5
1 631:1 1368:1 1398:6
1 631:1 1368:1 1398:5
1 631:1 1368:1 1398:5
1 631:1 1368:1 1398:6
1 631:1 1368:1 1398:6
1 457:1 1252:1 1398:5
1 1398:2
1 175:1 241:1 288:1 623:1 631:1 635:1 1102:1 1125:1 1254:1 1302:1 1319:1 1338:1 1340:1 1361:1 1368:1 1370:1 1398:4
1 631:1 1368:1 1398:4
1 631:1 1368:1 1398:3
1 631:1 1368:1 1398:6
1 175:1 241:1 288:1 631:1 715:1 1102:1 1230:1 1254:1 1302:1 1319:1 1338:1 1368:1 1398:3
1 175:1 241:1 288:1 453:1 528:1 551:1 623:1 631:1 635:1 636:1 706:1 715:1 816:1 829:1 1079:1 1102:1 1221:1 1230:1 1251:1 1254:1 1289:1 1294:1 1301:1 1302:1 1314:1 1319:1 1322:1 1338:1 1361:1 1368:1 1370:1 1372:1 1398:4
1 457:1 1252:1 1398:6
1 631:1 1368:1 1398:6
1 175:1 241:1 288:1 623:1 631:1 635:1 1102:1 1125:1 1254:1 1302:1 1319:1 1338:1 1340:1 1361:1 1368:1 1370:1 1398:4
1 631:1 1368:1 1398:5
1 241:1 631:1 1302:1 1368:1 1398:6
1 631:1 694:1 713:1 832:1 1220:1 1228:1 1320:1 1368:1 1398:4
1 1398:3
1 631:1 1368:1 1398:7
1 631:1 1368:1 1398:7
1 631:1 1368:1 1398:7
1 631:1 1368:1 1398:7
1 175:1 241:1 288:1 623:1 631:1 635:1 1102:1 1125:1 1254:1 1302:1 1319:1 1338:1 1340:1 1361:1 1368:1 1370:1 1398:5
1 631:1 1368:1 1398:6
1 175:1 241:1 288:1 344:1 623:1 631:1 635:1 706:1 715:1 829:1 832:1 864:1 1102:1 1125:1 1177:1 1221:1 1230:1 1254:1 1302:1 1314:1 1319:1 1320:1 1338:1 1340:1 1342:1 1361:1 1363:1 1368:1 1370:1 1375:1 1398:3
1 623:3 631:4 635:1 715:1 1102:2 1230:1 1319:2 1361:3 1368:4 1370:1 1398:5
1 175:1 241:1 288:1 623:1 631:1 715:1 1102:1 1125:1 1230:1 1254:1 1302:1 1319:1 1338:1 1340:1 1361:1 1368:1 1398:8
1 631:1 1368:1 1398:5
1 457:1 1252:1 1398:5
1 631:1 1368:1 1398:6
1 631:1 1368:1 1398:6
1 457:1 1252:1 1398:5
1 631:1 1368:1 1398:6
1 175:1 288:1 344:1 623:1 631:1 758:1 1102:1 1254:1 1261:1 1319:1 1338:1 1361:1 1363:1 1368:1 1398:2
1 631:1 1368:1 1398:5
1 631:1 1368:1 1398:5
1 631:1 1368:1 1398:4
1 175:1 241:1 288:1 623:1 631:1 635:1 1102:1 1125:1 1254:1 1302:1 1319:1 1338:1 1340:1 1361:1 1368:1 1370:1 1398:4
1 1398:2
1 631:1 1368:1 1398:4
1 631:1 1368:1 1398:5
1 631:1 1368:1 1398:6
1 631:1 1368:1 1398:4
1 175:1 631:1 1254:1 1368:1 1398:4
1 457:1 1252:1 1398:3
1 175:1 241:2 288:2 623:3 631:4 635:2 636:1 706:1 715:4 853:1 1102:2 1125:1 1221:1 1230:4 1254:1 1302:2 1319:2 1333:1 1338:2 1340:1 1361:3 1368:4 1370:2 1372:1 1398:5
1 631:1 1368:1 1398:6
1 631:1 1368:1 1398:6
1 631:1 1368:1 1398:7
1 631:1 1368:1 1398:5
1 1398:3
1 631:1 1368:1 1398:6
1 631:1 635:1 829:1 1314:1 1368:1 1370:1 1398:3
1 175:1 241:1 288:1 623:1 631:1 715:1 1102:1 1125:1 1230:1 1254:1 1302:1 1319:1 1338:1 1340:1 1361:1 1368:1 1398:9
1 631:1 1102:1 1319:1 1368:1 1398:4
1 631:1 1368:1 1398:6
1 175:1 241:1 288:1 344:1 551:1 616:1 623:1 631:1 635:1 706:1 715:1 722:1 853:1 864:1 1080:1 1102:1 1125:1 1175:1 1221:1 1230:1 1239:1 1254:1 1295:1 1302:1 1319:1 1322:1 1333:1 1338:1 1340:1 1342:1 1359:1 1361:1 1363:1 1368:1 1370:1 1374:1 1398:3
1 631:1 1368:1 1398:4
1 457:1 1252:1 1398:4
1 175:1 241:1 288:1 631:1 715:1 1102:1 1230:1 1254:1 1302:1 1319:1 1338:1 1368:1 1398:2
1 175:1 218:1 231:1 288:1 318:1 512:1 535:1 623:1 631:1 649:1 709:1 849:1 911:1 945:1 975:1 1018:1 1079:1 1080:1 1083:1 1090:1 1102:1 1180:1 1182:1 1200:1 1218:1 1225:1 1248:1 1254:1 1259:1 1277:1 1280:1 1288:1 1294:1 1295:1 1298:1 1299:1 1308:1 1319:1 1329:1 1338:1 1352:1 1361:1 1362:1 1368:1 1376:1 1379:1 1382:1 1388:1 1390:1 1398:3
1 631:1 1368:1 1398:6
1 631:1 1368:1 1398:6
1 1398:2
1 631:1 1368:1 1398:6
1 631:1 1102:1 1319:1 1368:1 1398:4
1 631:1 1368:1 1398:5
1 218:1 241:1 288:1 318:1 512:1 535:1 623:1 631:1 649:1 709:1 715:1 945:1 975:1 1018:1 1090:1 1102:1 1182:1 1218:1 1225:1 1230:1 1248:1 1277:1 1280:1 1299:1 1302:1 1308:1 1319:1 1338:1 1352:1 1361:1 1368:1 1379:1 1382:1 1388:1 1398:3 1400:5
1 175:1 241:1 288:1 623:1 631:1 715:1 832:1 1102:1 1230:1 1254:1 1302:1 1319:1 1320:1 1338:1 1361:1 1368:1 1398:3
1 1398:2
1 631:1 1368:1 1398:4
1 336:1 1358:1 1398:4
1 631:1 1368:1 1398:6
1 175:1 241:1 288:1 528:1 623:2 631:5 635:1 636:1 706:1 715:3 1102:3 1125:1 1221:1 1230:3 1254:1 1289:1 1302:1 1319:3 1338:1 1340:1 1361:2 1368:5 1370:1 1372:1 1398:6
1 175:1 241:1 288:1 623:1 631:1 635:1 1102:1 1125:1 1254:1 1302:1 1319:1 1338:1 1340:1 1361:1 1368:1 1370:1 1398:3
1 631:1 1368:1 1398:5
1 631:1 1368:1 1398:5
1 175:1 241:1 288:1 623:1 631:1 635:1 1102:1 1125:1 1254:1 1302:1 1319:1 1338:1 1340:1 1361:1 1368:1 1370:1 1398:2
1 457:1 1252:1 1398:3
1 631:1 1368:1 1398:6
1 1398:2
1 631:1 1368:1 1398:5
1 631:1 1368:1 1398:7
1 175:1 241:1 288:1 623:1 631:1 635:1 1102:1 1125:1 1254:1 1302:1 1319:1 1338:1 1340:1 1361:1 1368:1 1370:1 1398:4
1 1398:2
1 631:1 1368:1 1398:6
1 631:1 1368:1 1398:5
1 631:1 1368:1 1398:6
1 631:1 1368:1 1398:5
1 631:1 1368:1 1398:5
1 175:1 241:1 288:1 631:1 715:1 1102:1 1230:1 1254:1 1302:1 1319:1 1338:1 1368:1 1398:2
1 631:1 1368:1 1398:6
1 288:1 631:1 1102:1 1319:1 1338:1 1368:1 1398:3
1 1398:3
1 631:1 1368:1 1398:7
1 175:1 288:1 623:2 631:4 635:1 706:1 715:2 1102:2 1125:1 1221:1 1230:2 1254:1 1319:2 1338:1 1340:1 1361:2 1368:4 1370:1 1398:8
1 631:1 1368:1 1398:6
1 631:1 1368:1 1398:6
1 631:1 1368:1 1398:6
1 631:1 1368:1 1398:6
1 631:1 1368:1 1398:6
1 631:1 1368:1 1398:6
1 175:1 241:1 288:1 623:1 631:1 635:1 1102:1 1125:1 1254:1 1302:1 1319:1 1338:1 1340:1 1361:1 1368:1 1370:1 1398:3
1 241:1 623:1 631:1 1102:1 1302:1 1319:1 1361:1 1368:1 1398:2
1 175:1 623:1 631:1 1254:1 1361:1 1368:1 1398:4
1 631:1 1368:1 1398:5
1 631:1 1368:1 1398:5
1 631:1 1368:1 1398:7
1 631:1 1368:1 1398:5
1 175:1 241:1 288:1 623:1 631:1 635:1 1102:1 1125:1 1254:1 1302:1 1319:1 1338:1 1340:1 1361:1 1368:1 1370:1 1398:5
1 631:1 1368:1 1398:4
1 631:1 1368:1 1398:6
1 631:1 1368:1 1398:3
1 457:1 1252:1 1398:3
1 631:1 1368:1 1398:3
1 631:1 1368:1 1398:5
1 175:1 241:1 288:1 623:1 631:1 635:1 1102:1 1125:1 1254:1 1302:1 1319:1 1338:1 1340:1 1361:1 1368:1 1370:1 1398:3
1 631:1 1368:1 1398:6
1 631:1 1368:1 1398:6
1 1398:2
1 631:1 1368:1 1398:7
1 288:1 631:1 1102:1 1319:1 1338:1 1368:1 1398:3
1 631:1 1368:1 1398:6
1 631:1 1368:1 1398:7
1 631:1 1368:1 1398:6
1 631:1 1102:1 1319:1 1368:1 1398:3
1 631:1 1368:1 1398:4
1 631:1 1368:1 1398:7
1 631:1 1368:1 1398:1
1 631:1 1368:1 1398:5
1 457:1 1252:1 1398:4
1 241:1 311:1 495:1 528:1 529:1 631:1 782:1 1269:1 1271:1 1289:1 1291:1 1302:1 1349:1 1368:1 1398:5
1 631:1 1368:1 1398:3
1 241:1 623:1 631:1 1102:1 1302:1 1319:1 1361:1 1368:1 1398:3
1 241:1 288:1 336:1 437:1 623:1 631:1 715:1 829:1 849:1 951:1 1080:1 1083:1 1102:1 1150:1 1175:1 1230:1 1241:1 1295:1 1298:1 1302:1 1314:1 1319:1 1329:1 1338:1 1350:1 1358:1 1361:1 1368:1 1374:1 1392:1 1398:4 1400:1
1 631:1 1368:1 1398:5
1 631:1 1368:1 1398:5
1 631:1 1368:1 1398:5
1 457:1 1252:1 1398:6
1 631:1 1368:1 1398:3
1 631:1 1368:1 1398:7
1 631:1 1368:1 1398:5
1 457:1 1252:1 1398:4
1 175:1 241:1 288:1 623:1 631:1 635:1 1102:1 1125:1 1254:1 1302:1 1319:1 1338:1 1340:1 1361:1 1368:1 1370:1 1398:4
1 631:1 1102:1 1319:1 1368:1 1398:4
1 288:1 623:1 631:1 1102:1 1319:1 1338:1 1361:1 1368:1 1398:2
1 631:1 1368:1 1398:5
1 631:1 1368:1 1398:6
1 631:1 1368:1 1398:6
1 175:1 241:1 288:1 623:1 631:1 635:1 1102:1 1125:1 1254:1 1302:1 1319:1 1338:1 1340:1 1361:1 1368:1 1370:1 1398:3
1 631:1 1368:1 1398:4
1 631:1 1368:1 1398:6
1 631:1 1368:1 1398:6
1 1398:2
1 175:1 241:1 288:1 623:1 631:1 715:1 1102:1 1125:1 1230:1 1254:1 1302:1 1319:1 1338:1 1340:1 1361:1 1368:1 1398:8
1 631:1 1368:1 1398:5
1 631:1 1102:1 1319:1 1368:1 1398:3
1 631:1 1368:1 1398:5
1 175:1 484:1 528:1 623:1 631:1 635:1 1102:1 1125:1 1254:1 1262:1 1289:1 1319:1 1340:1 1361:1 1368:1 1370:1 1398:2
1 631:1 1368:1 1398:3
1 631:1 1368:1 1398:4
1 631:1 1368:1 1398:1
1 175:1 241:1 288:1 623:1 631:1 715:1 1102:1 1125:1 1230:1 1254:1 1302:1 1319:1 1338:1 1340:1 1361:1 1368:1 1398:8
1 631:1 1368:1 1398:7
1 175:1 623:1 631:1 1102:1 1254:1 1319:1 1361:1 1368:1 1398:3
1 457:1 1252:1 1398:5
1 631:1 1368:1 1398:6
1 457:1 1252:1 1398:4
1 631:1 1368:1 1398:4
1 288:1 631:1 715:1 1102:1 1230:1 1319:1 1338:1 1368:1 1398:2
1 631:1 1368:1 1398:5
1 1398:3
1 631:1 1368:1 1398:6
1 175:1 241:1 288:1 631:1 715:1 1102:1 1230:1 1254:1 1302:1 1319:1 1338:1 1368:1 1398:2
1 631:1 1368:1 1398:5
1 631:1 1368:1 1398:6
1 631:1 1368:1 1398:6
1 631:1 1368:1 1398:5
1 175:1 241:1 288:1 623:1 631:1 635:1 706:1 715:1 1102:1 1221:1 1230:1 1254:1 1302:1 1319:1 1338:1 1361:1 1368:1 1370:1 1398:2
1 175:1 241:1 288:1 623:1 631:1 635:1 1102:1 1125:1 1254:1 1302:1 1319:1 1338:1 1340:1 1361:1 1368:1 1370:1 1398:3
1 631:1 1368:1 1398:6
1 631:1 1368:1 1398:5
1 631:1 1368:1 1398:5
1 631:1 1368:1 1398:5
1 175:1 241:2 288:2 623:3 631:4 635:2 636:1 706:1 715:4 853:1 1102:2 1125:1 1221:1 1230:4 1254:1 1302:2 1319:2 1333:1 1338:2 1340:1 1361:3 1368:4 1370:2 1372:1 1398:6
1 631:1 1368:1 1398:5
1 175:1 241:1 288:1 623:1 631:1 635:1 1102:1 1125:1 1254:1 1302:1 1319:1 1338:1 1340:1 1361:1 1368:1 1370:1 1398:4
1 631:1 1368:1 1398:5
1 631:1 1368:1 1398:5
1 457:1 1252:1 1398:5
1 631:1 1368:1 1398:7
1 631:1 1368:1 1398:4
1 631:1 1368:1 1398:6
1 631:1 1368:1 1398:4
1 631:1 1368:1 1398:5
1 631:1 1368:1 1398:6
1 631:1 1368:1 1398:5
1 631:1 1368:1 1398:5
1 175:1 241:1 288:1 623:1 631:1 635:1 1102:1 1125:1 1254:1 1302:1 1319:1 1338:1 1340:1 1361:1 1368:1 1370:1 1398:3
1 175:1 241:1 256:1 288:1 344:1 558:1 623:1 631:1 636:1 694:1 706:1 713:1 715:1 758:1 790:1 804:1 829:1 864:1 1057:1 1102:1 1125:1 1175:1 1220:1 1221:1 1228:1 1230:1 1254:1 1261:1 1274:1 1275:1 1285:1 1302:1 1314:1 1316:1 1319:1 1330:1 1338:1 1340:1 1342:1 1361:1 1363:1 1368:1 1372:1 1374:1 1398:3
1 175:1 631:1 1254:1 1368:1 1398:4
1 175:1 241:1 288:1 528:1 623:1 631:1 635:1 715:1 1102:1 1230:1 1254:1 1289:1 1302:1 1319:1 1338:1 1361:1 1368:1 1370:1 1398:1
1 631:1 1368:1 1398:7
1 241:1 631:1 1302:1 1368:1 1398:6
1 175:1 241:1 288:1 623:1 631:1 635:1 1102:1 1125:1 1254:1 1302:1 1319:1 1338:1 1340:1 1361:1 1368:1 1370:1 1398:5
1 623:1 631:1 635:1 715:1 1102:1 1230:1 1319:1 1361:1 1368:1 1370:1 1398:4 1400:2
1 1398:3
1 631:1 1368:1 1398:6
1 631:1 1368:1 1398:3
1 631:1 1368:1 1398:7
1 631:1 1368:1 1398:6
1 175:1 241:1 288:1 623:1 631:1 635:1 1102:1 1125:1 1254:1 1302:1 1319:1 1338:1 1340:1 1361:1 1368:1 1370:1 1398:4
1 631:1 1368:1 1398:6
1 631:1 1368:1 1398:5
1 241:1 623:1 631:1 1102:1 1302:1 1319:1 1361:1 1368:1 1398:2
1 241:1 631:1 1302:1 1368:1 1398:6
1 631:1 1368:1 1398:3
1 175:1 241:1 288:1 623:1 631:1 715:1 1102:1 1125:1 1230:1 1254:1 1302:1 1319:1 1338:1 1340:1 1361:1 1368:1 1398:8
1 631:1 1368:1 1398:7
1 631:1 1368:1 1398:6
1 631:1 1368:1 1398:6
1 631:1 1368:1 1398:6
1 175:1 241:1 288:1 623:1 631:1 635:1 1102:1 1125:1 1254:1 1302:1 1319:1 1338:1 1340:1 1361:1 1368:1 1370:1 1398:4
1 175:1 241:1 288:1 623:1 631:1 635:1 1102:1 1125:1 1254:1 1302:1 1319:1 1338:1 1340:1 1361:1 1368:1 1370:1 1398:4
1 631:1 1368:1 1398:6
1 288:1 623:1 631:1 1102:1 1319:1 1338:1 1361:1 1368:1 1398:2
1 631:1 1368:1 1398:5
1 175:1 241:1 288:1 623:1 631:1 715:1 1102:1 1125:1 1230:1 1254:1 1302:1 1319:1 1338:1 1340:1 1361:1 1368:1 1398:9
1 175:1 241:1 288:1 344:1 551:1 616:1 623:1 631:1 635:1 706:1 715:1 722:1 853:1 864:1 1080:1 1102:1 1125:1 1175:1 1221:1 1230:1 1239:1 1254:1 1295:1 1302:1 1319:1 1322:1 1333:1 1338:1 1340:1 1342:1 1359:1 1361:1 1363:1 1368:1 1370:1 1374:1 1398:3
1 175:1 241:1 288:1 344:1 551:1 616:1 623:1 631:1 635:1 706:1 715:1 722:1 853:1 864:1 1080:1 1102:1 1125:1 1175:1 1221:1 1230:1 1239:1 1254:1 1295:1 1302:1 1319:1 1322:1 1333:1 1338:1 1340:1 1342:1 1359:1 1361:1 1363:1 1368:1 1370:1 1374:1 1398:3
1 175:1 241:1 288:1 623:1 631:1 635:1 1102:1 1125:1 1254:1 1302:1 1319:1 1338:1 1340:1 1361:1 1368:1 1370:1 1398:4
1 631:1 1368:1 1398:6
1 631:1 1368:1 1398:4
1 175:1 241:1 288:1 623:1 631:1 715:1 1102:1 1125:1 1230:1 1254:1 1302:1 1319:1 1338:1 1340:1 1361:1 1368:1 1398:8
1 457:1 1252:1 1398:4
1 175:1 631:1 1254:1 1368:1 1398:2
1 631:1 1368:1 1398:5
1 218:1 231:1 288:1 318:1 344:1 535:1 631:1 709:1 975:1 1090:1 1180:1 1182:1 1218:1 1225:1 1277:1 1288:1 1299:1 1308:1 1338:1 1352:1 1363:1 1368:1 1376:1 1379:1 1398:2
1 631:1 1368:1 1398:6
1 241:1 631:1 951:1 1302:1 1368:1 1392:1 1398:2
1 631:1 1368:1 1398:4
1 159:1 175:1 233:1 241:1 288:2 551:1 558:1 623:2 631:6 635:1 706:1 715:3 853:1 1102:2 1125:1 1175:1 1221:1 1230:3 1245:1 1254:1 1293:1 1302:1 1319:2 1322:1 1330:1 1333:1 1338:2 1340:1 1361:2 1368:6 1370:1 1374:1 1398:6
1 631:1 1368:1 1398:6
1 241:1 288:1 336:1 528:1 623:1 631:1 715:1 829:1 849:1 864:1 888:1 1057:1 1095:1 1102:1 1230:1 1274:1 1289:1 1302:1 1314:1 1315:1 1319:1 1329:1 1338:1 1342:1 1351:1 1358:1 1361:1 1368:1 1398:4
1 175:1 241:1 288:1 623:1 631:1 635:1 1102:1 1254:1 1302:1 1319:1 1338:1 1361:1 1368:1 1370:1 1398:4
1 457:1 1252:1 1398:5
1 631:1 1368:1 1398:6
1 631:1 1102:1 1319:1 1368:1 1398:3
1 175:1 241:1 288:1 623:1 631:1 635:1 1102:1 1125:1 1254:1 1302:1 1319:1 1338:1 1340:1 1361:1 1368:1 1370:1 1398:3
1 457:1 1252:1 1398:4
1 288:1 631:1 1338:1 1368:1 1398:2
1 631:1 1368:1 1398:3
1 175:1 241:1 288:1 623:1 631:1 635:1 1102:1 1254:1 1302:1 1319:1 1338:1 1361:1 1368:1 1370:1 1398:4
1 631:1 1368:1 1398:4
1 631:1 1368:1 1398:6
1 241:1 288:1 336:1 528:1 623:1 631:1 715:1 829:1 864:1 888:1 1057:1 1095:1 1102:1 1230:1 1274:1 1289:1 1302:1 1314:1 1315:1 1319:1 1338:1 1342:1 1351:1 1358:1 1361:1 1368:1 1398:4
1 631:1 1368:1 1398:4
1 631:1 1368:1 1398:6
1 175:1 241:1 288:1 623:1 631:1 635:1 1102:1 1125:1 1254:1 1302:1 1319:1 1338:1 1340:1 1361:1 1368:1 1370:1 1398:4
1 631:1 1368:1 1398:3
1 631:1 1368:1 1398:3
1 631:1 1368:1 1398:4
1 631:1 1368:1 1398:6
1 175:1 241:1 288:1 616:1 623:1 631:1 635:1 706:1 710:1 715:1 829:1 1102:1 1125:1 1175:1 1221:1 1226:1 1230:1 1254:1 1302:1 1314:1 1319:1 1338:1 1340:1 1359:1 1361:1 1368:1 1370:1 1374:1 1398:2
1 631:1 1368:1 1398:5
1 631:1 827:1 1102:1 1311:1 1319:1 1368:1 1398:4
1 558:1 631:1 1330:1 1368:1 1398:3
1 631:1 1368:1 1398:5
1 631:1 1368:1 1398:6
1 1398:2
1 631:1 1368:1 1398:7
1 457:1 1252:1 1398:5
1 631:1 1368:1 1398:4
1 175:1 241:2 288:2 623:3 631:4 635:2 636:1 706:1 715:4 853:1 1102:2 1125:1 1221:1 1230:4 1254:1 1302:2 1319:2 1333:1 1338:2 1340:1 1361:3 1368:4 1370:2 1372:1 1398:6
1 631:1 1102:1 1319:1 1368:1 1398:4
1 631:1 1368:1 1398:5
1 631:1 1368:1 1398:6
1 631:1 1102:1 1319:1 1368:1 1398:1
1 457:1 1252:1 1398:5
1 631:1 1368:1 1398:5
1 457:1 1252:1 1398:5
1 631:1 1368:1 1398:4
1 631:1 1368:1 1398:5
1 631:1 1368:1 1398:6
1 631:1 1368:1 1398:4
1 631:1 1368:1 1398:6
1 175:1 241:1 288:1 623:1 631:1 635:1 1102:1 1254:1 1302:1 1319:1 1338:1 1361:1 1368:1 1370:1 1398:3
1 631:1 1368:1 1398:7
1 631:1 1368:1 1398:6
1 631:1 1368:1 1398:5
1 623:1 631:1 1361:1 1368:1 1398:5
1 631:1 1368:1 1398:6
1 631:1 1368:1 1398:7
1 631:1 1368:1 1398:6
1 528:1 631:1 1289:1 1368:1 1398:6
1 631:1 1368:1 1398:6
1 631:1 1368:1 1398:5
1 631:1 1368:1 1398:6
1 631:1 1368:1 1398:6
1 218:1 241:1 288:1 318:1 512:1 535:1 623:1 631:1 649:1 709:1 715:1 945:1 975:1 1018:1 1090:1 1102:1 1182:1 1218:1 1225:1 1230:1 1248:1 1277:1 1280:1 1299:1 1302:1 1308:1 1319:1 1338:1 1352:1 1361:1 1368:1 1379:1 1382:1 1388:1 1398:3 1400:5
1 631:1 1368:1 1398:6
1 631:1 1368:1 1398:6
1 457:1 1252:1 1398:5
1 175:1 241:1 288:1 336:1 344:1 528:1 623:1 631:2 635:1 715:2 1102:1 1125:1 1230:2 1254:1 1289:1 1302:1 1319:1 1338:1 1340:1 1358:1 1361:1 1363:1 1368:2 1370:1 1398:12 1400:2
1 631:1 1368:1 1398:5
1 631:1 1368:1 1398:6
1 631:1 1368:1 1398:6
1 631:1 1368:1 1398:4
1 631:1 1368:1 1398:3
1 175:1 241:1 288:1 569:1 623:1 631:1 715:1 1102:1 1125:1 1230:1 1254:1 1302:1 1319:1 1337:1 1338:1 1340:1 1361:1 1368:1 1398:1
1 457:1 1252:1 1398:5
1 631:1 1102:1 1319:1 1368:1 1398:5
1 631:1 1368:1 1398:4
1 631:1 1102:1 1319:1 1368:1 1398:4
1 175:1 241:1 288:1 631:1 715:1 1102:1 1230:1 1254:1 1302:1 1319:1 1338:1 1368:1 1398:2
1 457:1 1252:1 1398:5
1 631:1 1368:1 1398:6
1 631:1 1368:1 1398:6
1 623:1 631:1 1361:1 1368:1 1398:3
1 457:1 1252:1 1398:4
1 631:1 1368:1 1398:5
1 631:1 1368:1 1398:6
1 631:1 1368:1 1398:3
1 631:1 1368:1 1398:6
1 175:1 631:1 1102:1 1254:1 1319:1 1368:1 1398:2
1 241:1 288:1 336:1 528:1 623:1 631:1 715:1 829:1 849:1 864:1 888:1 1057:1 1095:1 1102:1 1230:1 1274:1 1289:1 1302:1 1314:1 1315:1 1319:1 1329:1 1338:1 1342:1 1351:1 1358:1 1361:1 1368:1 1398:4
1 623:1 631:1 1361:1 1368:1 1398:5
1 631:1 1368:1 1398:7
1 631:1 1368:1 1398:6
1 631:1 1368:1 1398:5
1 288:1 623:1 631:1 713:1 1102:1 1228:1 1319:1 1338:1 1361:1 1368:1 1398:4
1 631:1 1368:1 1398:7
1 241:1 288:1 336:1 528:1 623:1 631:1 715:1 829:1 849:1 864:1 888:1 1057:1 1095:1 1102:1 1230:1 1274:1 1289:1 1302:1 1314:1 1315:1 1319:1 1329:1 1338:1 1342:1 1351:1 1358:1 1361:1 1368:1 1398:4
1 631:1 715:1 758:1 1230:1 1261:1 1368:1 1398:2
1 175:1 241:1 288:1 344:1 528:1 623:1 631:2 635:1 706:1 715:2 722:1 911:1 1057:1 1102:1 1125:1 1175:1 1221:1 1230:2 1239:1 1254:1 1274:1 1289:1 1302:1 1319:1 1338:1 1340:1 1361:1 1362:1 1363:1 1368:2 1370:1 1374:1 1398:12 1400:1
1 631:1 1368:1 1398:6
1 631:1 1102:1 1319:1 1368:1 1398:2
1 175:1 241:1 288:1 623:1 631:1 715:1 1102:1 1125:1 1230:1 1254:1 1302:1 1319:1 1338:1 1340:1 1361:1 1368:1 1398:9
1 631:1 1368:1 1398:4
1 175:1 241:1 288:1 344:1 623:1 631:1 635:1 706:1 715:1 804:1 828:1 1102:1 1125:1 1221:1 1230:1 1254:1 1285:1 1302:1 1312:1 1319:1 1338:1 1340:1 1361:1 1363:1 1368:1 1370:1 1398:3 1400:2185
1 175:1 528:1 631:1 827:1 1102:1 1254:1 1289:1 1311:1 1319:1 1368:1 1398:4
1 175:1 241:1 288:1 551:1 623:1 631:1 635:1 706:1 715:1 1102:1 1125:1 1175:1 1221:1 1230:1 1254:1 1302:1 1319:1 1322:1 1338:1 1340:1 1361:1 1368:1 1370:1 1374:1 1398:3
1 631:1 1368:1 1398:5
1 457:1 1252:1 1398:6
1 631:1 1368:1 1398:4
1 175:1 241:1 288:1 528:1 623:1 631:1 635:1 706:1 715:1 829:1 911:1 1102:1 1125:1 1221:1 1230:1 1254:1 1289:1 1302:1 1314:1 1319:1 1338:1 1340:1 1361:1 1362:1 1368:1 1370:1 1398:3 1400:3
1 631:1 1368:1 1398:3
1 631:1 1368:1 1398:6
1 175:1 241:1 288:1 623:1 631:1 715:1 1102:1 1125:1 1230:1 1254:1 1302:1 1319:1 1338:1 1340:1 1361:1 1368:1 1398:8
1 457:1 1252:1 1398:5
1 631:1 1368:1 1398:6
1 528:1 623:1 631:1 635:1 1102:1 1289:1 1319:1 1361:1 1368:1 1370:1 1398:3
1 175:1 241:1 288:1 623:1 631:1 715:1 1102:1 1125:1 1230:1 1254:1 1302:1 1319:1 1338:1 1340:1 1361:1 1368:1 1398:8
1 631:1 1368:1 1398:5
1 631:1 1368:1 1398:6
1 175:1 241:1 288:1 344:1 551:1 616:1 623:1 631:1 635:1 706:1 715:1 722:1 853:1 864:1 1080:1 1102:1 1125:1 1175:1 1221:1 1230:1 1239:1 1254:1 1295:1 1302:1 1319:1 1322:1 1333:1 1338:1 1340:1 1342:1 1359:1 1361:1 1363:1 1368:1 1370:1 1374:1 1398:3
1 631:1 1368:1 1398:5
1 175:1 241:2 256:1 288:1 623:2 631:7 635:1 636:1 706:1 715:3 1102:2 1125:1 1175:1 1221:1 1230:3 1254:1 1302:2 1316:1 1319:2 1338:1 1340:1 1361:2 1368:7 1370:1 1372:1 1374:1 1398:5
1 631:1 1368:1 1398:5
1 631:1 1368:1 1398:6
1 631:1 1368:1 1398:6
1 631:1 1102:1 1319:1 1368:1 1398:2
1 631:1 1368:1 1398:5
1 175:1 241:1 288:1 623:1 631:1 635:1 1102:1 1125:1 1254:1 1302:1 1319:1 1338:1 1340:1 1361:1 1368:1 1370:1 1398:5
1 631:1 1368:1 1398:5
1 623:1 631:1 1102:1 1319:1 1361:1 1368:1 1398:2
1 288:1 631:1 1102:1 1319:1 1338:1 1368:1 1398:3
1 241:1 288:1 336:1 528:1 623:1 631:1 715:1 829:1 849:1 864:1 888:1 1057:1 1095:1 1102:1 1230:1 1274:1 1289:1 1302:1 1314:1 1315:1 1319:1 1329:1 1338:1 1342:1 1351:1 1358:1 1361:1 1368:1 1398:4
1 175:1 241:1 288:1 623:1 631:1 715:1 1102:1 1125:1 1230:1 1254:1 1302:1 1319:1 1338:1 1340:1 1361:1 1368:1 1398:8
1 175:1 241:1 288:1 623:1 631:1 635:1 1102:1 1125:1 1254:1 1302:1 1319:1 1338:1 1340:1 1361:1 1368:1 1370:1 1398:3
1 631:1 1368:1 1398:3
1 631:1 1368:1 1398:6
1 631:1 1368:1 1398:6
1 241:1 288:1 336:1 528:1 623:1 631:1 715:1 829:1 849:1 864:1 888:1 1057:1 1095:1 1102:1 1230:1 1274:1 1289:1 1302:1 1314:1 1315:1 1319:1 1329:1 1338:1 1342:1 1351:1 1358:1 1361:1 1368:1 1398:4
1 631:1 1368:1 1398:5
1 631:1 1368:1 1398:5
1 631:1 1368:1 1398:3
1 631:1 1368:1 1398:7
1 631:1 1368:1 1398:3
1 631:1 1368:1 1398:3
1 631:1 1368:1 1398:7
1 175:1 241:1 288:1 623:1 631:1 635:1 1102:1 1125:1 1254:1 1302:1 1319:1 1338:1 1340:1 1361:1 1368:1 1370:1 1398:4
1 631:1 1102:1 1319:1 1368:1 1398:3
1 631:1 1368:1 1398:5
1 623:3 631:4 635:1 715:1 1102:2 1230:1 1319:2 1361:3 1368:4 1370:1 1398:5
1 631:1 1368:1 1398:6
1 631:1 1368:1 1398:6
1 631:1 1368:1 1398:4
1 631:1 1368:1 1398:3
1 631:1 1368:1 1398:7
1 175:1 241:1 256:1 288:1 344:1 365:1 616:1 623:1 631:1 635:1 706:1 715:1 758:1 829:1 1079:1 1080:1 1102:1 1125:1 1221:1 1230:1 1254:1 1261:1 1294:1 1295:1 1302:1 1314:1 1316:1 1319:1 1338:1 1340:1 1359:1 1361:1 1363:1 1368:1 1370:1 1384:1 1398:3
1 175:1 631:1 1254:1 1368:1 1398:2
1 175:1 241:1 288:1 623:1 631:1 635:1 1102:1 1254:1 1302:1 1319:1 1338:1 1361:1 1368:1 1370:1 1398:4
1 631:1 1368:1 1398:5
1 457:1 1252:1 1398:5
1 631:1 1368:1 1398:6
1 631:1 1368:1 1398:3
1 631:1 1368:1 1398:6
1 631:1 1102:1 1319:1 1368:1 1398:3
1 631:1 1368:1 1398:3
1 175:1 241:1 288:1 623:1 631:1 635:1 1102:1 1125:1 1254:1 1302:1 1319:1 1338:1 1340:1 1361:1 1368:1 1370:1 1398:4
1 175:1 241:1 288:1 623:1 631:1 715:1 1102:1 1125:1 1230:1 1254:1 1302:1 1319:1 1338:1 1340:1 1361:1 1368:1 1398:8
1 631:1 1368:1 1398:6
1 175:1 241:1 288:1 623:1 631:1 635:1 1102:1 1125:1 1254:1 1302:1 1319:1 1338:1 1340:1 1361:1 1368:1 1370:1 1398:5
1 175:1 241:1 288:1 623:1 631:1 635:1 1102:1 1125:1 1254:1 1302:1 1319:1 1338:1 1340:1 1361:1 1368:1 1370:1 1398:5
1 631:1 1368:1 1398:6
1 631:1 1368:1 1398:5
1 631:1 1368:1 1398:6
1 175:1 241:1 288:1 623:1 631:1 635:1 1102:1 1254:1 1302:1 1319:1 1338:1 1361:1 1368:1 1370:1 1398:3
1 631:1 1368:1 1398:5
1 631:1 1368:1 1398:4
1 631:1 1368:1 1398:6
1 175:1 241:1 288:1 528:1 631:1 635:1 715:1 1102:1 1230:1 1254:1 1289:1 1302:1 1319:1 1338:1 1368:1 1370:1 1398:2
1 175:1 241:1 288:1 631:1 715:1 1102:1 1230:1 1254:1 1302:1 1319:1 1338:1 1368:1 1398:2
1 175:1 241:1 288:1 623:1 631:3 635:1 715:1 853:1 1102:2 1230:1 1254:1 1302:1 1319:2 1333:1 1338:1 1361:1 1368:3 1370:1 1398:7
1 631:1 1368:1 1398:6
1 457:1 1252:1 1398:5
1 631:1 1368:1 1398:6
1 457:1 1252:1 1398:4
1 175:1 288:1 631:1 715:1 716:1 1102:1 1181:1 1230:1 1231:1 1254:1 1319:1 1338:1 1368:1 1380:1 1398:2
1 457:1 1252:1 1398:5
1 457:1 1252:1 1398:5
1 1398:3
1 623:1 631:1 635:1 715:1 1102:1 1230:1 1319:1 1361:1 1368:1 1370:1 1398:4 1400:2
1 631:1 1368:1 1398:6
1 175:1 241:1 288:1 623:1 631:1 635:1 706:1 715:1 853:1 911:1 1102:1 1125:1 1221:1 1230:1 1254:1 1302:1 1319:1 1333:1 1338:1 1340:1 1361:1 1362:1 1368:1 1370:1 1398:5 1400:3
1 631:1 1368:1 1398:5
1 631:1 1368:1 1398:6
1 631:1 1368:1 1398:4
1 631:1 1368:1 1398:7
1 631:1 1368:1 1398:6
1 175:1 631:1 1254:1 1368:1 1398:3
1 631:1 1102:1 1319:1 1368:1 1398:5
1 175:1 241:1 288:1 623:1 631:1 715:1 1102:1 1125:1 1230:1 1254:1 1302:1 1319:1 1338:1 1340:1 1361:1 1368:1 1398:8
1 631:1 1368:1 1398:5
1 631:1 1368:1 1398:6
1 631:1 1368:1 1398:6
1 288:1 528:1 623:1 631:1 1102:1 1289:1 1319:1 1338:1 1361:1 1368:1 1398:5 1400:4
1 288:1 631:1 1102:1 1319:1 1338:1 1368:1 1398:3
1 631:1 1368:1 1398:5
1 631:1 1368:1 1398:5
1 175:1 288:1 344:1 623:1 631:1 758:1 1102:1 1254:1 1261:1 1319:1 1338:1 1361:1 1363:1 1368:1 1398:2
1 631:1 1368:1 1398:5
1 631:1 1368:1 1398:5
1 175:1 241:1 288:1 623:1 631:1 635:1 1102:1 1125:1 1254:1 1302:1 1319:1 1338:1 1340:1 1361:1 1368:1 1370:1 1398:4
1 631:1 1368:1 1398:6
1 631:1 1368:1 1398:5
1 175:1 241:1 288:1 631:1 715:1 1102:1 1230:1 1254:1 1302:1 1319:1 1338:1 1368:1 1398:2
1 631:1 1368:1 1398:3
1 631:1 1368:1 1398:5
1 631:1 1368:1 1398:6
1 457:1 1252:1 1398:4
1 631:1 1368:1 1398:6
1 175:1 241:1 288:1 623:1 631:1 715:1 1102:1 1125:1 1230:1 1254:1 1302:1 1319:1 1338:1 1340:1 1361:1 1368:1 1398:8
1 631:1 1368:1 1398:5
1 631:1 1368:1 1398:7
1 175:1 241:1 288:1 623:1 631:1 715:1 1102:1 1125:1 1230:1 1254:1 1302:1 1319:1 1338:1 1340:1 1361:1 1368:1 1398:8
1 631:1 1368:1 1398:6
1 631:1 1368:1 1398:6
1 175:1 241:1 288:1 623:1 631:1 715:1 1102:1 1125:1 1230:1 1254:1 1302:1 1319:1 1338:1 1340:1 1361:1 1368:1 1398:8
1 175:1 241:1 288:1 631:1 715:1 1102:1 1230:1 1254:1 1302:1 1319:1 1338:1 1368:1 1398:2
1 631:1 1368:1 1398:6
1 631:1 1368:1 1398:7
1 631:1 1368:1 1398:7
1 288:1 623:1 631:1 1102:1 1319:1 1338:1 1361:1 1368:1 1398:2
1 631:1 1368:1 1398:2
1 631:1 1368:1 1398:5
1 631:1 1368:1 1398:7
1 631:1 1368:1 1398:6
1 1398:3
1 1398:2
1 631:1 1368:1 1398:6
1 631:1 1368:1 1398:6
1 631:1 1368:1 1398:5
1 631:1 1368:1 1398:5
1 631:1 1368:1 1398:5
1 175:1 631:1 1254:1 1368:1 1398:4
1 631:1 1368:1 1398:5
1 457:1 1252:1 1398:5
1 631:1 1368:1 1398:4
1 631:1 1368:1 1398:4
1 631:1 1368:1 1398:5
1 175:1 623:1 631:1 1254:1 1361:1 1368:1 1398:3
1 631:1 1368:1 1398:5
1 631:1 1102:1 1319:1 1368:1 1398:4
1 631:1 1102:1 1319:1 1368:1 1398:4
1 631:1 1368:1 1398:6
1 457:1 1252:1 1398:3
1 175:1 241:1 288:1 623:1 631:1 715:1 1102:1 1125:1 1230:1 1254:1 1302:1 1319:1 1338:1 1340:1 1361:1 1368:1 1398:8
1 631:1 1368:1 1398:4
1 631:1 1368:1 1398:7
1 175:1 241:1 288:1 623:1 631:1 635:1 636:1 706:1 715:1 828:1 1102:1 1125:1 1221:1 1230:1 1254:1 1302:1 1312:1 1319:1 1338:1 1340:1 1361:1 1368:1 1370:1 1372:1 1398:4 1400:41
1 457:1 1252:1 1398:5
1 175:1 241:1 631:1 715:1 1102:1 1230:1 1254:1 1302:1 1319:1 1368:1 1398:2
1 631:1 1368:1 1398:7
1 631:1 1368:1 1398:6
1 631:1 1368:1 1398:4
1 218:1 318:1 512:1 535:1 623:1 631:1 649:1 709:1 713:1 722:1 782:1 945:1 951:1 1018:1 1079:1 1080:1 1083:1 1125:1 1180:1 1182:1 1225:1 1228:1 1239:1 1248:1 1271:1 1277:1 1280:1 1294:1 1295:1 1298:1 1299:1 1340:1 1352:1 1361:1 1365:1 1368:1 1376:1 1379:1 1382:1 1388:1 1392:1 1398:1 1400:30
1 631:1 1368:1 1398:4
1 631:1 1368:1 1398:6
1 175:1 631:1 1254:1 1368:1 1398:2
1 631:1 1368:1 1398:5
1 631:1 1368:1 1398:6
1 457:1 1252:1 1398:5
1 631:1 1368:1 1398:5
1 631:1 1368:1 1398:4
1 631:1 1368:1 1398:6
1 631:1 1368:1 1398:4
1 631:1 715:1 758:1 1230:1 1261:1 1368:1 1398:2
1 631:1 1368:1 1398:3
1 241:1 623:1 631:1 1102:1 1302:1 1319:1 1361:1 1368:1 1398:3
1 631:1 1368:1 1398:6
1 175:1 241:1 288:1 623:1 631:1 715:1 1102:1 1125:1 1230:1 1254:1 1302:1 1319:1 1338:1 1340:1 1361:1 1368:1 1398:8
1 457:1 1252:1 1398:5
1 631:1 1368:1 1398:7
1 175:1 241:1 288:1 623:1 631:1 715:1 1102:1 1125:1 1230:1 1254:1 1302:1 1319:1 1338:1 1340:1 1361:1 1368:1 1398:8
1 175:1 241:1 288:1 623:1 631:1 635:1 1102:1 1125:1 1254:1 1302:1 1319:1 1338:1 1340:1 1361:1 1368:1 1370:1 1398:4
1 1398:2
1 631:1 1102:1 1319:1 1368:1 1398:4
1 631:1 1368:1 1398:6
1 631:1 1368:1 1398:5
1 631:1 1368:1 1398:6
1 631:1 1368:1 1398:6
1 631:1 1368:1 1398:4
1 175:1 241:1 256:1 288:1 558:1 616:1 623:1 631:1 635:1 636:1 706:1 715:1 758:1 829:1 864:1 1057:1 1079:1 1102:1 1125:1 1175:1 1221:1 1230:1 1254:1 1261:1 1274:1 1294:1 1302:1 1314:1 1316:1 1319:1 1330:1 1338:1 1340:1 1342:1 1359:1 1361:1 1368:1 1370:1 1372:1 1374:1 1398:2
1 631:1 1368:1 1398:3
1 1398:3
1 528:1 631:1 1102:1 1289:1 1319:1 1368:1 1398:7
1 175:1 241:1 288:1 623:1 631:1 715:1 1102:1 1125:1 1230:1 1254:1 1302:1 1319:1 1338:1 1340:1 1361:1 1368:1 1398:8
1 623:1 631:1 1361:1 1368:1 1398:4
1 175:1 241:1 288:1 623:1 631:1 635:1 1102:1 1125:1 1254:1 1302:1 1319:1 1338:1 1340:1 1361:1 1368:1 1370:1 1398:3
1 457:1 1252:1 1398:6
1 175:1 241:1 288:1 623:1 631:1 635:1 1102:1 1125:1 1254:1 1302:1 1319:1 1338:1 1340:1 1361:1 1368:1 1370:1 1398:4
1 175:1 223:1 241:1 288:1 311:1 336:1 368:1 453:1 484:1 528:1 623:1 631:1 635:1 713:1 715:1 742:1 782:1 829:1 832:1 911:1 1083:1 1093:1 1102:1 1125:1 1228:1 1230:1 1251:1 1253:1 1254:1 1262:1 1271:1 1282:1 1289:1 1298:1 1302:1 1313:1 1314:1 1319:1 1320:1 1338:1 1340:1 1349:1 1358:1 1361:1 1362:1 1368:1 1370:1 1386:1 1398:3
1 631:1 1368:1 1398:6
1 354:1 616:1 623:1 631:1 713:1 722:1 1079:1 1080:1 1102:1 1150:1 1175:1 1228:1 1239:1 1294:1 1295:1 1319:1 1350:1 1359:1 1361:1 1368:1 1369:1 1374:1 1398:2 1400:17293
1 631:1 1368:1 1398:7
1 175:1 241:1 288:1 631:1 715:1 1102:1 1230:1 1254:1 1302:1 1319:1 1338:1 1368:1 1398:2
1 631:1 1368:1 1398:5
1 175:1 241:1 256:1 288:1 558:1 623:1 631:1 635:1 636:1 706:1 715:1 758:1 829:1 1057:1 1102:1 1175:1 1221:1 1230:1 1254:1 1261:1 1274:1 1302:1 1314:1 1316:1 1319:1 1330:1 1338:1 1361:1 1368:1 1370:1 1372:1 1374:1 1398:3
1 631:1 1102:1 1319:1 1368:1 1398:4
1 631:1 1368:1 1398:6
1 631:1 1368:1 1398:5
1 631:1 1368:1 1398:6
1 457:1 1252:1 1398:5
1 457:1 1252:1 1398:5
1 631:1 1368:1 1398:6
1 631:1 1368:1 1398:6
1 631:1 1368:1 1398:5
1 631:1 1368:1 1398:6
1 631:1 1368:1 1398:6
1 631:1 1368:1 1398:4
1 175:1 241:1 256:1 288:1 344:1 365:1 616:1 623:1 631:1 635:1 706:1 715:1 758:1 829:1 1079:1 1080:1 1102:1 1125:1 1221:1 1230:1 1254:1 1261:1 1294:1 1295:1 1302:1 1314:1 1316:1 1319:1 1338:1 1340:1 1359:1 1361:1 1363:1 1368:1 1370:1 1384:1 1398:3
1 631:1 1368:1 1398:7
1 631:1 1368:1 1398:6
1 631:1 1368:1 1398:3
1 631:1 1368:1 1398:4
1 631:1 1368:1 1398:3
1 175:1 241:1 288:1 623:1 631:1 635:1 1102:1 1125:1 1254:1 1302:1 1319:1 1338:1 1340:1 1361:1 1368:1 1370:1 1398:3
1 631:1 1102:1 1319:1 1368:1 1398:5
1 631:1 1368:1 1398:5
1 457:1 1252:1 1398:4
1 175:1 241:1 288:1 623:1 631:1 635:1 1102:1 1125:1 1254:1 1302:1 1319:1 1338:1 1340:1 1361:1 1368:1 1370:1 1398:4
1 175:1 241:1 288:1 623:1 631:1 635:1 1102:1 1254:1 1302:1 1319:1 1338:1 1361:1 1368:1 1370:1 1398:4
1 631:1 1368:1 1398:6
1 175:1 241:1 288:1 623:1 631:1 635:1 1102:1 1254:1 1302:1 1319:1 1338:1 1361:1 1368:1 1370:1 1398:4
1 175:1 241:2 288:2 623:3 631:4 635:2 636:1 706:1 715:4 853:1 1102:2 1125:1 1221:1 1230:4 1254:1 1302:2 1319:2 1333:1 1338:2 1340:1 1361:3 1368:4 1370:2 1372:1 1398:6
1 631:1 1102:1 1319:1 1368:1 1398:2
1 631:1 1368:1 1398:7
1 631:1 1368:1 1398:6
1 631:1 1368:1 1398:6
1 631:1 1368:1 1398:6
1 631:1 1102:1 1319:1 1368:1 1398:4
1 1398:2
1 175:1 241:1 288:1 514:1 623:1 631:1 635:1 636:1 694:1 706:1 713:1 715:1 758:1 829:1 864:1 1057:1 1102:1 1175:1 1220:1 1221:1 1228:1 1230:1 1254:1 1261:1 1274:1 1279:1 1302:1 1314:1 1319:1 1338:1 1342:1 1361:1 1368:1 1370:1 1372:1 1374:1 1398:5
1 175:1 631:1 1102:1 1254:1 1319:1 1368:1 1398:3
1 631:1 1368:1 1398:5
1 631:1 1368:1 1398:6
1 175:1 241:1 288:1 631:1 715:1 1102:1 1230:1 1254:1 1302:1 1319:1 1338:1 1368:1 1398:2
1 631:1 1368:1 1398:6
1 631:1 1368:1 1398:5
1 631:1 1368:1 1398:6
1 175:1 241:1 288:1 354:1 558:1 623:1 631:1 635:1 713:1 715:1 758:1 829:1 864:1 951:1 1057:1 1079:1 1102:1 1175:1 1228:1 1230:1 1254:1 1261:1 1274:1 1294:1 1302:1 1314:1 1319:1 1330:1 1338:1 1342:1 1361:1 1368:1 1369:1 1370:1 1374:1 1392:1 1398:1
1 175:1 241:1 288:1 623:1 631:1 635:1 1102:1 1125:1 1254:1 1302:1 1319:1 1338:1 1340:1 1361:1 1368:1 1370:1 1398:4
1 631:1 1368:1 1398:4
1 631:1 1102:1 1319:1 1368:1 1398:3
1 175:1 241:1 288:1 623:1 631:1 635:1 1102:1 1125:1 1254:1 1302:1 1319:1 1338:1 1340:1 1361:1 1368:1 1370:1 1398:3
1 631:1 1368:1 1398:7
1 175:1 241:1 256:1 288:1 344:1 558:1 623:1 631:1 636:1 694:1 706:1 713:1 715:1 758:1 790:1 804:1 829:1 864:1 1057:1 1102:1 1125:1 1175:1 1220:1 1221:1 1228:1 1230:1 1254:1 1261:1 1274:1 1275:1 1285:1 1302:1 1314:1 1316:1 1319:1 1330:1 1338:1 1340:1 1342:1 1361:1 1363:1 1368:1 1372:1 1374:1 1398:3
1 631:1 1368:1 1398:6
1 631:1 1368:1 1398:6
1 631:1 1368:1 1398:6
1 175:1 241:1 288:1 344:1 551:1 616:1 623:1 631:1 635:1 706:1 715:1 722:1 853:1 864:1 1080:1 1102:1 1125:1 1175:1 1221:1 1230:1 1239:1 1254:1 1295:1 1302:1 1319:1 1322:1 1333:1 1338:1 1340:1 1342:1 1359:1 1361:1 1363:1 1368:1 1370:1 1374:1 1398:3
1 175:1 241:1 288:1 528:1 616:1 623:1 631:1 713:1 1079:1 1102:1 1175:1 1228:1 1254:1 1289:1 1294:1 1302:1 1319:1 1338:1 1359:1 1361:1 1368:1 1374:1 1398:7 1400:34
1 631:1 1368:1 1398:6
1 457:1 1252:1 1398:6
1 631:1 1368:1 1398:5
1 631:1 1368:1 1398:5
1 457:1 1252:1 1398:4
1 631:1 1368:1 1398:6
1 631:1 1368:1 1398:6
1 631:1 1368:1 1398:4
1 631:1 1368:1 1398:6
1 175:1 241:1 288:1 631:1 715:1 1102:1 1230:1 1254:1 1302:1 1319:1 1338:1 1368:1 1398:2
1 631:1 1368:1 1398:6
1 631:1 1368:1 1398:2
1 457:1 1252:1 1398:4
1 631:1 1368:1 1398:6
1 631:1 1368:1 1398:5
1 631:1 1368:1 1398:4
1 631:1 1368:1 1398:3
1 175:1 631:1 951:1 1102:1 1254:1 1319:1 1368:1 1392:1 1398:3
1 631:1 1368:1 1398:5
1 175:1 223:1 241:1 288:1 311:1 336:1 368:1 453:1 484:1 528:1 623:1 631:1 635:1 713:1 715:1 742:1 782:1 829:1 832:1 911:1 1083:1 1093:1 1102:1 1125:1 1228:1 1230:1 1251:1 1253:1 1254:1 1262:1 1271:1 1282:1 1289:1 1298:1 1302:1 1313:1 1314:1 1319:1 1320:1 1338:1 1340:1 1349:1 1358:1 1361:1 1362:1 1368:1 1370:1 1386:1 1398:3
1 631:1 1368:1 1398:7
1 1398:2
1 457:1 1252:1 1398:4
1 175:1 241:1 288:1 623:1 631:1 635:1 1102:1 1125:1 1254:1 1302:1 1319:1 1338:1 1340:1 1361:1 1368:1 1370:1 1398:4
1 631:1 1368:1 1398:6
1 1398:2
1 175:1 241:1 288:1 623:1 631:1 635:1 1102:1 1125:1 1254:1 1302:1 1319:1 1338:1 1340:1 1361:1 1368:1 1370:1 1398:3
1 631:1 1368:1 1398:7
1 457:1 1252:1 1398:5
1 175:1 241:1 288:1 344:1 528:1 551:1 623:1 631:1 635:1 706:1 715:1 829:1 849:1 853:1 951:1 1080:1 1102:1 1125:1 1175:1 1221:1 1230:1 1254:1 1289:1 1295:1 1302:1 1314:1 1319:1 1322:1 1329:1 1333:1 1338:1 1340:1 1361:1 1363:1 1368:1 1370:1 1374:1 1392:1 1398:5 1400:3
1 457:1 1252:1 1398:5
1 631:1 1368:1 1398:5
1 631:1 1368:1 1398:6
1 631:1 1368:1 1398:6
1 631:1 1368:1 1398:7
1 175:1 241:1 288:1 623:1 631:1 635:1 1102:1 1125:1 1254:1 1302:1 1319:1 1338:1 1340:1 1361:1 1368:1 1370:1 1398:3
1 631:1 1368:1 1398:6
1 631:1 1368:1 1398:6
1 631:1 1368:1 1398:6
1 631:1 1368:1 1398:6
1 175:1 241:1 256:1 288:1 344:1 558:1 623:1 631:1 636:1 694:1 706:1 713:1 715:1 758:1 829:1 864:1 1057:1 1102:1 1220:1 1221:1 1228:1 1230:1 1254:1 1261:1 1274:1 1302:1 1314:1 1316:1 1319:1 1330:1 1338:1 1342:1 1361:1 1363:1 1368:1 1372:1 1398:4
1 631:1 1368:1 1398:6
1 175:1 241:1 288:1 623:1 631:1 635:1 1102:1 1254:1 1302:1 1319:1 1338:1 1361:1 1368:1 1370:1 1398:4
1 631:1 1368:1 1398:5
1 631:1 1368:1 1398:5
1 175:1 241:1 623:2 631:4 635:1 715:3 1102:2 1125:1 1230:3 1254:1 1302:1 1319:2 1340:1 1361:2 1368:4 1370:1 1398:7
1 631:1 1368:1 1398:4
1 457:1 1252:1 1398:6
1 175:1 241:1 288:1 623:1 631:1 635:1 1102:1 1125:1 1254:1 1302:1 1319:1 1338:1 1340:1 1361:1 1368:1 1370:1 1398:3
1 1398:3
1 175:1 241:1 288:1 631:1 715:1 1102:1 1230:1 1254:1 1302:1 1319:1 1338:1 1368:1 1398:2
1 631:1 1368:1 1398:6
1 175:1 241:1 288:1 623:1 631:1 635:1 706:1 715:1 829:1 853:1 911:1 1057:1 1079:1 1102:1 1125:1 1150:1 1221:1 1230:1 1254:1 1274:1 1294:1 1302:1 1314:1 1319:1 1333:1 1338:1 1340:1 1350:1 1361:1 1362:1 1368:1 1370:1 1398:3
1 631:1 1368:1 1398:4
1 631:1 1368:1 1398:6
1 631:1 1368:1 1398:6
1 631:1 1368:1 1398:3
1 175:1 241:1 256:1 288:1 344:1 558:1 623:1 631:1 636:1 694:1 706:1 713:1 715:1 758:1 829:1 864:1 1057:1 1102:1 1220:1 1221:1 1228:1 1230:1 1254:1 1261:1 1274:1 1302:1 1314:1 1316:1 1319:1 1330:1 1338:1 1342:1 1361:1 1363:1 1368:1 1372:1 1398:4
1 631:1 1368:1 1398:7
1 457:1 1252:1 1398:5
1 175:1 241:6 259:1 288:2 623:3 631:4 635:1 636:1 706:1 715:3 1102:2 1125:1 1175:1 1183:1 1221:1 1230:3 1254:1 1302:6 1317:1 1319:2 1338:2 1340:1 1361:3 1368:4 1370:1 1372:1 1374:1 1381:1 1398:7
1 631:1 1368:1 1398:6
1 631:1 1102:1 1319:1 1368:1 1398:3
1 631:1 1368:1 1398:4
1 631:1 1368:1 1398:5
1 175:1 241:1 288:1 623:1 631:1 635:1 1102:1 1254:1 1302:1 1319:1 1338:1 1361:1 1368:1 1370:1 1398:4
1 631:1 1368:1 1398:5
1 631:1 1368:1 1398:6
1 175:1 288:1 623:2 631:4 635:1 706:1 715:2 1102:2 1125:1 1221:1 1230:2 1254:1 1319:2 1338:1 1340:1 1361:2 1368:4 1370:1 1398:9
1 175:1 241:1 288:1 354:1 558:1 623:1 631:1 635:1 713:1 715:1 758:1 829:1 864:1 951:1 1057:1 1079:1 1102:1 1175:1 1228:1 1230:1 1254:1 1261:1 1274:1 1294:1 1302:1 1314:1 1319:1 1330:1 1338:1 1342:1 1361:1 1368:1 1369:1 1370:1 1374:1 1392:1 1398:2
1 175:1 631:1 1102:1 1254:1 1319:1 1368:1 1398:6
1 146:1 151:1 175:1 241:1 247:1 274:1 288:1 336:1 347:1 452:1 503:1 528:1 530:1 536:1 555:1 557:1 564:1 628:1 631:1 635:1 647:1 715:1 745:1 746:1 829:1 852:1 949:1 974:1 1031:1 1068:1 1088:1 1102:1 1162:1 1192:1 1217:1 1230:1 1236:1 1240:1 1250:1 1254:1 1255:1 1256:1 1257:1 1273:1 1284:1 1289:1 1290:1 1300:1 1302:1 1303:1 1310:1 1314:1 1319:1 1326:1 1327:1 1328:1 1332:1 1336:1 1338:1 1357:1 1358:1 1366:1 1367:1 1368:1 1370:1 1377:1 1385:1 1391:1 1398:5
1 175:1 241:1 288:1 623:1 631:1 635:1 1102:1 1125:1 1254:1 1302:1 1319:1 1338:1 1340:1 1361:1 1368:1 1370:1 1398:5
1 631:1 1368:1 1398:6
1 631:1 1102:1 1319:1 1368:1 1398:3
1 175:1 241:2 288:2 623:2 631:2 635:1 706:1 715:2 853:1 1102:2 1125:1 1221:1 1230:2 1254:1 1302:2 1319:2 1333:1 1338:2 1340:1 1361:2 1368:2 1370:1 1398:8
1 175:1 241:1 288:1 623:1 631:1 635:1 1102:1 1125:1 1254:1 1302:1 1319:1 1338:1 1340:1 1361:1 1368:1 1370:1 1398:4
1 631:1 1368:1 1398:6
1 175:1 241:1 256:1 288:1 336:1 344:1 453:1 495:1 551:1 623:1 631:1 635:1 636:1 713:1 715:1 722:1 758:1 829:1 832:1 853:1 864:1 911:1 951:1 1057:1 1079:1 1093:1 1102:1 1125:1 1150:1 1175:1 1228:1 1230:1 1239:1 1251:1 1254:1 1261:1 1269:1 1274:1 1294:1 1302:1 1313:1 1314:1 1316:1 1319:1 1320:1 1322:1 1333:1 1338:1 1340:1 1342:1 1350:1 1358:1 1361:1 1362:1 1363:1 1368:1 1370:1 1372:1 1374:1 1392:1 1398:3
1 631:1 1368:1 1398:4
1 631:1 1368:1 1398:6
1 457:1 1252:1 1398:4
1 631:1 1368:1 1398:5
1 175:1 241:1 288:1 623:1 631:1 635:1 1102:1 1254:1 1302:1 1319:1 1338:1 1361:1 1368:1 1370:1 1398:3
1 623:1 631:1 635:1 715:1 1102:1 1230:1 1319:1 1361:1 1368:1 1370:1 1398:4 1400:2
1 631:1 1368:1 1398:6
1 631:1 1368:1 1398:6
1 175:1 241:1 288:1 623:1 631:1 635:1 1102:1 1254:1 1302:1 1319:1 1338:1 1361:1 1368:1 1370:1 1398:4
1 175:1 528:1 623:1 631:1 827:1 1102:1 1125:1 1254:1 1289:1 1311:1 1319:1 1340:1 1343:1 1361:1 1368:1 1398:1
1 631:1 1368:1 1398:3
1 175:1 623:1 631:1 706:1 829:1 1102:1 1221:1 1254:1 1314:1 1319:1 1361:1 1368:1 1398:2 1400:432
1 175:1 241:1 288:1 623:1 631:1 635:1 1102:1 1125:1 1254:1 1302:1 1319:1 1338:1 1340:1 1361:1 1368:1 1370:1 1398:4
1 631:1 1368:1 1398:7
1 175:1 241:1 288:1 623:1 631:1 635:1 715:1 758:1 829:1 832:1 1102:1 1230:1 1254:1 1261:1 1302:1 1314:1 1319:1 1320:1 1338:1 1361:1 1368:1 1370:1 1398:2
1 631:1 1368:1 1398:6
1 1398:2
1 241:1 631:1 1302:1 1368:1 1398:6
1 175:1 241:1 288:1 623:1 631:1 635:1 706:1 715:1 828:1 951:1 1102:1 1125:1 1221:1 1230:1 1254:1 1302:1 1312:1 1319:1 1338:1 1340:1 1361:1 1368:1 1370:1 1392:1 1398:6 1400:5926
1 175:1 241:1 288:1 623:1 631:1 635:1 1102:1 1125:1 1254:1 1302:1 1319:1 1338:1 1340:1 1361:1 1368:1 1370:1 1398:4
1 175:1 241:1 288:1 623:1 631:1 715:1 1102:1 1125:1 1230:1 1254:1 1302:1 1319:1 1338:1 1340:1 1361:1 1368:1 1398:8
1 631:1 1368:1 1398:5
1 175:1 241:1 288:1 336:1 344:1 528:1 623:1 631:2 635:1 715:2 1102:1 1125:1 1230:2 1254:1 1289:1 1302:1 1319:1 1338:1 1340:1 1358:1 1361:1 1363:1 1368:2 1370:1 1398:12 1400:2
1 631:1 1368:1 1398:6
1 631:1 1368:1 1398:3
1 631:1 1368:1 1398:3
1 175:1 631:1 1102:1 1254:1 1319:1 1368:1 1398:3
1 623:1 631:1 1102:1 1319:1 1361:1 1368:1 1398:4
1 631:1 1368:1 1398:6
1 457:1 1252:1 1398:5
1 631:1 1368:1 1398:6
1 175:1 241:1 288:1 623:1 631:1 635:1 715:1 758:1 829:1 832:1 1102:1 1230:1 1254:1 1261:1 1302:1 1314:1 1319:1 1320:1 1338:1 1361:1 1368:1 1370:1 1398:2
1 631:1 1368:1 1398:6
1 631:1 1368:1 1398:6
1 631:1 1368:1 1398:6
1 457:1 1252:1 1398:5
1 631:1 1368:1 1398:5
1 631:1 1368:1 1398:6
1 631:1 1368:1 1398:6
1 175:1 631:1 1102:1 1254:1 1319:1 1368:1 1398:3
1 631:1 1368:1 1398:3
1 631:1 1368:1 1398:7
1 354:1 623:1 631:1 713:1 1102:1 1228:1 1319:1 1361:1 1368:1 1369:1 1398:4
1 457:1 1252:1 1398:5
1 631:1 1368:1 1398:6
1 631:1 1368:1 1398:6
1 631:1 1368:1 1398:5
1 631:1 1368:1 1398:5
1 631:1 1368:1 1398:6
1 631:1 1368:1 1398:6
1 631:1 1368:1 1398:5
1 631:1 1368:1 1398:6
1 631:1 1368:1 1398:6
1 623:1 631:1 849:1 1329:1 1361:1 1368:1 1398:2
1 1398:2
1 631:1 1368:1 1398:5
1 146:1 151:1 162:1 274:1 347:1 393:1 495:1 503:1 528:1 530:1 536:1 541:1 609:1 628:1 713:1 745:1 837:1 852:1 949:1 974:1 988:1 1068:1 1192:1 1214:1 1217:1 1223:1 1228:1 1236:1 1240:1 1247:1 1255:1 1263:1 1269:1 1273:1 1284:1 1289:1 1290:1 1296:1 1300:1 1309:1 1321:1 1326:1 1332:1 1356:1 1366:1 1367:1 1385:1 1391:1 1398:4
1 631:1 1368:1 1398:9
1 631:1 1368:1 1398:5
1 631:1 1368:1 1398:6
1 631:1 1368:1 1398:3
1 631:1 1368:1 1398:3
1 631:1 1368:1 1398:5
1 631:1 1102:1 1319:1 1368:1 1398:5
1 175:1 288:1 528:1 631:1 635:1 1102:1 1254:1 1289:1 1319:1 1338:1 1368:1 1370:1 1398:6
1 241:1 288:1 336:1 528:1 623:1 631:1 715:1 829:1 864:1 888:1 1057:1 1095:1 1102:1 1230:1 1274:1 1289:1 1302:1 1314:1 1315:1 1319:1 1338:1 1342:1 1351:1 1358:1 1361:1 1368:1 1398:4
1 631:1 1368:1 1398:5
1 631:1 1368:1 1398:5
1 175:1 241:1 288:1 623:1 631:1 715:1 1102:1 1125:1 1230:1 1254:1 1302:1 1319:1 1338:1 1340:1 1361:1 1368:1 1398:9
1 175:1 631:1 1254:1 1368:1 1398:4
1 631:1 1368:1 1398:5
1 175:1 631:1 1102:1 1254:1 1319:1 1368:1 1398:3
1 631:1 1368:1 1398:5
1 631:1 1368:1 1398:4
1 631:1 1368:1 1398:6
1 631:1 1368:1 1398:6
1 631:1 1368:1 1398:5
1 631:1 1368:1 1398:4
1 631:1 1102:1 1319:1 1368:1 1398:4
1 175:1 241:1 256:1 288:1 623:1 631:1 635:1 636:1 715:1 758:1 829:1 864:1 1057:1 1102:1 1230:1 1254:1 1261:1 1274:1 1302:1 1314:1 1316:1 1319:1 1338:1 1342:1 1361:1 1368:1 1370:1 1372:1 1398:3
1 631:1 1368:1 1398:6
1 175:1 241:1 288:1 623:1 631:1 635:1 1102:1 1125:1 1254:1 1302:1 1319:1 1338:1 1340:1 1361:1 1368:1 1370:1 1398:4
1 457:1 1252:1 1398:6
1 631:1 1368:1 1398:3
1 631:1 1368:1 1398:6
1 631:1 1368:1 1398:6
1 631:1 1368:1 1398:5
1 631:1 1368:1 1398:5
1 631:1 1368:1 1398:6
1 631:1 1102:1 1319:1 1368:1 1398:3
1 457:1 1252:1 1398:6
1 623:1 631:1 635:1 715:1 911:1 1102:1 1125:1 1230:1 1319:1 1340:1 1361:1 1362:1 1368:1 1370:1 1398:4 1400:3
1 175:1 241:1 288:1 623:1 631:1 635:1 1102:1 1125:1 1254:1 1302:1 1319:1 1338:1 1340:1 1361:1 1368:1 1370:1 1398:4
1 631:1 1368:1 1398:6
1 631:1 715:1 758:1 1230:1 1261:1 1368:1 1398:2
1 631:1 1368:1 1398:6
1 631:1 1368:1 1398:3 1400:1
1 457:1 1252:1 1398:6
1 175:1 241:1 256:1 288:1 558:1 623:1 631:1 635:1 636:1 706:1 715:1 758:1 829:1 951:1 1057:1 1102:1 1175:1 1221:1 1230:1 1254:1 1261:1 1274:1 1302:1 1314:1 1316:1 1319:1 1330:1 1338:1 1361:1 1368:1 1370:1 1372:1 1374:1 1392:1 1398:4
1 631:1 1368:1 1398:4
1 631:1 1368:1 1398:7
1 631:1 1368:1 1398:3
1 631:1 1368:1 1398:5
1 175:1 631:1 1254:1 1368:1 1398:4
1 631:1 1368:1 1398:5
1 631:1 1368:1 1398:6
1 631:1 1368:1 1398:7
1 631:1 1368:1 1398:4
1 457:1 1252:1 1398:4
1 631:1 1368:1 1398:5
1 288:1 631:1 1102:1 1319:1 1338:1 1368:1 1398:3
1 631:1 1102:1 1319:1 1368:1 1398:3
1 631:1 1368:1 1398:5
1 175:1 631:1 1102:1 1254:1 1319:1 1368:1 1398:5
1 631:1 1368:1 1398:6
1 631:1 1368:1 1398:4
1 175:1 241:1 288:1 623:1 631:1 715:1 1102:1 1125:1 1230:1 1254:1 1302:1 1319:1 1338:1 1340:1 1361:1 1368:1 1398:8
1 631:1 1368:1 1398:4
1 631:1 1368:1 1398:6
1 631:1 1368:1 1398:5
1 457:1 1252:1 1398:6
1 631:1 1368:1 1398:6
1 631:1 1368:1 1398:6
1 175:1 241:1 288:1 623:1 631:1 635:1 1102:1 1125:1 1254:1 1302:1 1319:1 1338:1 1340:1 1361:1 1368:1 1370:1 1398:4
1 631:1 1368:1 1398:6
1 631:1 1368:1 1398:4
1 631:1 1368:1 1398:5
1 631:1 1368:1 1398:6
1 631:1 1368:1 1398:5
1 631:1 1368:1 1398:4
1 631:1 1368:1 1398:6
1 631:1 1368:1 1398:6
1 631:1 1368:1 1398:8
1 175:1 241:1 288:1 528:1 631:1 635:1 715:1 1102:1 1230:1 1254:1 1289:1 1302:1 1319:1 1338:1 1368:1 1370:1 1398:2
1 175:1 241:1 288:1 631:1 715:1 1102:1 1230:1 1254:1 1302:1 1319:1 1338:1 1368:1 1398:2
1 623:1 631:1 1102:1 1319:1 1361:1 1368:1 1398:3
1 241:1 631:1 1302:1 1368:1 1398:6
1 354:1 616:1 623:1 631:1 713:1 722:1 1079:1 1080:1 1102:1 1150:1 1175:1 1228:1 1239:1 1294:1 1295:1 1319:1 1350:1 1359:1 1361:1 1368:1 1369:1 1374:1 1398:2 1400:17431
1 631:1 1368:1 1398:6
1 631:1 1368:1 1398:5
1 175:1 623:1 631:1 1102:1 1254:1 1319:1 1361:1 1368:1 1398:3
1 631:1 1368:1 1398:3
1 146:1 151:1 162:1 274:1 347:1 393:1 495:1 503:1 528:1 530:1 536:1 541:1 609:1 628:1 713:1 745:1 837:1 852:1 949:1 974:1 988:1 1068:1 1192:1 1214:1 1217:1 1223:1 1228:1 1236:1 1240:1 1247:1 1255:1 1263:1 1269:1 1273:1 1284:1 1289:1 1290:1 1296:1 1300:1 1309:1 1321:1 1326:1 1332:1 1356:1 1366:1 1367:1 1385:1 1391:1 1398:4
1 175:1 241:1 288:1 623:1 631:1 635:1 1102:1 1125:1 1254:1 1302:1 1319:1 1338:1 1340:1 1361:1 1368:1 1370:1 1398:4
1 631:1 1368:1 1398:5
1 631:1 1368:1 1398:5
1 175:1 241:1 288:1 631:1 715:1 1102:1 1230:1 1254:1 1302:1 1319:1 1338:1 1368:1 1398:2
1 631:1 1368:1 1398:3
1 631:1 1368:1 1398:5
1 631:1 1368:1 1398:6
1 631:1 1368:1 1398:6
1 175:1 241:4 259:1 271:1 288:2 623:2 631:5 635:1 636:1 706:1 715:3 1102:2 1125:1 1221:1 1230:3 1254:1 1302:4 1317:1 1319:2 1324:1 1338:2 1340:1 1361:2 1368:5 1370:1 1372:1 1398:6
1 631:1 1368:1 1398:6
1 631:1 1368:1 1398:2
1 175:1 241:1 288:1 623:1 631:1 635:1 1102:1 1125:1 1254:1 1302:1 1319:1 1338:1 1340:1 1361:1 1368:1 1370:1 1398:3
1 457:1 1252:1 1398:5
1 631:1 1368:1 1398:5
1 175:1 241:1 288:1 623:1 631:1 715:1 832:1 1102:1 1230:1 1254:1 1302:1 1319:1 1320:1 1338:1 1361:1 1368:1 1398:3
1 175:1 241:1 288:1 623:1 631:1 635:1 1102:1 1125:1 1254:1 1302:1 1319:1 1338:1 1340:1 1361:1 1368:1 1370:1 1398:5
1 631:1 1368:1 1398:6
1 631:1 1368:1 1398:4
1 631:1 1368:1 1398:6
1 631:1 1368:1 1398:6
1 631:1 1368:1 1398:8
1 631:1 1368:1 1398:6
1 631:1 1368:1 1398:7
1 457:1 1252:1 1398:5
1 631:1 1368:1 1398:6
1 175:1 631:1 1102:1 1254:1 1319:1 1368:1 1398:5
1 631:1 1368:1 1398:6
1 631:1 1368:1 1398:7
1 631:1 1368:1 1398:6
1 631:1 1368:1 1398:5
1 457:1 1252:1 1398:5
1 631:1 1368:1 1398:6
1 631:1 1368:1 1398:5
1 631:1 1368:1 1398:6
1 175:1 241:1 288:1 623:1 631:1 635:1 706:1 715:1 828:1 1057:1 1079:1 1102:1 1125:1 1175:1 1221:1 1230:1 1254:1 1274:1 1294:1 1302:1 1312:1 1319:1 1338:1 1340:1 1361:1 1368:1 1370:1 1374:1 1398:4 1400:54
1 175:1 241:1 288:1 623:1 631:1 715:1 1102:1 1125:1 1230:1 1254:1 1302:1 1319:1 1338:1 1340:1 1361:1 1368:1 1398:8
1 631:1 1368:1 1398:6
1 631:1 1368:1 1398:6
1 631:1 1102:1 1319:1 1368:1 1398:4
1 631:1 1368:1 1398:1
1 175:1 241:1 288:1 528:1 623:1 631:1 635:1 706:1 715:1 828:1 911:1 951:1 1057:1 1102:1 1125:1 1175:1 1221:1 1230:1 1254:1 1274:1 1289:1 1302:1 1312:1 1319:1 1338:1 1340:1 1361:1 1362:1 1368:1 1370:1 1374:1 1392:1 1398:3 1400:3
1 631:1 1368:1 1398:6
1 175:1 241:2 288:2 623:3 631:4 635:2 636:1 706:1 715:4 853:1 1102:2 1125:1 1221:1 1230:4 1254:1 1302:2 1319:2 1333:1 1338:2 1340:1 1361:3 1368:4 1370:2 1372:1 1398:6
1 631:1 1368:1 1398:6
1 631:1 1368:1 1398:7
1 631:1 1368:1 1398:4
1 175:1 241:1 288:1 623:1 631:1 635:1 1102:1 1125:1 1254:1 1302:1 1319:1 1338:1 1340:1 1361:1 1368:1 1370:1 1398:4
1 175:1 241:1 288:1 623:1 631:1 635:1 1102:1 1125:1 1254:1 1302:1 1319:1 1338:1 1340:1 1361:1 1368:1 1370:1 1398:4
1 631:1 1368:1 1398:6
1 631:1 1368:1 1398:6
1 631:1 1368:1 1398:6
1 631:1 1368:1 1398:6
1 631:1 1368:1 1398:6
1 631:1 1368:1 1398:4
1 631:1 1368:1 1398:6
1 631:1 1368:1 1398:7
1 631:1 1368:1 1398:6
1 631:1 1368:1 1398:7
1 623:2 631:2 635:1 715:1 1102:2 1230:1 1319:2 1361:2 1368:2 1370:1 1398:8
1 631:1 1368:1 1398:8
1 631:1 1368:1 1398:7
1 457:1 1252:1 1398:6
1 631:1 1368:1 1398:6
1 457:1 1252:1 1398:6
1 457:1 1252:1 1398:4
1 631:1 1368:1 1398:7
1 631:1 1368:1 1398:5
1 631:1 1368:1 1398:6
1 175:1 241:1 288:1 623:1 631:1 635:1 1102:1 1254:1 1302:1 1319:1 1338:1 1361:1 1368:1 1370:1 1398:4
1 623:1 631:1 1102:1 1319:1 1361:1 1368:1 1398:3
1 1398:2
1 631:1 1368:1 1398:6
1 175:1 623:1 631:1 635:1 1102:1 1254:1 1319:1 1361:1 1368:1 1370:1 1398:1
1 175:1 241:1 288:1 623:1 631:1 635:1 1102:1 1125:1 1254:1 1302:1 1319:1 1338:1 1340:1 1361:1 1368:1 1370:1 1398:3
1 175:1 241:1 288:1 528:1 623:1 631:1 635:1 706:1 715:1 1102:1 1125:1 1221:1 1230:1 1254:1 1289:1 1302:1 1319:1 1338:1 1340:1 1361:1 1368:1 1370:1 1398:5 1400:2
1 631:1 1368:1 1398:6
1 631:1 1368:1 1398:6
1 631:1 1368:1 1398:6
1 631:1 1368:1 1398:3
1 175:1 241:1 288:1 623:1 631:1 635:1 1102:1 1125:1 1254:1 1302:1 1319:1 1338:1 1340:1 1361:1 1368:1 1370:1 1398:4
1 457:1 1252:1 1398:5
1 241:1 631:1 1302:1 1368:1 1398:6
1 288:1 623:1 631:1 1102:1 1319:1 1338:1 1361:1 1368:1 1398:2
1 175:1 241:1 288:1 631:1 715:1 1102:1 1230:1 1254:1 1278:1 1302:1 1319:1 1338:1 1368:1 1398:12
1 175:1 241:1 288:1 623:1 631:1 715:1 1102:1 1125:1 1230:1 1254:1 1302:1 1319:1 1338:1 1340:1 1361:1 1368:1 1398:8
1 175:1 631:1 1102:1 1254:1 1319:1 1368:1 1398:3
1 631:1 1368:1 1398:6
1 631:1 1368:1 1398:5
1 1398:2
1 631:1 1368:1 1398:5
1 175:1 241:1 288:1 631:1 715:1 1102:1 1230:1 1254:1 1302:1 1319:1 1338:1 1368:1 1398:2
1 631:1 1102:1 1319:1 1368:1 1398:1
1 175:1 241:1 288:1 623:1 631:1 715:1 1102:1 1125:1 1230:1 1254:1 1302:1 1319:1 1338:1 1340:1 1361:1 1368:1 1398:8
1 175:1 241:1 288:1 631:3 715:1 716:2 832:3 951:1 1102:1 1181:1 1230:1 1231:2 1254:1 1302:1 1319:1 1320:3 1338:1 1368:3 1380:1 1392:1 1398:2
1 175:1 241:1 288:1 623:1 631:1 832:1 1079:1 1102:1 1125:1 1175:1 1254:1 1294:1 1302:1 1319:1 1320:1 1338:1 1340:1 1361:1 1368:1 1374:1 1398:3
1 623:1 631:1 1361:1 1368:1 1398:3
1 631:1 1102:1 1319:1 1368:1 1398:3
1 631:1 1368:1 1398:4
1 631:1 1368:1 1398:5
1 457:1 1252:1 1398:5
1 175:1 241:1 288:1 631:1 715:1 1102:1 1230:1 1254:1 1302:1 1319:1 1338:1 1368:1 1398:3
1 631:1 1368:1 1398:5
1 631:1 1368:1 1398:5
1 631:1 1368:1 1398:7
1 175:1 241:1 288:1 623:1 631:1 715:1 1102:1 1125:1 1230:1 1254:1 1302:1 1319:1 1338:1 1340:1 1361:1 1368:1 1398:8
1 631:1 1368:1 1398:5
1 631:1 1102:1 1319:1 1368:1 1398:6
1 175:1 241:1 288:1 336:1 344:1 528:1 623:1 631:2 635:1 715:2 1102:1 1125:1 1230:2 1254:1 1289:1 1302:1 1319:1 1338:1 1340:1 1358:1 1361:1 1363:1 1368:2 1370:1 1398:12 1400:2
1 175:1 631:1 951:1 1254:1 1368:1 1392:1 1398:2
1 631:1 1368:1 1398:5
1 631:1 1368:1 1398:3
1 631:1 1368:1 1398:5
1 175:1 631:1 1254:1 1368:1 1398:2
1 175:1 241:1 288:1 528:1 623:1 631:1 635:1 706:1 715:1 853:1 911:1 951:1 1102:1 1125:1 1221:1 1230:1 1254:1 1289:1 1302:1 1319:1 1333:1 1338:1 1340:1 1361:1 1362:1 1368:1 1370:1 1392:1 1398:4 1400:3
1 457:1 1252:1 1398:5
1 623:1 631:1 1102:1 1319:1 1361:1 1368:1 1398:3
1 631:1 1368:1 1398:6
1 631:1 1368:1 1398:5
1 175:1 241:1 288:1 623:1 631:1 635:1 1102:1 1125:1 1254:1 1302:1 1319:1 1338:1 1340:1 1361:1 1368:1 1370:1 1398:4
1 457:1 1252:1 1398:5
1 528:1 631:1 1102:1 1289:1 1319:1 1368:1 1398:7
1 631:1 1368:1 1398:6
1 631:1 1368:1 1398:8
1 175:1 241:1 288:1 623:1 631:1 635:1 1102:1 1125:1 1254:1 1302:1 1319:1 1338:1 1340:1 1361:1 1368:1 1370:1 1398:4
1 457:1 1252:1 1398:5
1 175:1 241:1 256:1 288:1 365:1 538:1 623:1 631:1 715:1 722:1 761:1 829:1 951:1 996:1 1079:1 1102:1 1125:1 1175:1 1230:1 1234:1 1239:1 1254:1 1264:1 1294:1 1302:1 1306:1 1314:1 1316:1 1319:1 1338:1 1340:1 1361:1 1368:1 1374:1 1384:1 1392:1 1398:3 1400:3287
1 631:1 1368:1 1398:6
1 631:1 1368:1 1398:6
1 175:1 241:1 288:1 528:1 623:1 631:1 635:1 706:1 715:1 815:1 828:1 911:1 951:1 1057:1 1102:1 1125:1 1175:1 1221:1 1230:1 1254:1 1274:1 1289:1 1297:1 1302:1 1312:1 1319:1 1338:1 1340:1 1361:1 1362:1 1368:1 1370:1 1374:1 1392:1 1398:4 1400:3
1 631:1 1368:1 1398:6
1 631:1 1368:1 1398:7
1 218:1 241:1 318:1 354:1 535:1 623:1 631:1 649:1 713:1 722:1 782:1 1079:1 1102:1 1182:1 1228:1 1239:1 1271:1 1277:1 1294:1 1299:1 1302:1 1319:1 1352:1 1361:1 1368:1 1369:1 1379:1 1382:1 1398:2 1400:3100
1 631:1 1368:1 1398:7
1 175:1 241:1 288:1 623:1 631:1 635:1 715:1 758:1 829:1 832:1 1102:1 1230:1 1254:1 1261:1 1302:1 1314:1 1319:1 1320:1 1338:1 1361:1 1368:1 1370:1 1398:1
1 1398:3
1 175:1 288:1 623:2 631:4 635:1 706:1 715:2 1102:2 1125:1 1221:1 1230:2 1254:1 1319:2 1338:1 1340:1 1361:2 1368:4 1370:1 1398:10
1 631:1 1368:1 1398:6
1 457:1 1252:1 1398:5
1 631:1 1368:1 1398:5
1 175:1 241:1 288:1 623:1 631:1 715:1 1102:1 1125:1 1230:1 1254:1 1302:1 1319:1 1338:1 1340:1 1361:1 1368:1 1398:8
1 288:1 623:1 631:1 1102:1 1319:1 1338:1 1361:1 1368:1 1398:2
1 631:1 1368:1 1398:6
1 175:1 241:1 288:1 623:1 631:1 635:1 1102:1 1125:1 1254:1 1302:1 1319:1 1338:1 1340:1 1361:1 1368:1 1370:1 1398:3
1 457:1 1252:1 1398:3
1 631:1 1368:1 1398:6
1 631:1 1368:1 1398:5
1 631:1 1368:1 1398:6
1 1398:3
1 241:1 288:1 336:1 528:1 623:1 631:1 715:1 829:1 849:1 864:1 888:1 1057:1 1095:1 1102:1 1230:1 1274:1 1289:1 1302:1 1314:1 1315:1 1319:1 1329:1 1338:1 1342:1 1351:1 1358:1 1361:1 1368:1 1398:4
1 631:1 1368:1 1398:6
1 175:1 484:1 528:1 623:1 631:1 635:1 1102:1 1125:1 1254:1 1262:1 1289:1 1319:1 1340:1 1361:1 1368:1 1370:1 1398:4
1 175:1 241:1 288:1 623:1 631:1 635:1 1102:1 1125:1 1254:1 1302:1 1319:1 1338:1 1340:1 1361:1 1368:1 1370:1 1398:4
1 631:1 1368:1 1398:4
1 175:1 288:1 623:2 631:4 635:1 706:1 715:2 1102:2 1125:1 1221:1 1230:2 1254:1 1319:2 1338:1 1340:1 1361:2 1368:4 1370:1 1398:8
1 631:1 1368:1 1398:6
1 631:1 1368:1 1398:5
1 631:1 1368:1 1398:4
1 1398:3
1 631:1 1368:1 1398:4
1 631:1 1368:1 1398:5
1 631:1 1102:1 1319:1 1368:1 1398:6
1 631:1 1368:1 1398:6
1 631:1 1368:1 1398:5
1 631:1 1368:1 1398:6
1 457:1 1252:1 1398:5
1 631:1 1368:1 1398:5
1 631:1 1368:1 1398:5
1 457:1 1252:1 1398:5
1 457:1 1252:1 1398:5
1 631:1 1368:1 1398:6
1 175:1 288:1 623:2 631:4 635:1 706:1 715:2 1102:2 1125:1 1221:1 1230:2 1254:1 1319:2 1338:1 1340:1 1361:2 1368:4 1370:1 1398:9
1 631:1 1368:1 1398:7
1 134:1 140:1 146:1 148:1 151:1 247:1 272:1 274:1 295:1 318:1 336:1 347:1 355:1 382:1 392:1 415:1 437:1 452:1 503:1 530:1 536:1 539:1 557:1 564:1 609:1 628:1 647:1 649:1 690:1 715:1 745:1 746:1 812:1 852:1 949:1 974:1 994:1 995:1 1006:1 1031:1 1068:1 1144:1 1162:1 1192:1 1217:1 1219:1 1222:1 1224:1 1229:1 1230:1 1232:1 1233:1 1236:1 1238:1 1240:1 1241:1 1243:1 1250:1 1255:1 1256:1 1257:1 1263:1 1265:1 1267:1 1273:1 1283:1 1284:1 1290:1 1292:1 1300:1 1307:1 1310:1 1325:1 1326:1 1327:1 1332:1 1336:1 1341:1 1348:1 1352:1 1355:1 1356:1 1357:1 1358:1 1366:1 1367:1 1373:1 1377:1 1378:1 1382:1 1385:1 1391:1 1396:1 1397:1 1398:4
1 631:1 1368:1 1398:6
1 305:1 336:1 478:1 496:1 528:1 631:2 858:1 950:1 1102:1 1177:1 1260:1 1270:1 1289:1 1319:1 1334:1 1346:1 1358:1 1368:2 1375:1 1383:1 1387:1 1398:5
1 631:1 1368:1 1398:6
1 175:1 241:1 256:1 288:1 344:1 365:1 616:1 623:1 631:1 635:1 706:1 715:1 829:1 832:1 849:1 1079:1 1080:1 1102:1 1125:1 1221:1 1230:1 1254:1 1294:1 1295:1 1302:1 1314:1 1316:1 1319:1 1320:1 1329:1 1338:1 1340:1 1359:1 1361:1 1363:1 1368:1 1370:1 1384:1 1398:5
1 631:1 1368:1 1398:6
1 631:1 1368:1 1398:5
1 457:1 1252:1 1398:5
1 631:1 1368:1 1398:4
1 631:1 1368:1 1398:6
1 631:1 1368:1 1398:6
1 623:1 631:1 1361:1 1368:1 1398:4
1 631:1 1368:1 1398:6
1 631:1 1368:1 1398:5
1 175:1 241:1 288:1 623:1 631:1 715:1 1102:1 1125:1 1230:1 1254:1 1302:1 1319:1 1338:1 1340:1 1361:1 1368:1 1398:8
1 631:1 1368:1 1398:3
1 631:1 1368:1 1398:5
1 631:1 1102:1 1319:1 1368:1 1398:2
1 631:1 1368:1 1398:7
1 631:1 1368:1 1398:6
1 457:1 1252:1 1398:5
1 631:1 1368:1 1398:5
1 631:1 758:1 1261:1 1368:1 1398:2
1 1398:2
1 175:1 241:1 288:1 623:1 631:1 706:1 1102:1 1221:1 1254:1 1302:1 1319:1 1338:1 1361:1 1368:1 1398:1
1 631:1 1368:1 1398:4
1 288:1 631:1 1338:1 1368:1 1398:3
1 631:1 1368:1 1398:4
1 175:1 241:1 288:1 623:1 631:1 715:1 1102:1 1125:1 1230:1 1254:1 1302:1 1319:1 1338:1 1340:1 1361:1 1368:1 1398:8
1 175:1 241:1 288:2 344:1 528:1 551:1 623:2 631:6 635:1 706:1 713:1 715:3 804:1 1102:3 1125:1 1221:1 1228:1 1230:3 1235:1 1254:1 1285:1 1289:1 1302:1 1319:3 1322:1 1338:2 1340:1 1361:2 1363:1 1368:6 1370:1 1398:7 1400:1
1 631:1 1368:1 1398:7
1 457:1 1252:1 1398:5
1 175:1 241:1 262:1 617:1 623:1 631:1 829:1 832:1 951:1 1102:1 1254:1 1302:1 1314:1 1318:1 1319:1 1320:1 1360:1 1361:1 1368:1 1392:1 1398:2 1400:1646
1 631:1 1368:1 1398:4
1 631:1 1368:1 1398:5
1 175:1 241:1 288:1 623:1 631:1 635:1 1102:1 1125:1 1254:1 1302:1 1319:1 1338:1 1340:1 1361:1 1368:1 1370:1 1398:3
1 631:1 1368:1 1398:6
1 631:1 1368:1 1398:7
1 631:1 1368:1 1398:6
1 1398:2
1 631:1 1368:1 1398:5
1 631:1 1368:1 1398:6
1 175:1 241:1 288:1 623:1 631:1 715:1 1102:1 1125:1 1230:1 1254:1 1302:1 1319:1 1338:1 1340:1 1361:1 1368:1 1398:8
1 175:1 241:1 288:1 623:1 631:1 635:1 1102:1 1125:1 1254:1 1302:1 1319:1 1338:1 1340:1 1361:1 1368:1 1370:1 1398:3
1 631:1 1368:1 1398:7
1 241:1 631:1 1302:1 1368:1 1398:6
1 631:1 1368:1 1398:5
1 631:1 1368:1 1398:6
1 631:1 1368:1 1398:6
1 631:1 1368:1 1398:4
1 631:1 1368:1 1398:5
1 631:1 1368:1 1398:4
1 631:1 1368:1 1398:6
1 457:1 1252:1 1398:4
1 631:1 1368:1 1398:6
1 631:1 1368:1 1398:6
1 631:1 1368:1 1398:4
1 631:1 1368:1 1398:6
1 631:1 1368:1 1398:5
1 175:1 623:1 631:1 1254:1 1361:1 1368:1 1398:3
1 631:1 1368:1 1398:6
1 631:1 1368:1 1398:3
1 1398:3
1 175:1 241:1 288:1 344:1 453:1 495:1 528:1 623:1 631:1 635:1 713:1 715:1 758:1 804:1 827:1 829:1 871:1 1009:1 1080:1 1083:1 1102:1 1125:1 1228:1 1230:1 1246:1 1251:1 1254:1 1261:1 1269:1 1285:1 1289:1 1295:1 1298:1 1302:1 1311:1 1314:1 1319:1 1338:1 1340:1 1345:1 1361:1 1363:1 1368:1 1370:1 1398:3
1 175:1 241:1 256:1 288:1 344:1 558:1 623:1 631:1 636:1 694:1 706:1 713:1 715:1 758:1 829:1 864:1 1057:1 1102:1 1220:1 1221:1 1228:1 1230:1 1254:1 1261:1 1274:1 1302:1 1314:1 1316:1 1319:1 1330:1 1338:1 1342:1 1361:1 1363:1 1368:1 1372:1 1398:4
1 175:1 241:1 288:1 623:1 631:1 635:1 1102:1 1125:1 1254:1 1302:1 1319:1 1338:1 1340:1 1361:1 1368:1 1370:1 1398:4
1 631:1 1368:1 1398:6
1 175:1 241:1 288:1 623:1 631:1 715:1 1102:1 1125:1 1230:1 1254:1 1302:1 1319:1 1338:1 1340:1 1361:1 1368:1 1398:8
1 631:1 1368:1 1398:6
1 631:1 1368:1 1398:3
1 457:1 1252:1 1398:5
1 631:1 1368:1 1398:6
1 631:1 1368:1 1398:6
1 631:1 1368:1 1398:6
1 175:1 241:1 288:1 623:1 631:1 635:1 1102:1 1125:1 1254:1 1302:1 1319:1 1338:1 1340:1 1361:1 1368:1 1370:1 1398:5
1 175:1 241:1 288:1 623:1 631:1 635:1 1102:1 1125:1 1254:1 1302:1 1319:1 1338:1 1340:1 1361:1 1368:1 1370:1 1398:4
1 631:1 1368:1 1398:5
1 1398:3
1 631:1 1368:1 1398:6
1 631:1 1368:1 1398:7
1 631:1 1368:1 1398:6
1 631:1 1368:1 1398:4
1 457:1 1252:1 1398:5
1 631:1 1368:1 1398:4
1 175:1 241:1 288:1 623:1 631:1 715:1 1102:1 1125:1 1230:1 1254:1 1302:1 1319:1 1338:1 1340:1 1361:1 1368:1 1398:8
1 241:1 288:1 631:1 1302:1 1338:1 1368:1 1398:2
1 631:1 1368:1 1398:5
1 631:1 1368:1 1398:6
1 631:1 1368:1 1398:6
1 631:1 1368:1 1398:4
1 631:1 1368:1 1398:3
1 631:1 1368:1 1398:6
1 631:1 1368:1 1398:4
1 631:1 1368:1 1398:6
1 457:1 1252:1 1398:3
1 175:1 241:1 288:1 528:1 631:1 635:1 715:1 1102:1 1230:1 1254:1 1289:1 1302:1 1319:1 1338:1 1368:1 1370:1 1398:2
1 457:1 1252:1 1398:5
1 631:1 1102:1 1319:1 1368:1 1398:2
1 175:1 241:1 288:1 623:1 631:1 635:1 1102:1 1125:1 1254:1 1302:1 1319:1 1338:1 1340:1 1361:1 1368:1 1370:1 1398:3
1 631:1 1368:1 1398:5
1 175:1 241:1 288:1 528:1 623:1 631:1 635:1 706:1 715:1 829:1 911:1 1102:1 1125:1 1221:1 1230:1 1254:1 1289:1 1302:1 1314:1 1319:1 1338:1 1340:1 1361:1 1362:1 1368:1 1370:1 1398:4 1400:3
1 631:1 1368:1 1398:5
1 631:1 1368:1 1398:6
1 631:1 1368:1 1398:2
1 631:1 1368:1 1398:3
1 175:1 241:1 288:1 528:1 623:1 631:1 635:1 715:1 1102:1 1230:1 1254:1 1289:1 1302:1 1319:1 1338:1 1361:1 1368:1 1370:1 1398:1
1 631:1 1368:1 1398:5
1 457:1 1252:1 1398:4
1 631:1 1368:1 1398:7
1 623:1 631:1 1361:1 1368:1 1398:5
1 631:1 1368:1 1398:6
1 631:1 1368:1 1398:6
1 631:1 1102:1 1319:1 1368:1 1398:4
1 631:1 1368:1 1398:6
1 175:1 241:1 288:1 623:1 631:1 715:1 1102:1 1125:1 1230:1 1254:1 1302:1 1319:1 1338:1 1340:1 1361:1 1368:1 1398:9
1 175:1 241:1 288:1 623:1 631:1 715:1 1102:1 1125:1 1230:1 1254:1 1302:1 1319:1 1338:1 1340:1 1361:1 1368:1 1398:8
1 631:1 1368:1 1398:5
1 457:1 1252:1 1398:5
1 175:1 241:1 288:1 623:1 631:1 715:1 1102:1 1125:1 1230:1 1254:1 1302:1 1319:1 1338:1 1340:1 1361:1 1368:1 1398:8
1 631:1 1368:1 1398:6
1 631:1 1368:1 1398:5
1 175:1 241:1 288:1 631:1 715:1 1102:1 1230:1 1254:1 1302:1 1319:1 1338:1 1368:1 1398:2
1 457:1 1252:1 1398:5
1 631:1 1368:1 1398:6
1 631:1 1368:1 1398:7
1 457:1 1252:1 1398:5
1 241:1 631:1 1302:1 1368:1 1398:6
1 631:1 1368:1 1398:5
1 175:1 241:1 288:1 558:1 623:1 631:1 635:1 706:1 715:1 829:1 951:1 1102:1 1125:1 1221:1 1230:1 1254:1 1302:1 1314:1 1319:1 1330:1 1338:1 1340:1 1361:1 1368:1 1370:1 1392:1 1398:2
1 457:1 1252:1 1398:5
1 1398:2
1 631:1 1102:1 1319:1 1368:1 1398:2
1 631:1 1368:1 1398:6
1 631:1 1368:1 1398:5
1 631:1 1368:1 1398:8
1 631:1 1368:1 1398:6
1 175:1 484:1 528:1 623:1 631:1 635:1 1102:1 1125:1 1254:1 1262:1 1289:1 1319:1 1340:1 1361:1 1368:1 1370:1 1398:2
1 623:1 631:1 1102:1 1319:1 1361:1 1368:1 1398:4
1 457:1 1252:1 1398:3
1 631:1 713:1 1102:1 1228:1 1319:1 1368:1 1398:4
1 631:1 1102:1 1319:1 1368:1 1398:6
1 631:1 1368:1 1398:4
1 175:1 241:1 288:1 528:1 623:1 631:2 635:1 706:1 715:2 828:1 829:1 911:1 1057:1 1102:1 1125:1 1175:1 1221:1 1230:2 1254:1 1274:1 1289:1 1302:1 1312:1 1314:1 1319:1 1338:1 1340:1 1361:1 1362:1 1368:2 1370:1 1374:1 1398:12 1400:1
1 175:1 241:1 288:1 623:1 631:1 715:1 1102:1 1125:1 1230:1 1254:1 1302:1 1319:1 1338:1 1340:1 1361:1 1368:1 1398:8
1 631:1 1368:1 1398:6
1 175:1 241:1 288:1 631:1 715:1 1102:1 1230:1 1254:1 1302:1 1319:1 1338:1 1368:1 1398:2
1 175:1 241:1 288:1 631:2 715:1 1102:1 1230:1 1254:1 1302:1 1319:1 1338:1 1368:2 1398:11
1 631:1 1368:1 1398:7
1 457:1 1252:1 1398:5
1 175:1 241:1 288:1 623:1 631:1 715:1 1102:1 1125:1 1230:1 1254:1 1302:1 1319:1 1338:1 1340:1 1361:1 1368:1 1398:8
1 175:1 241:1 288:1 623:1 631:1 635:1 1102:1 1125:1 1254:1 1302:1 1319:1 1338:1 1340:1 1361:1 1368:1 1370:1 1398:4
1 1398:2
1 631:1 1368:1 1398:6
1 631:1 1368:1 1398:6
1 175:1 241:1 288:1 623:1 631:1 715:1 1102:1 1125:1 1230:1 1254:1 1302:1 1319:1 1338:1 1340:1 1361:1 1368:1 1398:9
1 175:1 241:2 288:2 623:2 631:2 635:2 636:1 706:1 715:2 853:1 1102:2 1125:1 1221:1 1230:2 1254:1 1302:2 1319:2 1333:1 1338:2 1340:1 1361:2 1368:2 1370:2 1372:1 1398:8
1 175:1 623:1 631:1 1102:1 1254:1 1319:1 1361:1 1368:1 1398:3
1 631:1 1368:1 1398:5
1 631:1 1368:1 1398:3
1 631:1 1368:1 1398:6
1 631:1 1368:1 1398:5
1 457:1 1252:1 1398:6
1 631:1 1368:1 1398:6
1 175:1 241:1 288:1 528:1 631:1 635:1 715:1 1102:1 1230:1 1254:1 1289:1 1302:1 1319:1 1338:1 1368:1 1370:1 1398:3
1 631:1 1368:1 1398:6
1 631:1 1368:1 1398:6
1 631:1 1368:1 1398:5
1 631:1 1368:1 1398:5
1 631:1 1368:1 1398:7
1 631:1 1368:1 1398:6
1 631:1 1368:1 1398:5
1 631:1 1368:1 1398:4
1 631:1 1368:1 1398:7
1 631:1 1368:1 1398:9
1 631:1 1102:1 1319:1 1368:1 1398:3
1 457:1 1252:1 1398:3
1 631:1 1368:1 1398:5
1 175:1 241:1 288:1 623:1 631:1 715:1 1102:1 1125:1 1230:1 1254:1 1302:1 1319:1 1338:1 1340:1 1361:1 1368:1 1398:8
1 175:1 241:1 288:1 623:1 631:1 635:1 1102:1 1125:1 1254:1 1302:1 1319:1 1338:1 1340:1 1361:1 1368:1 1370:1 1398:4
1 631:1 1368:1 1398:6
1 631:1 1368:1 1398:7
1 631:1 1368:1 1398:5
1 631:1 1368:1 1398:6
1 631:1 1368:1 1398:6
1 631:1 1368:1 1398:6
1 457:1 1252:1 1398:4
1 631:1 1102:1 1319:1 1368:1 1398:3
1 631:1 1368:1 1398:6
1 631:1 1368:1 1398:6
1 631:1 1368:1 1398:6
1 631:1 1368:1 1398:7
1 631:1 1368:1 1398:4
1 631:1 1368:1 1398:5
1 175:1 241:1 288:1 623:1 631:1 635:1 1102:1 1125:1 1254:1 1302:1 1319:1 1338:1 1340:1 1361:1 1368:1 1370:1 1398:3
1 631:1 1368:1 1398:6
1 631:1 1368:1 1398:6
1 457:1 1252:1 1398:4
1 631:1 1368:1 1398:7
1 631:1 1368:1 1398:6
1 146:1 151:1 175:1 228:1 239:1 247:1 274:1 295:1 318:1 347:1 355:1 437:1 452:1 503:1 530:1 536:1 539:1 557:1 563:1 564:1 570:1 598:1 609:1 628:1 635:1 647:1 649:1 685:1 745:1 792:1 807:1 949:1 970:1 974:1 994:1 1006:1 1031:1 1068:1 1102:1 1115:1 1133:1 1162:1 1192:1 1215:1 1216:1 1217:1 1232:1 1236:1 1240:1 1241:1 1243:1 1250:1 1254:1 1255:1 1257:1 1258:1 1263:1 1267:1 1273:1 1276:1 1284:1 1286:1 1287:1 1290:1 1300:1 1304:1 1307:1 1310:1 1319:1 1326:1 1327:1 1331:1 1335:1 1336:1 1339:1 1341:1 1344:1 1352:1 1353:1 1355:1 1356:1 1357:1 1366:1 1367:1 1370:1 1371:1 1373:1 1377:1 1378:1 1382:1 1385:1 1391:1 1398:4
1 218:1 231:1 318:1 535:1 631:1 649:1 709:1 975:1 1090:1 1180:1 1182:1 1218:1 1225:1 1277:1 1288:1 1299:1 1308:1 1352:1 1368:1 1376:1 1379:1 1382:1 1398:2
1 631:1 1368:1 1398:4
1 175:1 241:1 288:1 623:1 631:1 635:1 1102:1 1125:1 1254:1 1302:1 1319:1 1338:1 1340:1 1361:1 1368:1 1370:1 1398:4
1 528:1 631:1 1289:1 1368:1 1398:6 1400:1
1 631:1 1368:1 1398:5
1 631:1 1368:1 1398:5
1 631:1 1368:1 1398:5
1 631:1 1368:1 1398:6
1 175:1 631:1 1254:1 1368:1 1398:5
1 175:3 241:3 256:1 288:3 344:2 365:1 495:1 551:1 623:5 631:5 635:1 706:1 713:1 715:3 758:1 790:1 853:1 1102:2 1125:1 1175:1 1203:1 1221:1 1228:1 1230:3 1254:3 1261:1 1266:1 1269:1 1275:1 1281:1 1302:3 1316:1 1319:2 1322:1 1333:1 1338:3 1340:1 1361:5 1363:2 1368:5 1370:1 1374:1 1384:1 1393:1 1398:6 1400:2
1 631:1 1368:1 1398:7
1 631:1 1368:1 1398:5
1 457:1 1252:1 1398:4
1 631:1 1368:1 1398:6
1 631:1 1368:1 1398:6
1 175:1 241:1 288:1 631:1 715:1 1102:1 1230:1 1254:1 1302:1 1319:1 1338:1 1368:1 1398:2
1 457:1 1252:1 1398:5
1 1398:2
1 457:1 1252:1 1398:3
1 175:1 241:1 288:1 623:1 631:1 715:1 1102:1 1125:1 1230:1 1254:1 1302:1 1319:1 1338:1 1340:1 1361:1 1368:1 1398:8
1 631:1 1368:1 1398:6
1 631:1 1368:1 1398:6
1 631:1 1368:1 1398:4
1 631:1 1368:1 1398:6
1 175:1 241:1 631:1 715:1 1102:1 1230:1 1254:1 1302:1 1319:1 1368:1 1398:2
1 175:1 241:1 288:1 623:1 631:1 635:1 1102:1 1125:1 1254:1 1302:1 1319:1 1338:1 1340:1 1361:1 1368:1 1370:1 1398:4
1 457:1 1252:1 1398:5
1 631:1 1368:1 1398:7
1 175:1 241:1 288:1 623:1 631:1 715:1 1102:1 1125:1 1230:1 1254:1 1302:1 1319:1 1338:1 1340:1 1361:1 1368:1 1398:8
1 288:1 623:1 631:1 1102:1 1319:1 1338:1 1361:1 1368:1 1398:2
1 175:1 241:1 288:1 623:1 631:1 715:1 1102:1 1125:1 1230:1 1254:1 1302:1 1319:1 1338:1 1340:1 1361:1 1368:1 1398:8
1 241:1 631:1 1302:1 1368:1 1398:6
1 631:1 1368:1 1398:4
1 631:1 1368:1 1398:6
1 631:1 1368:1 1398:5
1 631:1 1368:1 1398:3
1 631:1 1368:1 1398:6
1 1398:2
1 175:1 631:1 1102:1 1254:1 1319:1 1368:1 1398:6
1 631:1 1368:1 1398:7
1 631:1 1102:1 1319:1 1368:1 1398:5
1 631:1 1368:1 1398:6
1 175:1 241:1 288:2 344:1 623:2 631:5 635:1 706:1 715:3 1102:2 1125:1 1221:1 1230:3 1254:1 1302:1 1319:2 1338:2 1340:1 1361:2 1363:1 1368:5 1370:1 1398:7
1 175:1 241:1 288:1 623:1 631:1 635:1 1102:1 1125:1 1254:1 1302:1 1319:1 1338:1 1340:1 1361:1 1368:1 1370:1 1398:5
1 631:1 1368:1 1398:6
1 623:1 631:1 635:1 715:1 1102:1 1230:1 1319:1 1361:1 1368:1 1370:1 1398:4 1400:2
1 457:1 1252:1 1398:5
1 631:1 1368:1 1398:6
1 631:1 1368:1 1398:6
1 631:1 1368:1 1398:5
1 631:1 1368:1 1398:5
1 631:1 1368:1 1398:6
1 241:1 623:1 631:1 951:1 1302:1 1361:1 1368:1 1392:1 1398:2
1 623:1 631:1 635:1 715:1 1102:1 1230:1 1319:1 1361:1 1368:1 1370:1 1398:4 1400:2
1 631:1 1102:1 1319:1 1368:1 1398:2
1 631:1 1368:1 1398:6
1 631:1 1368:1 1398:6
1 175:1 241:1 288:1 623:1 631:1 715:1 1102:1 1125:1 1230:1 1254:1 1302:1 1319:1 1338:1 1340:1 1361:1 1368:1 1398:8
1 631:1 1368:1 1398:6
1 241:1 623:1 631:1 1102:1 1302:1 1319:1 1361:1 1368:1 1398:3
1 631:1 1368:1 1398:6
1 175:1 241:1 288:1 623:1 631:1 635:1 1102:1 1125:1 1254:1 1302:1 1319:1 1338:1 1340:1 1361:1 1368:1 1370:1 1398:5
1 175:1 241:1 288:1 344:1 616:1 623:1 631:1 713:1 722:1 829:1 1079:1 1080:1 1083:1 1102:1 1228:1 1239:1 1254:1 1294:1 1295:1 1298:1 1302:1 1314:1 1319:1 1338:1 1359:1 1361:1 1363:1 1368:1 1398:4
1 631:1 1368:1 1398:6
1 631:1 1368:1 1398:6
1 175:1 241:1 288:1 623:1 631:1 713:1 722:1 1079:1 1080:1 1083:1 1102:1 1228:1 1239:1 1254:1 1294:1 1295:1 1298:1 1302:1 1319:1 1338:1 1361:1 1368:1 1398:4
1 175:1 218:1 231:1 318:1 512:1 535:1 623:1 631:1 649:1 709:1 1018:1 1102:1 1180:1 1182:1 1225:1 1248:1 1254:1 1277:1 1280:1 1288:1 1299:1 1319:1 1352:1 1361:1 1368:1 1376:1 1379:1 1382:1 1398:3
1 631:1 1368:1 1398:3
1 175:1 241:1 288:1 623:1 631:1 635:1 706:1 715:1 829:1 951:1 1102:1 1221:1 1230:1 1254:1 1302:1 1314:1 1319:1 1338:1 1361:1 1368:1 1370:1 1392:1 1398:2
1 1398:2
1 631:1 1368:1 1398:6
1 631:1 1368:1 1398:5
1 631:1 1368:1 1398:5
1 631:1 1368:1 1398:7
1 631:1 1102:1 1319:1 1368:1 1398:4
1 631:1 1368:1 1398:5
1 457:1 1252:1 1398:5
1 631:1 1368:1 1398:5
1 457:1 1252:1 1398:5
1 175:1 241:1 288:1 501:1 623:1 631:1 635:1 636:1 706:1 713:1 715:1 758:1 829:1 1102:1 1221:1 1228:1 1230:1 1254:1 1261:1 1272:1 1302:1 1314:1 1319:1 1338:1 1361:1 1368:1 1370:1 1372:1 1398:4
1 631:1 1368:1 1398:6
1 175:1 241:2 288:2 623:2 631:2 635:2 636:1 706:1 715:2 853:1 1102:2 1125:1 1221:1 1230:2 1254:1 1302:2 1319:2 1333:1 1338:2 1340:1 1361:2 1368:2 1370:2 1372:1 1398:8
1 631:1 1368:1 1398:4
1 631:1 1368:1 1398:5
1 457:1 1252:1 1398:6
1 631:1 1368:1 1398:6
1 631:1 1368:1 1398:5
1 631:1 1368:1 1398:5
1 457:1 1252:1 1398:5
1 175:1 241:2 288:2 623:2 631:2 635:1 706:1 715:2 853:1 1102:2 1125:1 1221:1 1230:2 1254:1 1302:2 1319:2 1333:1 1338:2 1340:1 1361:2 1368:2 1370:1 1398:8
1 457:1 1252:1 1398:5
1 175:1 241:1 288:1 623:1 631:1 635:1 1102:1 1125:1 1254:1 1302:1 1319:1 1338:1 1340:1 1361:1 1368:1 1370:1 1398:4
1 457:1 1252:1 1398:4
1 175:1 623:1 631:1 635:1 1102:1 1254:1 1319:1 1361:1 1368:1 1370:1 1398:1
1 631:1 1368:1 1398:6
1 631:1 1368:1 1398:6
1 631:1 1368:1 1398:6
1 631:1 1368:1 1398:6
1 631:1 1102:1 1319:1 1368:1 1398:3
1 241:1 288:1 336:1 623:1 631:1 1080:1 1102:1 1175:1 1295:1 1302:1 1319:1 1338:1 1358:1 1361:1 1368:1 1374:1 1398:4 1400:1
1 631:1 1368:1 1398:6
1 631:1 1368:1 1398:5
1 457:1 1252:1 1398:5
1 631:1 1368:1 1398:6
1 631:1 1368:1 1398:6
1 175:1 241:1 288:1 623:1 631:1 715:1 1079:1 1102:1 1230:1 1254:1 1294:1 1302:1 1319:1 1338:1 1361:1 1368:1 1398:3
1 631:1 1368:1 1398:5
1 457:1 1252:1 1398:4
1 631:1 1368:1 1398:6
1 175:3 241:3 256:1 288:3 344:2 365:1 495:1 551:1 623:5 631:5 635:1 706:1 713:1 715:3 758:1 790:1 853:1 1102:2 1125:1 1175:1 1203:1 1221:1 1228:1 1230:3 1254:3 1261:1 1266:1 1269:1 1275:1 1281:1 1302:3 1316:1 1319:2 1322:1 1333:1 1338:3 1340:1 1361:5 1363:2 1368:5 1370:1 1374:1 1384:1 1393:1 1398:6 1400:2
1 175:1 241:1 288:1 623:1 631:1 715:1 1102:1 1125:1 1230:1 1254:1 1302:1 1319:1 1338:1 1340:1 1361:1 1368:1 1398:8
1 631:1 1368:1 1398:6
1 241:1 623:1 631:1 706:1 1102:1 1221:1 1302:1 1319:1 1361:1 1368:1 1398:4
1 631:1 1368:1 1398:3
1 631:1 1368:1 1398:5
1 631:1 1368:1 1398:6
1 631:1 1368:1 1398:3
1 631:1 1368:1 1398:3
1 631:1 1368:1 1398:5
1 175:1 241:1 288:1 528:1 616:1 623:1 631:1 713:1 1079:1 1102:1 1175:1 1228:1 1254:1 1289:1 1294:1 1302:1 1319:1 1338:1 1359:1 1361:1 1368:1 1374:1 1398:7 1400:34
1 631:1 1368:1 1398:6
1 631:1 1368:1 1398:6
1 631:1 1368:1 1398:7
1 175:1 241:1 288:1 623:1 631:1 715:1 1102:1 1125:1 1230:1 1254:1 1302:1 1319:1 1338:1 1340:1 1361:1 1368:1 1398:8
1 631:1 1368:1 1398:5
1 631:1 1368:1 1398:5
1 175:1 241:1 288:1 623:1 631:1 715:1 1102:1 1125:1 1230:1 1254:1 1302:1 1319:1 1338:1 1340:1 1361:1 1368:1 1398:8
1 631:1 1368:1 1398:3
1 457:1 1252:1 1398:4
1 631:1 1368:1 1398:6
1 175:1 241:1 288:1 623:1 631:1 635:1 706:1 715:1 722:1 1102:1 1125:1 1175:1 1221:1 1230:1 1239:1 1254:1 1302:1 1319:1 1338:1 1340:1 1361:1 1368:1 1370:1 1374:1 1398:3
1 631:1 1368:1 1398:6
1 175:1 241:1 256:1 288:1 623:1 631:1 713:1 715:1 853:1 1079:1 1102:1 1175:1 1228:1 1230:1 1254:1 1294:1 1302:1 1316:1 1319:1 1333:1 1338:1 1361:1 1368:1 1374:1 1398:2 1400:958
1 457:1 1252:1 1398:5
1 631:1 1368:1 1398:6
1 457:1 1252:1 1398:5
1 631:1 1368:1 1398:5
1 457:1 1252:1 1398:5
1 631:1 1368:1 1398:6
1 631:1 1368:1 1398:6
1 631:1 1368:1 1398:6
1 631:1 1368:1 1398:4
1 241:1 288:1 631:1 1302:1 1338:1 1368:1 1398:2
1 457:1 1252:1 1398:6
1 631:1 1368:1 1398:7
1 175:1 241:1 288:1 354:1 558:1 623:1 631:1 635:1 713:1 715:1 758:1 829:1 864:1 951:1 1057:1 1079:1 1102:1 1175:1 1228:1 1230:1 1254:1 1261:1 1274:1 1294:1 1302:1 1314:1 1319:1 1330:1 1338:1 1342:1 1361:1 1368:1 1369:1 1370:1 1374:1 1392:1 1398:2
1 631:1 1368:1 1398:7
1 175:1 241:1 288:1 623:1 631:1 635:1 1102:1 1125:1 1254:1 1302:1 1319:1 1338:1 1340:1 1361:1 1368:1 1370:1 1398:3
1 631:1 1368:1 1398:4
1 631:1 1368:1 1398:6
1 631:1 1368:1 1398:5
1 175:1 241:1 288:1 623:1 631:1 635:1 1102:1 1254:1 1302:1 1319:1 1338:1 1361:1 1368:1 1370:1 1398:4
1 631:1 1368:1 1398:5
1 631:1 1368:1 1398:6
1 631:1 1368:1 1398:5
1 631:1 1368:1 1398:6
1 631:1 1368:1 1398:6
1 631:1 1368:1 1398:6
1 631:1 1368:1 1398:3
1 631:1 1368:1 1398:3
1 631:1 1368:1 1398:3
1 175:1 241:1 288:1 623:1 631:1 715:1 1102:1 1125:1 1230:1 1254:1 1302:1 1319:1 1338:1 1340:1 1361:1 1368:1 1398:8
1 631:1 1368:1 1398:6
1 631:1 1368:1 1398:6
1 631:1 1368:1 1398:5
1 631:1 1368:1 1398:6
1 175:1 623:1 631:1 1102:1 1254:1 1319:1 1361:1 1368:1 1398:3
1 631:1 1368:1 1398:1
1 631:1 1368:1 1398:6
1 288:1 528:1 631:1 1289:1 1338:1 1368:1 1398:8
1 175:1 241:1 288:1 623:1 631:1 715:1 1079:1 1102:1 1230:1 1254:1 1294:1 1302:1 1319:1 1338:1 1361:1 1368:1 1398:4
1 457:1 1252:1 1398:4
1 175:1 484:1 528:1 623:1 631:1 635:1 1102:1 1125:1 1254:1 1262:1 1289:1 1319:1 1340:1 1361:1 1368:1 1370:1 1398:2
1 457:1 1252:1 1398:5
1 175:1 241:1 288:1 623:1 631:1 635:1 1102:1 1125:1 1254:1 1302:1 1319:1 1338:1 1340:1 1361:1 1368:1 1370:1 1398:5
1 631:1 1368:1 1398:7
1 631:1 1368:1 1398:6
1 175:1 241:1 256:1 288:2 623:3 631:5 635:1 636:1 713:1 715:3 911:1 1102:3 1125:1 1228:1 1230:3 1254:1 1302:1 1316:1 1319:3 1338:2 1340:1 1361:3 1362:1 1368:5 1370:1 1372:1 1398:7
1 623:1 631:1 1361:1 1368:1 1398:3
1 631:1 1368:1 1398:5
1 631:1 1368:1 1398:3
1 631:1 1368:1 1398:6
1 631:1 1368:1 1398:6
1 631:1 1368:1 1398:8
1 631:1 1368:1 1398:6
1 175:1 241:1 288:1 623:1 631:1 635:1 1102:1 1254:1 1302:1 1319:1 1338:1 1361:1 1368:1 1370:1 1398:4
1 631:1 1368:1 1398:6
1 288:1 631:1 1102:1 1319:1 1338:1 1368:1 1398:3
1 631:1 1368:1 1398:6
1 631:1 1368:1 1398:6
1 631:1 1368:1 1398:7
1 175:1 241:2 288:2 623:3 631:4 635:2 636:1 706:1 715:4 853:1 1102:2 1125:1 1221:1 1230:4 1254:1 1302:2 1319:2 1333:1 1338:2 1340:1 1361:3 1368:4 1370:2 1372:1 1398:6
1 175:1 241:1 288:1 623:1 631:1 635:1 1102:1 1125:1 1254:1 1302:1 1319:1 1338:1 1340:1 1361:1 1368:1 1370:1 1398:3
1 623:1 631:1 635:1 715:1 1102:1 1230:1 1319:1 1361:1 1368:1 1370:1 1398:4 1400:2
1 631:1 1368:1 1398:6
1 631:1 1368:1 1398:6
1 631:1 1368:1 1398:5
1 631:1 1368:1 1398:3
1 175:1 241:2 288:2 623:3 631:4 635:1 636:1 706:1 715:4 853:1 1102:2 1125:1 1221:1 1230:4 1254:1 1302:2 1319:2 1333:1 1338:2 1340:1 1361:3 1368:4 1370:1 1372:1 1398:6
1 457:1 1252:1 1398:5
1 457:1 1252:1 1398:5
1 175:1 241:1 288:1 631:1 715:1 1102:1 1230:1 1254:1 1302:1 1319:1 1338:1 1368:1 1398:2
1 631:1 1368:1 1398:5
1 631:1 1368:1 1398:5
1 175:1 241:1 256:1 288:1 623:1 631:1 635:1 636:1 715:1 758:1 829:1 864:1 1057:1 1102:1 1230:1 1254:1 1261:1 1274:1 1302:1 1314:1 1316:1 1319:1 1338:1 1342:1 1361:1 1368:1 1370:1 1372:1 1398:3
1 631:1 1368:1 1398:6
1 631:1 1368:1 1398:7
1 175:1 241:1 288:1 344:1 623:1 631:1 635:1 715:1 829:1 1057:1 1102:1 1125:1 1230:1 1254:1 1274:1 1302:1 1314:1 1319:1 1338:1 1340:1 1361:1 1363:1 1368:1 1370:1 1398:3
1 631:1 1368:1 1398:7
1 288:1 623:1 631:1 1102:1 1319:1 1338:1 1361:1 1368:1 1398:2
1 457:1 1252:1 1398:5
1 631:1 1368:1 1398:5
1 175:1 241:1 288:1 344:1 623:1 631:1 635:1 706:1 715:1 829:1 1102:1 1221:1 1230:1 1254:1 1302:1 1314:1 1319:1 1338:1 1361:1 1363:1 1368:1 1370:1 1398:3
1 631:1 1368:1 1398:5
1 631:1 1368:1 1398:5
1 175:1 241:1 288:1 623:1 631:1 715:1 832:1 1102:1 1230:1 1254:1 1302:1 1319:1 1320:1 1338:1 1361:1 1368:1 1398:3
1 631:1 1368:1 1398:6
1 175:1 241:1 256:1 288:1 344:1 558:1 623:1 631:1 636:1 694:1 706:1 713:1 715:1 758:1 790:1 804:1 829:1 864:1 1057:1 1102:1 1125:1 1175:1 1220:1 1221:1 1228:1 1230:1 1254:1 1261:1 1274:1 1275:1 1285:1 1302:1 1314:1 1316:1 1319:1 1330:1 1338:1 1340:1 1342:1 1361:1 1363:1 1368:1 1372:1 1374:1 1398:3
1 175:1 631:1 1254:1 1368:1 1398:4
1 631:1 1368:1 1398:6
1 631:1 1368:1 1398:6
1 631:1 1368:1 1398:4
1 175:1 241:1 288:1 623:1 631:1 635:1 1102:1 1125:1 1254:1 1302:1 1319:1 1338:1 1340:1 1361:1 1368:1 1370:1 1398:4
1 457:1 1252:1 1398:5
1 631:1 1368:1 1398:7
1 457:1 1252:1 1398:5
1 457:1 1252:1 1398:5
1 175:1 241:1 288:1 623:1 631:1 715:1 1102:1 1125:1 1230:1 1254:1 1302:1 1319:1 1338:1 1340:1 1361:1 1368:1 1398:8
1 631:1 1368:1 1398:6
1 354:1 623:1 631:1 713:1 1102:1 1228:1 1319:1 1361:1 1368:1 1369:1 1398:4
1 631:1 1368:1 1398:6
1 631:1 1368:1 1398:5
1 631:1 1368:1 1398:5
1 631:1 1102:1 1319:1 1368:1 1398:6
1 631:1 1368:1 1398:3
1 631:1 1368:1 1398:6
1 631:1 1368:1 1398:6
1 1398:2
1 631:1 1368:1 1398:3
1 631:1 1102:1 1319:1 1368:1 1398:2
1 631:1 1102:1 1319:1 1368:1 1398:2
1 457:1 1252:1 1398:6
1 241:1 288:1 336:1 344:1 616:1 623:1 631:1 715:1 722:1 829:1 832:1 849:1 1079:1 1080:1 1102:1 1125:1 1175:1 1230:1 1239:1 1294:1 1295:1 1302:1 1314:1 1319:1 1320:1 1329:1 1338:1 1340:1 1358:1 1359:1 1361:1 1363:1 1368:1 1374:1 1398:4
1 631:1 1368:1 1398:7
1 1398:2
1 631:1 1368:1 1398:6
1 175:1 241:1 288:1 623:1 631:1 635:1 1102:1 1125:1 1254:1 1302:1 1319:1 1338:1 1340:1 1361:1 1368:1 1370:1 1398:5
1 631:1 1368:1 1398:6
1 631:1 1368:1 1398:7
1 631:1 1368:1 1398:7
1 631:1 1368:1 1398:5
1 146:1 151:1 175:1 241:1 247:1 274:1 288:1 336:1 347:1 452:1 503:1 528:1 530:1 536:1 555:1 557:1 564:1 628:1 631:1 635:1 647:1 715:1 745:1 746:1 829:1 852:1 949:1 974:1 1031:1 1068:1 1088:1 1102:1 1162:1 1192:1 1217:1 1230:1 1236:1 1240:1 1250:1 1254:1 1255:1 1256:1 1257:1 1273:1 1284:1 1289:1 1290:1 1300:1 1302:1 1303:1 1310:1 1314:1 1319:1 1326:1 1327:1 1328:1 1332:1 1336:1 1338:1 1357:1 1358:1 1366:1 1367:1 1368:1 1370:1 1377:1 1385:1 1391:1 1398:5
1 631:1 1368:1 1398:6
1 175:1 241:1 288:1 623:1 631:1 635:1 1102:1 1125:1 1254:1 1302:1 1319:1 1338:1 1340:1 1361:1 1368:1 1370:1 1398:4
1 631:1 1368:1 1398:5
1 175:1 241:1 288:2 623:1 631:1 635:1 636:1 706:1 715:1 758:1 1102:1 1125:1 1175:1 1221:1 1230:1 1254:1 1261:1 1302:1 1319:1 1338:2 1340:1 1361:1 1368:1 1370:1 1372:1 1374:1 1398:4 1400:4252
1 457:1 1252:1 1398:3
1 631:1 1368:1 1398:5
1 175:1 241:1 288:1 623:1 631:1 635:1 1102:1 1125:1 1254:1 1302:1 1319:1 1338:1 1340:1 1361:1 1368:1 1370:1 1398:4
1 631:1 1368:1 1398:3
1 631:1 1368:1 1398:6
1 631:1 1368:1 1398:6
1 175:1 241:1 288:1 623:1 631:1 715:1 832:1 1102:1 1230:1 1254:1 1302:1 1319:1 1320:1 1338:1 1361:1 1368:1 1398:3
1 457:1 1252:1 1398:5
1 631:1 1368:1 1398:4
1 631:1 1368:1 1398:6
1 457:1 1252:1 1398:5
1 631:1 1368:1 1398:3
1 175:2 241:2 288:2 623:2 631:4 635:1 706:1 715:3 1102:2 1125:1 1175:1 1221:1 1230:3 1254:2 1302:2 1319:2 1338:2 1340:1 1361:2 1368:4 1370:1 1374:1 1398:6
1 631:1 1368:1 1398:6
1 1398:2
1 631:1 1368:1 1398:5
1 631:1 1368:1 1398:6
1 631:1 1368:1 1398:6
1 631:1 1368:1 1398:5
1 631:1 1102:1 1319:1 1368:1 1398:2
1 631:1 1368:1 1398:3
1 175:1 241:1 288:1 631:1 715:1 1102:1 1230:1 1254:1 1302:1 1319:1 1338:1 1368:1 1398:2
1 631:1 790:1 1275:1 1368:1 1398:3
1 631:1 1368:1 1398:3
1 175:1 241:2 256:1 288:1 623:2 631:7 635:1 636:1 706:1 715:3 1102:2 1125:1 1175:1 1221:1 1230:3 1254:1 1302:2 1316:1 1319:2 1338:1 1340:1 1361:2 1368:7 1370:1 1372:1 1374:1 1398:5
1 631:1 1368:1 1398:5
1 631:1 1368:1 1398:7
1 631:1 1102:1 1319:1 1368:1 1398:3
1 1398:3
1 1398:3
1 631:1 1368:1 1398:6
1 175:1 241:1 256:1 288:1 365:1 538:1 623:1 631:1 715:1 722:1 761:1 829:1 951:1 996:1 1079:1 1102:1 1125:1 1175:1 1230:1 1234:1 1239:1 1254:1 1264:1 1294:1 1302:1 1306:1 1314:1 1316:1 1319:1 1338:1 1340:1 1361:1 1368:1 1374:1 1384:1 1392:1 1398:3 1400:3287
1 631:1 1368:1 1398:7
1 631:1 1368:1 1398:6
1 631:1 1368:1 1398:5
1 631:1 1368:1 1398:4
1 631:1 1368:1 1398:5
1 457:1 1252:1 1398:5
1 631:1 1368:1 1398:7
1 241:1 623:1 631:1 1102:1 1302:1 1319:1 1361:1 1368:1 1398:3
1 457:1 1252:1 1398:3
1 631:1 1368:1 1398:3
1 631:1 1368:1 1398:4 1400:1
1 631:1 1368:1 1398:4
1 631:1 1368:1 1398:6
1 631:1 1368:1 1398:5
1 631:1 1368:1 1398:5
1 241:1 631:1 1302:1 1368:1 1398:2
1 631:1 1368:1 1398:6
1 631:1 1368:1 1398:7
1 631:1 1368:1 1398:7
1 175:1 241:1 288:1 623:1 631:1 635:1 1102:1 1125:1 1254:1 1302:1 1319:1 1338:1 1340:1 1361:1 1368:1 1370:1 1398:5
1 528:1 631:1 1289:1 1368:1 1398:5 1400:1
1 175:1 241:1 256:1 288:1 311:1 344:1 365:1 558:1 623:1 631:1 635:1 636:1 665:1 706:1 713:1 715:1 758:1 829:1 832:1 864:1 1057:1 1079:1 1083:1 1102:1 1175:1 1221:1 1228:1 1230:1 1254:1 1261:1 1274:1 1294:1 1298:1 1302:1 1314:1 1316:1 1319:1 1320:1 1330:1 1338:1 1342:1 1349:1 1361:1 1363:1 1368:1 1370:1 1372:1 1374:1 1384:1 1395:1 1398:5
1 631:1 1368:1 1398:5
1 631:1 1368:1 1398:7
1 631:1 1368:1 1398:5
1 1398:2
1 631:1 1368:1 1398:6
1 241:1 288:1 336:1 528:1 623:1 631:1 715:1 829:1 849:1 864:1 888:1 1057:1 1095:1 1102:1 1230:1 1274:1 1289:1 1302:1 1314:1 1315:1 1319:1 1329:1 1338:1 1342:1 1351:1 1358:1 1361:1 1368:1 1398:4
1 631:1 1368:1 1398:6
1 631:1 1368:1 1398:7
1 631:1 1368:1 1398:6
1 1398:3
1 175:1 241:2 288:2 623:3 631:4 635:2 636:1 706:1 715:4 853:1 1102:2 1125:1 1221:1 1230:4 1254:1 1302:2 1319:2 1333:1 1338:2 1340:1 1361:3 1368:4 1370:2 1372:1 1398:6
1 457:1 1252:1 1398:4
1 175:1 631:1 1102:1 1254:1 1319:1 1368:1 1398:3
1 631:1 1368:1 1398:7
1 631:1 1368:1 1398:6
1 631:1 1368:1 1398:6
1 631:1 1368:1 1398:6
1 631:1 1368:1 1398:6
1 631:1 1368:1 1398:5
1 457:1 1252:1 1398:5
1 175:1 241:1 288:1 551:1 623:1 631:1 635:1 706:1 715:1 1102:1 1125:1 1175:1 1221:1 1230:1 1254:1 1302:1 1319:1 1322:1 1338:1 1340:1 1361:1 1368:1 1370:1 1374:1 1398:3
1 175:1 241:1 288:1 623:1 631:1 635:1 706:1 715:1 853:1 911:1 1102:1 1125:1 1221:1 1230:1 1254:1 1302:1 1319:1 1333:1 1338:1 1340:1 1361:1 1362:1 1368:1 1370:1 1398:5 1400:3
1 175:1 241:1 288:1 623:1 631:1 635:1 1102:1 1125:1 1254:1 1302:1 1319:1 1338:1 1340:1 1361:1 1368:1 1370:1 1398:4
1 175:1 241:1 288:1 631:1 715:1 1102:1 1230:1 1254:1 1302:1 1319:1 1338:1 1368:1 1398:2
1 631:1 1368:1 1398:6
1 631:1 1368:1 1398:4
1 631:1 1368:1 1398:6
1 631:1 1368:1 1398:4
1 631:1 1368:1 1398:6
1 631:1 1102:1 1319:1 1368:1 1398:2
1 457:1 1252:1 1398:5
1 175:1 631:1 1102:1 1254:1 1319:1 1368:1 1398:3
1 631:1 1368:1 1398:6
1 1398:3
1 175:1 241:1 288:1 623:1 631:1 635:1 1102:1 1125:1 1254:1 1302:1 1319:1 1338:1 1340:1 1361:1 1368:1 1370:1 1398:5
1 631:1 1368:1 1398:6
1 631:1 1368:1 1398:5
1 631:1 1368:1 1398:6
1 631:1 1368:1 1398:4
1 631:1 1102:1 1319:1 1368:1 1398:6
1 457:1 1252:1 1398:5
1 175:1 241:1 288:1 623:1 631:1 715:1 1102:1 1125:1 1230:1 1254:1 1302:1 1319:1 1338:1 1340:1 1361:1 1368:1 1398:8
1 631:1 1368:1 1398:5
1 631:1 1368:1 1398:5
1 631:1 1368:1 1398:6
1 631:1 1368:1 1398:6
1 631:1 1368:1 1398:4
1 288:1 623:1 631:1 1102:1 1319:1 1338:1 1361:1 1368:1 1398:2
1 631:1 1368:1 1398:5
1 457:1 1252:1 1398:3
1 631:1 1368:1 1398:5
1 241:1 288:1 631:1 829:1 1102:1 1302:1 1314:1 1319:1 1338:1 1368:1 1398:4
1 631:1 1368:1 1398:6
1 631:1 1368:1 1398:6
1 631:1 1368:1 1398:6
1 175:1 241:1 288:1 623:1 631:1 715:1 1102:1 1125:1 1230:1 1254:1 1302:1 1319:1 1338:1 1340:1 1361:1 1368:1 1398:8
1 631:1 1368:1 1398:3
1 631:1 1368:1 1398:6
1 175:1 241:1 288:1 623:1 631:1 715:1 1102:1 1125:1 1230:1 1254:1 1302:1 1319:1 1338:1 1340:1 1361:1 1368:1 1398:8
1 631:1 1368:1 1398:5
1 1398:2
1 631:1 1368:1 1398:6
1 175:1 241:1 288:1 623:1 631:1 715:1 1102:1 1125:1 1230:1 1254:1 1302:1 1319:1 1338:1 1340:1 1361:1 1368:1 1398:8
1 175:1 241:1 288:1 631:1 715:1 1102:1 1230:1 1254:1 1302:1 1319:1 1338:1 1368:1 1398:2
1 457:1 1252:1 1398:4
1 631:1 1368:1 1398:4
1 631:1 1368:1 1398:6
1 288:1 631:1 1102:1 1319:1 1338:1 1368:1 1398:3
1 175:1 241:1 288:1 623:1 631:1 715:1 1102:1 1125:1 1230:1 1254:1 1302:1 1319:1 1338:1 1340:1 1361:1 1368:1 1398:8
1 631:1 1368:1 1398:2
1 631:1 1368:1 1398:5
1 631:1 1368:1 1398:6
1 175:1 484:1 528:1 623:1 631:1 635:1 1102:1 1125:1 1254:1 1262:1 1289:1 1319:1 1340:1 1361:1 1368:1 1370:1 1398:4
1 631:1 1368:1 1398:6
1 631:1 1368:1 1398:5
1 241:1 288:1 336:1 528:1 623:1 631:1 715:1 829:1 849:1 864:1 888:1 1057:1 1095:1 1102:1 1230:1 1274:1 1289:1 1302:1 1314:1 1315:1 1319:1 1329:1 1338:1 1342:1 1351:1 1358:1 1361:1 1368:1 1398:4
1 631:1 1368:1 1398:6
1 457:1 1252:1 1398:5
1 241:1 288:1 336:1 528:1 623:1 631:1 715:1 829:1 849:1 864:1 888:1 1057:1 1095:1 1102:1 1230:1 1274:1 1289:1 1302:1 1314:1 1315:1 1319:1 1329:1 1338:1 1342:1 1351:1 1358:1 1361:1 1368:1 1398:4
1 631:1 1368:1 1398:6
1 631:1 1368:1 1398:5
1 631:1 1368:1 1398:6
1 457:1 1252:1 1398:5
1 623:1 631:1 1102:1 1319:1 1361:1 1368:1 1398:3
1 175:1 241:1 288:1 623:1 631:1 635:1 1102:1 1125:1 1254:1 1302:1 1319:1 1338:1 1340:1 1361:1 1368:1 1370:1 1398:4
1 457:1 1252:1 1398:5
1 631:1 1368:1 1398:5
1 631:1 1102:1 1319:1 1368:1 1398:3
1 631:1 1368:1 1398:6
1 631:1 1368:1 1398:3
1 631:1 1368:1 1398:6
1 631:1 1368:1 1398:3
1 631:1 1368:1 1398:5
1 623:1 631:1 1102:1 1319:1 1361:1 1368:1 1398:3
1 1398:2
1 631:1 1368:1 1398:6
1 623:2 631:2 635:1 715:1 1102:2 1230:1 1319:2 1361:2 1368:2 1370:1 1398:7
1 631:1 1368:1 1398:6
1 457:1 1252:1 1398:4
1 631:1 1368:1 1398:5
1 631:1 1102:1 1319:1 1368:1 1398:2
1 175:1 241:1 288:1 623:1 631:1 715:1 1102:1 1125:1 1230:1 1254:1 1302:1 1319:1 1338:1 1340:1 1361:1 1368:1 1398:8
1 631:1 1368:1 1398:7
1 631:1 1368:1 1398:5
1 457:1 1252:1 1398:4
1 631:1 1368:1 1398:2
1 631:1 1102:1 1319:1 1368:1 1398:3
1 457:1 1252:1 1398:5
1 631:1 1368:1 1398:6
1 1398:3
1 175:1 241:1 288:1 631:2 715:1 1102:1 1230:1 1254:1 1302:1 1319:1 1338:1 1368:2 1398:7
1 457:1 1252:1 1398:5
1 175:1 241:1 288:1 623:1 631:1 635:1 1102:1 1125:1 1254:1 1302:1 1319:1 1338:1 1340:1 1361:1 1368:1 1370:1 1398:4
1 175:1 241:1 288:1 623:1 631:1 635:1 1102:1 1125:1 1254:1 1302:1 1319:1 1338:1 1340:1 1361:1 1368:1 1370:1 1398:4
1 1398:3
1 631:1 1368:1 1398:7
1 175:1 623:1 631:1 635:1 1102:1 1254:1 1319:1 1361:1 1368:1 1370:1 1398:1
1 175:1 631:1 1102:1 1254:1 1319:1 1368:1 1398:5
1 1398:2
1 631:1 1368:1 1398:6
1 288:1 623:1 631:1 1102:1 1319:1 1338:1 1361:1 1368:1 1398:3
1 241:1 288:1 336:1 528:1 623:1 631:1 715:1 829:1 849:1 864:1 888:1 1057:1 1095:1 1102:1 1230:1 1274:1 1289:1 1302:1 1314:1 1315:1 1319:1 1329:1 1338:1 1342:1 1351:1 1358:1 1361:1 1368:1 1398:4
1 631:1 1368:1 1398:5
1 175:1 241:1 288:1 631:1 715:1 1102:1 1230:1 1254:1 1302:1 1319:1 1338:1 1368:1 1398:2
1 631:1 1368:1 1398:2
1 241:1 631:1 1302:1 1368:1 1398:6
1 457:1 1252:1 1398:5
1 631:1 1102:1 1319:1 1368:1 1398:3
1 1398:2
1 631:1 1368:1 1398:7
1 175:1 241:1 288:1 623:1 631:1 635:1 1102:1 1125:1 1254:1 1302:1 1319:1 1338:1 1340:1 1361:1 1368:1 1370:1 1398:3
1 175:1 241:1 288:1 623:1 631:1 951:1 1102:1 1254:1 1302:1 1319:1 1338:1 1361:1 1368:1 1392:1 1398:2
1 175:1 241:1 288:1 558:1 623:1 631:1 635:1 706:1 715:1 829:1 951:1 1102:1 1125:1 1221:1 1230:1 1254:1 1302:1 1314:1 1319:1 1330:1 1338:1 1340:1 1361:1 1368:1 1370:1 1392:1 1398:2
1 631:1 1368:1 1398:7
1 631:1 1368:1 1398:6
1 631:1 1368:1 1398:7
1 175:1 241:1 288:1 623:1 631:1 635:1 1102:1 1125:1 1254:1 1302:1 1319:1 1338:1 1340:1 1361:1 1368:1 1370:1 1398:4
1 241:1 288:1 336:1 528:1 623:1 631:1 715:1 829:1 849:1 864:1 888:1 1057:1 1095:1 1102:1 1230:1 1274:1 1289:1 1302:1 1314:1 1315:1 1319:1 1329:1 1338:1 1342:1 1351:1 1358:1 1361:1 1368:1 1398:4
1 631:1 1368:1 1398:6
1 175:1 484:1 528:1 623:1 631:1 635:1 1102:1 1125:1 1254:1 1262:1 1289:1 1319:1 1340:1 1361:1 1368:1 1370:1 1398:4
1 631:1 1368:1 1398:7
1 631:1 1368:1 1398:7
1 631:1 1368:1 1398:6
1 631:1 1368:1 1398:5
1 631:1 1368:1 1398:5
1 175:1 241:1 288:1 623:1 631:1 635:1 1102:1 1125:1 1254:1 1302:1 1319:1 1338:1 1340:1 1361:1 1368:1 1370:1 1398:4
1 457:1 1252:1 1398:5
1 241:1 288:1 528:1 631:1 715:1 1102:1 1230:1 1289:1 1302:1 1319:1 1338:1 1368:1 1398:4
1 631:1 1368:1 1398:6
1 631:1 1368:1 1398:5
1 631:1 1368:1 1398:5
1 631:1 1368:1 1398:6
1 631:1 1368:1 1398:5
1 631:1 1368:1 1398:6
1 457:1 1252:1 1398:5
1 175:1 241:1 288:1 623:1 631:1 715:1 1102:1 1125:1 1230:1 1254:1 1302:1 1319:1 1338:1 1340:1 1361:1 1368:1 1398:8
1 175:1 241:2 288:2 551:2 623:2 631:6 635:1 715:3 758:1 1102:2 1125:1 1230:3 1254:1 1261:1 1302:2 1319:2 1322:2 1338:2 1340:1 1361:2 1368:6 1370:1 1398:7
1 175:1 241:1 288:1 344:1 551:1 616:1 623:1 631:1 635:1 706:1 715:1 722:1 853:1 864:1 1080:1 1102:1 1125:1 1175:1 1221:1 1230:1 1239:1 1254:1 1295:1 1302:1 1319:1 1322:1 1333:1 1338:1 1340:1 1342:1 1359:1 1361:1 1363:1 1368:1 1370:1 1374:1 1398:3
1 241:1 288:1 336:1 528:1 623:1 631:1 715:1 829:1 849:1 864:1 888:1 1057:1 1095:1 1102:1 1230:1 1274:1 1289:1 1302:1 1314:1 1315:1 1319:1 1329:1 1338:1 1342:1 1351:1 1358:1 1361:1 1368:1 1398:4
1 241:1 623:1 631:1 1102:1 1302:1 1319:1 1361:1 1368:1 1398:2
1 631:1 1368:1 1398:5
1 631:1 1368:1 1398:6
1 457:1 1252:1 1398:4
1 631:1 1368:1 1398:3
1 631:1 1368:1 1398:6
1 631:1 1102:1 1319:1 1368:1 1398:3
1 631:1 1368:1 1398:6
1 631:1 1368:1 1398:5
1 631:1 1368:1 1398:5
1 631:1 1368:1 1398:5
1 175:1 241:1 288:1 631:1 715:1 1102:1 1230:1 1254:1 1302:1 1319:1 1338:1 1368:1 1398:3
1 631:1 1368:1 1398:5
1 175:1 241:1 288:1 551:1 623:1 631:1 635:1 706:1 715:1 832:1 1102:1 1221:1 1230:1 1254:1 1302:1 1319:1 1320:1 1322:1 1338:1 1361:1 1368:1 1370:1 1398:2
1 175:1 241:1 288:1 623:1 631:1 715:1 1102:1 1125:1 1230:1 1254:1 1302:1 1319:1 1338:1 1340:1 1361:1 1368:1 1398:8
1 175:1 241:1 288:1 623:1 631:1 715:1 1102:1 1125:1 1230:1 1254:1 1302:1 1319:1 1338:1 1340:1 1361:1 1368:1 1398:8
1 631:1 1368:1 1398:8
1 145:1 175:1 241:1 256:1 288:1 354:1 623:1 631:1 635:1 713:1 715:1 722:1 758:1 1079:1 1093:1 1102:1 1228:1 1230:1 1237:1 1239:1 1254:1 1261:1 1294:1 1302:1 1313:1 1316:1 1319:1 1338:1 1361:1 1368:1 1369:1 1370:1 1398:3 1400:78
1 631:1 1368:1 1398:4
1 631:1 1368:1 1398:3
1 631:1 1368:1 1398:3
1 631:1 1368:1 1398:5
1 631:1 1102:1 1319:1 1368:1 1398:2
1 631:1 1368:1 1398:6
1 175:1 241:1 288:1 623:1 631:1 635:1 1102:1 1254:1 1302:1 1319:1 1338:1 1361:1 1368:1 1370:1 1398:3
1 631:1 1368:1 1398:7
1 631:1 1368:1 1398:6
1 457:1 1252:1 1398:4
1 631:1 1368:1 1398:4
1 175:1 241:1 288:1 623:1 631:1 635:1 1102:1 1125:1 1254:1 1302:1 1319:1 1338:1 1340:1 1361:1 1368:1 1370:1 1398:5
1 175:1 241:2 288:2 623:2 631:2 635:1 706:1 715:2 853:1 1102:2 1125:1 1221:1 1230:2 1254:1 1302:2 1319:2 1333:1 1338:2 1340:1 1361:2 1368:2 1370:1 1398:8
1 631:1 1368:1 1398:6
1 631:1 1368:1 1398:6
1 631:1 1368:1 1398:6
1 457:1 1252:1 1398:4
1 457:1 1252:1 1398:5
1 175:1 631:1 1254:1 1368:1 1398:2
1 631:1 1368:1 1398:6
1 631:1 1102:1 1319:1 1368:1 1398:3
1 631:1 1368:1 1398:7
1 631:1 1368:1 1398:7
1 631:1 1368:1 1398:8
1 175:1 241:1 288:1 631:1 715:1 1102:1 1230:1 1254:1 1302:1 1319:1 1338:1 1368:1 1398:2
1 175:1 241:1 288:1 623:1 631:1 715:1 1102:1 1125:1 1230:1 1254:1 1302:1 1319:1 1338:1 1340:1 1361:1 1368:1 1398:8
1 631:1 1368:1 1398:5
1 175:1 241:1 288:1 623:1 631:1 635:1 1102:1 1125:1 1254:1 1302:1 1319:1 1338:1 1340:1 1361:1 1368:1 1370:1 1398:4
1 631:1 1368:1 1398:5
1 631:1 1368:1 1398:7
1 631:1 1368:1 1398:6
1 631:1 1368:1 1398:3
1 631:1 1368:1 1398:6
1 631:1 1368:1 1398:6
1 631:1 1368:1 1398:5
1 631:1 1368:1 1398:4
1 631:1 1368:1 1398:7
1 631:1 1368:1 1398:6
1 631:1 1368:1 1398:4
1 175:1 241:1 288:1 623:1 631:1 635:1 1102:1 1125:1 1254:1 1302:1 1319:1 1338:1 1340:1 1361:1 1368:1 1370:1 1398:4
1 457:1 1252:1 1398:5
1 631:1 1368:1 1398:3
1 631:1 1368:1 1398:5
1 631:1 1368:1 1398:4
1 175:1 241:1 288:1 623:1 631:1 715:1 1102:1 1125:1 1230:1 1254:1 1302:1 1319:1 1338:1 1340:1 1361:1 1368:1 1398:8
1 631:1 1102:1 1319:1 1368:1 1398:4
1 175:1 631:1 1102:1 1254:1 1319:1 1368:1 1398:2
1 175:1 631:1 1102:1 1254:1 1319:1 1368:1 1398:6
1 631:1 1102:1 1319:1 1368:1 1398:3
1 631:1 1368:1 1398:7
1 631:1 1368:1 1398:5
1 631:1 1368:1 1398:6
1 175:1 241:1 288:1 623:1 631:1 635:1 1102:1 1125:1 1254:1 1302:1 1319:1 1338:1 1340:1 1361:1 1368:1 1370:1 1398:5
1 631:1 1368:1 1398:6
1 457:1 1252:1 1398:4
1 631:1 1368:1 1398:3
1 175:1 241:1 288:1 631:1 715:1 1102:1 1230:1 1254:1 1302:1 1319:1 1338:1 1368:1 1398:2
1 631:1 1102:1 1319:1 1368:1 1398:4 1400:1
1 623:1 631:1 1361:1 1368:1 1398:3
1 631:1 1368:1 1398:5
1 1398:3
1 175:1 241:1 288:1 631:1 715:1 1102:1 1230:1 1254:1 1302:1 1319:1 1338:1 1368:1 1398:2
1 175:1 241:1 288:1 623:1 631:1 635:1 1102:1 1125:1 1254:1 1302:1 1319:1 1338:1 1340:1 1361:1 1368:1 1370:1 1398:5
1 241:1 288:1 336:1 528:1 623:1 631:1 715:1 829:1 849:1 864:1 888:1 1057:1 1095:1 1102:1 1230:1 1274:1 1289:1 1302:1 1314:1 1315:1 1319:1 1329:1 1338:1 1342:1 1351:1 1358:1 1361:1 1368:1 1398:4
1 631:1 1368:1 1398:7
1 631:1 1368:1 1398:5
1 175:1 241:1 288:1 623:1 631:1 635:1 1102:1 1125:1 1254:1 1302:1 1319:1 1338:1 1340:1 1361:1 1368:1 1370:1 1398:3
1 631:1 1368:1 1398:3
1 631:1 1368:1 1398:5
1 631:1 1368:1 1398:6
1 528:1 631:1 1289:1 1368:1 1398:3
1 1398:2
1 631:1 1368:1 1398:5
1 631:1 1368:1 1398:7
1 631:1 1368:1 1398:7
1 457:1 1252:1 1398:4
1 631:1 1368:1 1398:6
1 631:1 1368:1 1398:6
1 631:1 1368:1 1398:6
1 631:1 1368:1 1398:4
1 1398:3
1 457:1 1252:1 1398:5
1 631:1 1368:1 1398:6
1 631:1 1368:1 1398:5
1 175:1 241:1 288:1 528:1 623:1 631:1 635:1 715:1 1102:1 1230:1 1254:1 1289:1 1302:1 1319:1 1338:1 1361:1 1368:1 1370:1 1398:1
1 175:1 241:1 288:1 514:1 623:1 631:1 635:1 636:1 694:1 706:1 713:1 715:1 758:1 829:1 864:1 1057:1 1102:1 1175:1 1220:1 1221:1 1228:1 1230:1 1254:1 1261:1 1274:1 1279:1 1302:1 1314:1 1319:1 1338:1 1342:1 1361:1 1368:1 1370:1 1372:1 1374:1 1398:5
1 175:1 241:1 288:1 623:1 631:1 635:1 706:1 715:1 1102:1 1125:1 1221:1 1230:1 1254:1 1302:1 1319:1 1338:1 1340:1 1361:1 1368:1 1370:1 1398:3
1 1398:3
1 175:1 241:1 288:1 623:1 631:1 635:1 1102:1 1254:1 1302:1 1319:1 1338:1 1361:1 1368:1 1370:1 1398:3
1 175:1 241:1 288:1 623:1 631:1 635:1 715:1 758:1 829:1 832:1 1102:1 1230:1 1254:1 1261:1 1302:1 1314:1 1319:1 1320:1 1338:1 1361:1 1368:1 1370:1 1398:1
1 631:1 1368:1 1398:5
1 631:1 1368:1 1398:7
1 1398:2
1 631:1 1368:1 1398:6
1 175:1 241:1 288:1 623:1 631:1 635:1 1102:1 1125:1 1254:1 1302:1 1319:1 1338:1 1340:1 1361:1 1368:1 1370:1 1398:5
1 631:1 1368:1 1398:6
1 631:1 1368:1 1398:6
1 631:1 1102:1 1319:1 1368:1 1398:2
1 288:1 631:1 1102:1 1319:1 1338:1 1368:1 1398:3
1 175:1 241:1 288:1 631:1 715:1 1102:1 1230:1 1254:1 1302:1 1319:1 1338:1 1368:1 1398:2
1 175:1 241:1 288:1 623:1 631:1 635:1 1102:1 1125:1 1254:1 1302:1 1319:1 1338:1 1340:1 1361:1 1368:1 1370:1 1398:4
1 631:1 1368:1 1398:6
1 631:1 1368:1 1398:5
1 631:1 1368:1 1398:6
1 457:1 1252:1 1398:5
1 175:1 241:1 288:1 344:1 484:1 495:1 623:1 631:1 713:1 715:1 832:1 1102:1 1125:1 1177:1 1228:1 1230:1 1254:1 1262:1 1269:1 1302:1 1319:1 1320:1 1338:1 1340:1 1361:1 1363:1 1368:1 1375:1 1398:3
1 631:1 1368:1 1398:6
1 175:1 241:1 288:1 623:1 631:1 715:1 1102:1 1125:1 1230:1 1254:1 1302:1 1319:1 1338:1 1340:1 1361:1 1368:1 1398:8
1 175:1 241:1 288:1 623:1 631:1 635:1 1102:1 1125:1 1254:1 1302:1 1319:1 1338:1 1340:1 1361:1 1368:1 1370:1 1398:4
1 631:1 1368:1 1398:6
1 457:1 1252:1 1398:5
1 631:1 1368:1 1398:5
1 631:1 1368:1 1398:6
1 631:1 1368:1 1398:6
1 631:1 1368:1 1398:6
1 457:1 1252:1 1398:5
1 631:1 1368:1 1398:5
1 631:1 1368:1 1398:6
1 631:1 1368:1 1398:2
1 631:1 1368:1 1398:3
1 631:1 1368:1 1398:7
1 631:1 1368:1 1398:5
1 631:1 1368:1 1398:5
1 631:1 1368:1 1398:3
1 457:1 1252:1 1398:5
1 631:1 1368:1 1398:5
1 457:1 1252:1 1398:4
1 457:1 1252:1 1398:5
1 1398:2
1 457:1 1252:1 1398:4
1 175:1 241:1 623:2 631:4 635:1 715:3 1102:2 1125:1 1230:3 1254:1 1302:1 1319:2 1340:1 1361:2 1368:4 1370:1 1398:7
1 175:1 241:1 288:1 631:1 715:1 1102:1 1230:1 1254:1 1302:1 1319:1 1338:1 1368:1 1398:2
1 241:1 288:1 336:1 528:1 623:1 631:1 715:1 829:1 849:1 864:1 888:1 1057:1 1095:1 1102:1 1230:1 1274:1 1289:1 1302:1 1314:1 1315:1 1319:1 1329:1 1338:1 1342:1 1351:1 1358:1 1361:1 1368:1 1398:4
1 631:1 1368:1 1398:8
1 631:1 1368:1 1398:6
1 457:1 1252:1 1398:5
1 631:1 1368:1 1398:3
1 631:1 1368:1 1398:6
1 457:1 1252:1 1398:6
1 631:1 1368:1 1398:5
1 631:1 1102:1 1319:1 1368:1 1398:4
1 175:1 241:1 288:1 623:1 631:1 635:1 1102:1 1125:1 1254:1 1302:1 1319:1 1338:1 1340:1 1361:1 1368:1 1370:1 1398:3
1 457:1 1252:1 1398:3
1 631:1 1368:1 1398:7
1 457:1 1252:1 1398:5
1 631:1 1368:1 1398:4
1 175:1 241:1 288:1 631:1 715:1 1102:1 1230:1 1254:1 1302:1 1319:1 1338:1 1368:1 1398:2
1 631:1 1368:1 1398:6
1 175:1 241:4 259:1 271:1 288:2 623:2 631:5 635:1 636:1 706:1 715:3 1102:2 1125:1 1221:1 1230:3 1254:1 1302:4 1317:1 1319:2 1324:1 1338:2 1340:1 1361:2 1368:5 1370:1 1372:1 1398:6
1 457:1 1252:1 1398:5
1 623:1 631:1 635:1 715:1 1102:1 1230:1 1319:1 1361:1 1368:1 1370:1 1398:4 1400:2
1 631:1 1368:1 1398:3
1 631:1 1368:1 1398:6
1 175:1 241:1 288:1 623:1 631:1 635:1 1102:1 1125:1 1254:1 1302:1 1319:1 1338:1 1340:1 1361:1 1368:1 1370:1 1398:5
1 631:1 1368:1 1398:6
1 175:1 241:1 288:1 623:1 631:1 635:1 1102:1 1125:1 1254:1 1302:1 1319:1 1338:1 1340:1 1361:1 1368:1 1370:1 1398:4
1 288:1 631:1 1102:1 1319:1 1338:1 1368:1 1398:3
1 457:1 1252:1 1398:5
1 631:1 1368:1 1398:8
1 175:1 241:1 288:1 623:1 631:1 715:1 1102:1 1125:1 1230:1 1254:1 1302:1 1319:1 1338:1 1340:1 1361:1 1368:1 1398:8
1 631:1 1368:1 1398:3
1 457:1 1252:1 1398:4
1 631:1 1368:1 1398:4
1 631:1 1368:1 1398:5
1 631:1 1102:1 1319:1 1368:1 1398:4
1 631:1 1368:1 1398:5
1 175:1 241:1 288:1 623:1 631:1 635:1 1102:1 1125:1 1254:1 1302:1 1319:1 1338:1 1340:1 1361:1 1368:1 1370:1 1398:4
1 631:1 1368:1 1398:6
1 631:1 1368:1 1398:2
1 631:1 1368:1 1398:3
1 631:1 1368:1 1398:6
1 175:1 241:1 288:1 631:1 715:1 1102:1 1230:1 1254:1 1302:1 1319:1 1338:1 1368:1 1398:2
1 631:1 1368:1 1398:4
1 631:1 1368:1 1398:5
1 631:1 1368:1 1398:6
1 631:1 1368:1 1398:7
1 631:1 1368:1 1398:6
1 175:1 241:1 288:1 344:1 631:1 635:1 713:1 715:1 829:1 853:1 864:1 1102:1 1125:1 1177:1 1228:1 1230:1 1254:1 1302:1 1314:1 1319:1 1333:1 1338:1 1340:1 1342:1 1363:1 1368:1 1370:1 1375:1 1398:3
1 631:1 1368:1 1398:4
1 631:1 1368:1 1398:5
1 175:1 631:1 1102:1 1254:1 1319:1 1368:1 1398:3
1 631:1 1368:1 1398:4
1 631:1 1368:1 1398:6
1 631:1 1368:1 1398:7
1 175:1 241:1 288:1 623:1 631:1 715:1 1102:1 1125:1 1230:1 1254:1 1302:1 1319:1 1338:1 1340:1 1361:1 1368:1 1398:8
1 623:1 631:1 1361:1 1368:1 1398:3
1 175:1 241:1 288:1 623:1 631:1 715:1 1079:1 1102:1 1230:1 1254:1 1294:1 1302:1 1319:1 1338:1 1361:1 1368:1 1398:4
1 218:1 241:1 318:1 354:1 535:1 623:1 631:1 649:1 713:1 722:1 782:1 1079:1 1102:1 1182:1 1228:1 1239:1 1271:1 1277:1 1294:1 1299:1 1302:1 1319:1 1352:1 1361:1 1368:1 1369:1 1379:1 1382:1 1398:2 1400:375
1 631:1 1368:1 1398:6
1 631:1 1102:1 1319:1 1368:1 1398:6
1 288:1 623:1 631:1 1102:1 1319:1 1338:1 1361:1 1368:1 1398:2
1 631:1 1368:1 1398:7
1 631:1 1368:1 1398:6
1 175:1 484:1 528:1 623:1 631:1 635:1 1102:1 1125:1 1254:1 1262:1 1289:1 1319:1 1340:1 1361:1 1368:1 1370:1 1398:4
1 457:1 1252:1 1398:4
1 558:1 631:1 1330:1 1368:1 1398:3
1 631:1 1368:1 1398:3
1 631:1 1368:1 1398:4
1 631:1 1368:1 1398:7
1 631:1 1368:1 1398:6
1 631:1 1102:1 1319:1 1368:1 1398:5
1 457:1 1252:1 1398:5
1 631:1 1368:1 1398:7
1 631:1 1102:1 1319:1 1368:1 1398:4
1 175:1 241:1 288:1 623:1 631:1 635:1 1102:1 1125:1 1254:1 1302:1 1319:1 1338:1 1340:1 1361:1 1368:1 1370:1 1398:3
1 631:1 1368:1 1398:8
1 631:1 1368:1 1398:5
1 631:1 1368:1 1398:5
1 1398:3
1 631:1 1368:1 1398:6
1 623:2 631:2 635:1 715:1 1102:2 1230:1 1319:2 1361:2 1368:2 1370:1 1398:7
1 631:1 1102:1 1319:1 1368:1 1398:4 1400:1
1 457:1 1252:1 1398:5
1 631:1 1368:1 1398:3
1 631:1 1368:1 1398:5
1 631:1 1368:1 1398:6
1 631:1 1368:1 1398:6
1 146:1 151:1 175:1 228:1 239:1 247:1 274:1 295:1 318:1 347:1 355:1 437:1 452:1 503:1 530:1 536:1 539:1 557:1 563:1 564:1 570:1 598:1 609:1 628:1 635:1 647:1 649:1 685:1 745:1 792:1 807:1 949:1 970:1 974:1 994:1 1006:1 1031:1 1068:1 1102:1 1115:1 1133:1 1162:1 1192:1 1215:1 1216:1 1217:1 1232:1 1236:1 1240:1 1241:1 1243:1 1250:1 1254:1 1255:1 1257:1 1258:1 1263:1 1267:1 1273:1 1276:1 1284:1 1286:1 1287:1 1290:1 1300:1 1304:1 1307:1 1310:1 1319:1 1326:1 1327:1 1331:1 1335:1 1336:1 1339:1 1341:1 1344:1 1352:1 1353:1 1355:1 1356:1 1357:1 1366:1 1367:1 1370:1 1371:1 1373:1 1377:1 1378:1 1382:1 1385:1 1391:1 1398:4
1 175:1 241:1 256:1 288:1 344:1 558:1 623:1 631:1 636:1 694:1 706:1 713:1 715:1 758:1 790:1 804:1 829:1 864:1 1057:1 1102:1 1125:1 1175:1 1220:1 1221:1 1228:1 1230:1 1254:1 1261:1 1274:1 1275:1 1285:1 1302:1 1314:1 1316:1 1319:1 1330:1 1338:1 1340:1 1342:1 1361:1 1363:1 1368:1 1372:1 1374:1 1398:3
1 631:1 1368:1 1398:6
1 175:1 223:1 241:1 288:1 311:1 336:1 368:1 453:1 484:1 528:1 623:1 631:1 635:1 713:1 715:1 742:1 782:1 829:1 832:1 911:1 1083:1 1093:1 1102:1 1125:1 1228:1 1230:1 1251:1 1253:1 1254:1 1262:1 1271:1 1282:1 1289:1 1298:1 1302:1 1313:1 1314:1 1319:1 1320:1 1338:1 1340:1 1349:1 1358:1 1361:1 1362:1 1368:1 1370:1 1386:1 1398:3
1 631:1 1368:1 1398:4
1 241:1 631:1 1302:1 1368:1 1398:6
1 631:1 1368:1 1398:4
1 1398:3
1 631:1 1368:1 1398:6
1 631:1 1368:1 1398:6
1 457:1 1252:1 1398:5
1 175:1 241:1 288:1 344:1 495:1 551:1 558:1 616:1 623:1 631:1 635:1 636:1 665:1 706:1 713:1 715:1 722:1 758:1 829:1 1102:1 1125:1 1175:1 1221:1 1228:1 1230:1 1239:1 1254:1 1261:1 1269:1 1302:1 1314:1 1319:1 1322:1 1330:1 1338:1 1340:1 1359:1 1361:1 1363:1 1368:1 1370:1 1372:1 1374:1 1395:1 1398:2
1 631:1 1368:1 1398:5
1 457:1 1252:1 1398:5
1 631:1 1368:1 1398:6
1 631:1 1368:1 1398:5
1 631:1 1368:1 1398:5
1 631:1 1368:1 1398:7
1 1398:2
1 623:1 631:1 1102:1 1319:1 1361:1 1368:1 1398:5
1 631:1 1368:1 1398:5
1 631:1 1368:1 1398:5
1 288:1 631:1 1338:1 1368:1 1398:4
1 175:1 241:1 288:1 631:1 715:1 1102:1 1230:1 1254:1 1302:1 1319:1 1338:1 1368:1 1398:2
1 175:1 241:2 288:2 623:2 631:4 635:1 706:1 715:3 804:1 828:1 853:1 1102:2 1125:1 1175:1 1221:1 1230:3 1254:1 1285:1 1302:2 1312:1 1319:2 1333:1 1338:2 1340:1 1361:2 1368:4 1370:1 1374:1 1398:7
1 631:1 1368:1 1398:4
1 631:1 1368:1 1398:4
1 175:1 241:1 288:1 623:1 631:1 635:1 636:1 706:1 829:1 1102:1 1175:1 1221:1 1254:1 1302:1 1314:1 1319:1 1338:1 1361:1 1368:1 1370:1 1372:1 1374:1 1398:3
1 631:1 1368:1 1398:6
1 631:1 1368:1 1398:6
1 631:1 1368:1 1398:3
1 631:1 1368:1 1398:7
1 175:1 241:1 288:1 631:1 715:1 1102:1 1230:1 1254:1 1302:1 1319:1 1338:1 1368:1 1398:2
1 175:1 241:1 288:1 623:1 631:1 635:1 1102:1 1125:1 1254:1 1302:1 1319:1 1338:1 1340:1 1361:1 1368:1 1370:1 1398:4
1 631:1 1368:1 1398:6
1 631:1 1368:1 1398:7
1 175:1 241:1 288:1 631:1 715:1 1102:1 1230:1 1254:1 1302:1 1319:1 1338:1 1368:1 1398:3
1 631:1 1368:1 1398:5
1 175:1 241:1 288:1 623:1 631:1 635:1 1102:1 1125:1 1254:1 1302:1 1319:1 1338:1 1340:1 1361:1 1368:1 1370:1 1398:5
1 457:1 1252:1 1398:5
1 631:1 1368:1 1398:5
1 631:1 1368:1 1398:8
1 1398:3
1 631:1 1102:1 1319:1 1368:1 1398:4
1 631:1 1368:1 1398:6
1 631:1 715:1 1102:1 1230:1 1319:1 1368:1 1398:4
1 631:1 1368:1 1398:7
1 631:1 1102:1 1319:1 1368:1 1398:1
1 457:1 1252:1 1398:5
1 631:1 1368:1 1398:4
1 457:1 1252:1 1398:4
1 241:1 288:1 336:1 528:1 623:1 631:1 715:1 829:1 849:1 864:1 888:1 1057:1 1095:1 1102:1 1230:1 1274:1 1289:1 1302:1 1314:1 1315:1 1319:1 1329:1 1338:1 1342:1 1351:1 1358:1 1361:1 1368:1 1398:4
1 175:1 241:1 288:1 623:1 631:1 635:1 1102:1 1125:1 1254:1 1302:1 1319:1 1338:1 1340:1 1361:1 1368:1 1370:1 1398:4
1 457:1 1252:1 1398:5
1 631:1 1368:1 1398:5
1 631:1 1368:1 1398:6
1 631:1 1368:1 1398:6
1 175:1 631:1 1102:1 1254:1 1319:1 1368:1 1398:3
1 631:1 1368:1 1398:5
1 1398:3
1 631:1 1368:1 1398:5
1 175:1 241:1 256:1 288:1 558:1 623:1 631:1 635:1 636:1 715:1 758:1 829:1 864:1 1057:1 1102:1 1175:1 1230:1 1254:1 1261:1 1274:1 1302:1 1314:1 1316:1 1319:1 1330:1 1338:1 1342:1 1361:1 1368:1 1370:1 1372:1 1374:1 1398:3
1 457:1 1252:1 1398:5
1 631:1 1368:1 1398:7
1 336:1 1358:1 1398:4
1 175:1 241:1 288:1 623:1 631:1 635:1 1102:1 1125:1 1254:1 1302:1 1319:1 1338:1 1340:1 1361:1 1368:1 1370:1 1398:3
1 631:1 1368:1 1398:6
1 631:1 1368:1 1398:4
1 175:1 241:1 288:2 336:1 344:1 528:2 551:1 623:2 631:5 635:1 636:1 706:1 715:3 829:1 1102:3 1125:1 1175:1 1221:1 1230:3 1254:1 1289:2 1302:1 1314:1 1319:3 1322:1 1338:2 1340:1 1358:1 1361:2 1363:1 1368:5 1370:1 1372:1 1374:1 1398:4
1 631:1 1368:1 1398:7
1 631:1 1368:1 1398:4
1 631:1 1368:1 1398:6
1 457:1 1252:1 1398:5
1 1398:2
1 631:1 1368:1 1398:6
1 457:1 1252:1 1398:4
1 175:1 241:1 288:1 623:1 631:1 635:1 1102:1 1125:1 1254:1 1302:1 1319:1 1338:1 1340:1 1361:1 1368:1 1370:1 1398:4
1 175:1 631:1 1254:1 1368:1 1398:4
1 631:1 1102:1 1319:1 1368:1 1398:2
1 631:1 1368:1 1398:5
1 175:1 623:1 631:1 1102:1 1254:1 1319:1 1361:1 1368:1 1398:2
1 631:1 1368:1 1398:6
1 631:1 1368:1 1398:6
1 175:1 241:1 288:1 623:1 631:1 635:1 1102:1 1125:1 1254:1 1302:1 1319:1 1338:1 1340:1 1361:1 1368:1 1370:1 1398:5
1 631:1 1368:1 1398:6
1 631:1 1368:1 1398:6
1 175:1 623:1 631:1 1254:1 1361:1 1368:1 1398:3
1 631:1 1368:1 1398:4
1 631:1 1368:1 1398:7
1 631:1 1368:1 1398:6
1 175:1 241:1 623:2 631:4 635:1 715:3 1102:2 1125:1 1230:3 1254:1 1302:1 1319:2 1340:1 1361:2 1368:4 1370:1 1398:7
1 631:1 1368:1 1398:5
1 631:1 1368:1 1398:6
1 631:1 1368:1 1398:6
1 631:1 1368:1 1398:6
1 175:1 241:1 256:1 288:1 623:1 631:1 636:1 715:1 758:1 829:1 864:1 1057:1 1102:1 1175:1 1230:1 1254:1 1261:1 1274:1 1302:1 1314:1 1316:1 1319:1 1338:1 1342:1 1361:1 1368:1 1372:1 1374:1 1398:3
1 175:1 241:1 288:1 623:1 631:1 635:1 715:1 758:1 829:1 832:1 1102:1 1230:1 1254:1 1261:1 1302:1 1314:1 1319:1 1320:1 1338:1 1361:1 1368:1 1370:1 1398:2
1 175:1 241:1 288:1 623:1 631:1 635:1 1102:1 1125:1 1254:1 1302:1 1319:1 1338:1 1340:1 1361:1 1368:1 1370:1 1398:4
1 631:1 1368:1 1398:5
1 631:1 1368:1 1398:8
1 175:1 241:1 288:1 623:1 631:1 635:1 1102:1 1125:1 1254:1 1302:1 1319:1 1338:1 1340:1 1361:1 1368:1 1370:1 1398:2
1 631:1 1368:1 1398:6
1 175:1 241:1 288:1 344:1 551:1 616:1 623:1 631:1 635:1 706:1 715:1 722:1 853:1 864:1 1080:1 1102:1 1125:1 1175:1 1221:1 1230:1 1239:1 1254:1 1295:1 1302:1 1319:1 1322:1 1333:1 1338:1 1340:1 1342:1 1359:1 1361:1 1363:1 1368:1 1370:1 1374:1 1398:3
1 631:1 1368:1 1398:5
1 631:1 1368:1 1398:6
1 631:1 1368:1 1398:3
1 631:1 1368:1 1398:4
1 631:2 1102:1 1319:1 1368:2 1398:5
1 631:1 1368:1 1398:6
1 631:1 1368:1 1398:6
1 631:1 1368:1 1398:6
1 631:1 1368:1 1398:6
1 631:1 1368:1 1398:3
1 175:1 241:1 288:1 528:1 623:1 631:1 635:1 706:1 715:1 853:1 911:1 951:1 1102:1 1125:1 1221:1 1230:1 1254:1 1289:1 1302:1 1319:1 1333:1 1338:1 1340:1 1361:1 1362:1 1368:1 1370:1 1392:1 1398:5 1400:3
1 175:1 241:1 288:1 623:1 631:1 635:1 1102:1 1125:1 1254:1 1302:1 1319:1 1338:1 1340:1 1361:1 1368:1 1370:1 1398:3
1 457:1 1252:1 1398:5
1 1398:3
1 631:1 1368:1 1398:6
1 631:1 1368:1 1398:6
1 631:1 1368:1 1398:5
1 631:1 1368:1 1398:3
1 631:1 1368:1 1398:4
1 631:1 1368:1 1398:5
1 631:1 1368:1 1398:6
1 631:1 1368:1 1398:6
1 631:1 1368:1 1398:6
1 175:1 241:1 288:1 623:1 631:1 635:1 1102:1 1125:1 1254:1 1302:1 1319:1 1338:1 1340:1 1361:1 1368:1 1370:1 1398:4
1 175:1 241:1 288:1 623:1 631:1 635:1 1102:1 1125:1 1254:1 1302:1 1319:1 1338:1 1340:1 1361:1 1368:1 1370:1 1398:4
1 175:1 241:1 288:1 623:1 631:1 635:1 1102:1 1125:1 1254:1 1302:1 1319:1 1338:1 1340:1 1361:1 1368:1 1370:1 1398:4
1 175:1 241:1 288:1 623:1 631:1 715:1 1102:1 1125:1 1230:1 1254:1 1302:1 1319:1 1338:1 1340:1 1361:1 1368:1 1398:8
1 175:1 631:1 827:1 1102:1 1254:1 1311:1 1319:1 1368:1 1398:1
1 175:1 288:1 623:2 631:4 635:1 706:1 715:2 1102:2 1125:1 1221:1 1230:2 1254:1 1319:2 1338:1 1340:1 1361:2 1368:4 1370:1 1398:10
1 631:1 1368:1 1398:6
1 631:1 1368:1 1398:3
1 175:1 241:1 288:1 623:1 631:1 715:1 1102:1 1125:1 1230:1 1254:1 1302:1 1319:1 1338:1 1340:1 1361:1 1368:1 1398:9
1 631:1 715:1 758:1 1230:1 1261:1 1368:1 1398:2
1 631:1 1368:1 1398:6
1 631:1 1368:1 1398:6
1 631:1 1102:1 1319:1 1368:1 1398:3
1 288:1 631:1 1102:1 1319:1 1338:1 1368:1 1398:3
1 175:1 241:1 288:1 623:1 631:1 635:1 1102:1 1125:1 1254:1 1302:1 1319:1 1338:1 1340:1 1361:1 1368:1 1370:1 1398:3
1 631:1 1368:1 1398:6
1 631:1 1368:1 1398:5
1 631:1 1368:1 1398:6
1 175:1 241:1 288:2 528:1 623:2 631:5 635:1 706:1 715:3 1102:3 1125:1 1221:1 1230:3 1254:1 1289:1 1302:1 1319:3 1338:2 1340:1 1361:2 1368:5 1370:1 1398:6
1 457:1 1252:1 1398:4
1 631:1 1368:1 1398:8
1 631:1 1368:1 1398:6
1 457:1 1252:1 1398:5
1 631:1 1368:1 1398:4
1 631:1 1368:1 1398:4
1 175:1 623:1 631:1 635:1 1102:1 1254:1 1319:1 1361:1 1368:1 1370:1 1398:1
1 631:1 1368:1 1398:6
1 175:1 241:1 288:1 623:1 631:1 635:1 1102:1 1125:1 1254:1 1302:1 1319:1 1338:1 1340:1 1361:1 1368:1 1370:1 1398:3
1 631:1 1368:1 1398:7
1 457:1 1252:1 1398:5
1 623:1 631:1 635:1 715:1 1102:1 1230:1 1319:1 1361:1 1368:1 1370:1 1398:4 1400:2
1 631:1 1368:1 1398:6
1 175:1 288:1 623:2 631:4 635:1 706:1 715:2 1102:2 1125:1 1221:1 1230:2 1254:1 1319:2 1338:1 1340:1 1361:2 1368:4 1370:1 1398:8
1 631:1 1368:1 1398:7
1 631:1 1368:1 1398:6
1 623:1 631:1 635:1 715:1 1102:1 1230:1 1319:1 1361:1 1368:1 1370:1 1398:4 1400:2
1 631:1 1368:1 1398:6
1 631:1 1368:1 1398:6
1 1398:2
1 631:1 1368:1 1398:5
1 631:1 1368:1 1398:5
1 631:1 1368:1 1398:6
1 631:1 1368:1 1398:4
1 1398:3
1 631:1 1368:1 1398:6
1 631:1 1368:1 1398:5
1 631:1 1368:1 1398:3
1 631:1 1368:1 1398:4
1 631:1 1368:1 1398:6
1 631:1 1368:1 1398:6
1 631:1 1368:1 1398:6
1 1398:3
1 631:1 1368:1 1398:5
1 457:1 1252:1 1398:5
1 631:1 1368:1 1398:6
1 631:1 1368:1 1398:6
1 631:1 1368:1 1398:5
1 631:1 1368:1 1398:3
1 631:1 1368:1 1398:5
1 175:1 241:1 288:1 623:1 631:1 635:1 715:1 758:1 829:1 832:1 1102:1 1230:1 1254:1 1261:1 1302:1 1314:1 1319:1 1320:1 1338:1 1361:1 1368:1 1370:1 1398:1
1 631:1 1368:1 1398:3
1 623:1 631:1 1102:1 1319:1 1361:1 1368:1 1398:3
1 623:1 631:1 1102:1 1319:1 1361:1 1368:1 1398:4
1 175:1 288:1 631:1 715:1 716:1 1102:1 1181:1 1230:1 1231:1 1254:1 1319:1 1338:1 1368:1 1380:1 1398:2
1 631:1 1368:1 1398:5
1 175:1 241:1 288:1 631:1 715:1 1102:1 1230:1 1254:1 1302:1 1319:1 1338:1 1368:1 1398:2
1 175:1 241:1 288:1 623:1 631:1 715:1 1102:1 1125:1 1230:1 1254:1 1302:1 1319:1 1338:1 1340:1 1361:1 1368:1 1398:8
1 631:1 1368:1 1398:4
1 1398:3
1 175:1 241:1 288:1 623:1 631:1 715:1 1102:1 1125:1 1230:1 1254:1 1302:1 1319:1 1338:1 1340:1 1361:1 1368:1 1398:8
1 631:1 1368:1 1398:7
1 623:1 631:1 713:1 1102:1 1228:1 1319:1 1361:1 1368:1 1398:4
1 631:1 1368:1 1398:4
1 631:1 1368:1 1398:7
1 631:1 1368:1 1398:4
1 631:1 1368:1 1398:5
1 175:1 631:1 1102:1 1254:1 1319:1 1368:1 1398:5
1 631:1 1368:1 1398:5
1 175:1 241:1 288:1 501:1 623:1 631:1 635:1 636:1 706:1 713:1 715:1 758:1 829:1 1102:1 1221:1 1228:1 1230:1 1254:1 1261:1 1272:1 1302:1 1314:1 1319:1 1338:1 1361:1 1368:1 1370:1 1372:1 1398:4
1 457:1 1252:1 1398:4
1 175:1 631:1 1254:1 1368:1 1398:2
1 631:1 1368:1 1398:5
1 175:1 623:1 631:1 1254:1 1361:1 1368:1 1398:3
1 631:1 1368:1 1398:6
1 631:1 1368:1 1398:6
1 631:1 1368:1 1398:6
1 631:1 1368:1 1398:3
1 175:2 241:3 288:2 306:1 528:1 623:2 631:5 635:1 636:1 706:1 715:3 758:1 853:1 996:1 1057:1 1102:5 1125:1 1175:1 1183:1 1221:1 1230:3 1234:1 1254:2 1261:1 1274:1 1289:1 1302:3 1319:5 1333:1 1338:2 1340:1 1347:1 1361:2 1368:5 1370:1 1372:1 1374:1 1381:1 1398:5
1 631:1 1368:1 1398:6
1 241:1 623:1 631:1 1102:1 1302:1 1319:1 1361:1 1368:1 1398:3
1 631:1 1368:1 1398:5
1 175:1 241:1 288:1 623:1 631:1 635:1 1102:1 1125:1 1254:1 1302:1 1319:1 1338:1 1340:1 1361:1 1368:1 1370:1 1398:5
1 631:1 1368:1 1398:6
1 175:1 241:1 288:1 623:1 631:1 715:1 1102:1 1125:1 1230:1 1254:1 1302:1 1319:1 1338:1 1340:1 1361:1 1368:1 1398:9
1 175:1 241:1 288:1 623:1 631:1 635:1 1102:1 1254:1 1302:1 1319:1 1338:1 1361:1 1368:1 1370:1 1398:3
1 631:1 1368:1 1398:6
1 457:1 1252:1 1398:5
1 631:1 1368:1 1398:6
1 631:1 1368:1 1398:5
1 623:1 631:1 1361:1 1368:1 1398:5
1 631:1 1368:1 1398:6
1 631:1 1368:1 1398:5
1 175:1 241:1 256:1 288:1 558:1 616:1 623:1 631:1 635:1 636:1 706:1 715:1 758:1 829:1 864:1 1057:1 1079:1 1102:1 1125:1 1175:1 1221:1 1230:1 1254:1 1261:1 1274:1 1294:1 1302:1 1314:1 1316:1 1319:1 1330:1 1338:1 1340:1 1342:1 1359:1 1361:1 1368:1 1370:1 1372:1 1374:1 1398:3
1 1398:2
1 175:1 241:6 259:1 288:2 623:3 631:4 635:1 636:1 706:1 715:3 1102:2 1125:1 1175:1 1183:1 1221:1 1230:3 1254:1 1302:6 1317:1 1319:2 1338:2 1340:1 1361:3 1368:4 1370:1 1372:1 1374:1 1381:1 1398:8
1 631:1 1368:1 1398:6
1 631:1 1368:1 1398:6
1 631:1 1368:1 1398:6
1 241:1 631:1 1302:1 1368:1 1398:6
1 631:1 1368:1 1398:6
1 175:1 241:1 288:1 623:1 631:1 635:1 1102:1 1125:1 1254:1 1302:1 1319:1 1338:1 1340:1 1361:1 1368:1 1370:1 1398:5
1 175:1 241:1 288:1 623:1 631:1 715:1 1102:1 1125:1 1230:1 1254:1 1302:1 1319:1 1338:1 1340:1 1361:1 1368:1 1398:8
1 457:1 1252:1 1398:4
1 631:1 1368:1 1398:5
1 631:1 1368:1 1398:5
1 631:1 1368:1 1398:6
1 175:1 241:1 288:1 623:1 631:1 715:1 1102:1 1125:1 1230:1 1254:1 1302:1 1319:1 1338:1 1340:1 1361:1 1368:1 1398:8
1 175:1 241:1 288:1 631:1 715:1 1102:1 1230:1 1254:1 1302:1 1319:1 1338:1 1368:1 1398:2
1 631:1 1368:1 1398:4
1 631:1 1368:1 1398:6
1 288:1 631:1 1102:1 1319:1 1338:1 1368:1 1398:3
1 175:1 241:1 256:1 288:1 551:1 623:1 631:1 635:1 636:1 706:1 710:1 715:1 758:1 829:1 832:1 911:1 1102:1 1175:1 1221:1 1226:1 1230:1 1254:1 1261:1 1302:1 1314:1 1316:1 1319:1 1320:1 1322:1 1338:1 1361:1 1362:1 1368:1 1370:1 1372:1 1374:1 1398:1
1 631:1 1102:1 1319:1 1368:1 1398:3
1 457:1 1252:1 1398:4
1 175:1 241:1 288:1 623:1 631:1 635:1 1102:1 1125:1 1254:1 1302:1 1319:1 1338:1 1340:1 1361:1 1368:1 1370:1 1398:3
1 241:1 288:1 631:1 829:1 1102:1 1302:1 1314:1 1319:1 1338:1 1368:1 1398:4
1 631:1 1368:1 1398:4
1 631:1 1368:1 1398:4
1 631:1 1368:1 1398:6
1 631:1 1368:1 1398:4 1400:1
1 175:1 241:6 259:1 288:2 623:3 631:4 635:1 636:1 706:1 715:3 1102:2 1125:1 1175:1 1183:1 1221:1 1230:3 1254:1 1302:6 1317:1 1319:2 1338:2 1340:1 1361:3 1368:4 1370:1 1372:1 1374:1 1381:1 1398:8
1 175:1 241:1 288:1 623:1 631:1 715:1 1102:1 1125:1 1230:1 1254:1 1302:1 1319:1 1338:1 1340:1 1361:1 1368:1 1398:8
1 631:1 1368:1 1398:6
1 631:1 1368:1 1398:7
1 631:1 1368:1 1398:6
1 631:1 1368:1 1398:6
1 631:1 1368:1 1398:4
1 457:1 1252:1 1398:5
1 631:1 1368:1 1398:6
1 631:1 1368:1 1398:5
1 631:1 1368:1 1398:6
1 631:1 1368:1 1398:6
1 175:1 623:1 631:1 1102:1 1254:1 1319:1 1361:1 1368:1 1398:3
1 631:1 1368:1 1398:4
1 457:1 1252:1 1398:5
1 175:1 241:1 288:1 623:1 631:1 713:1 722:1 1079:1 1080:1 1083:1 1102:1 1228:1 1239:1 1254:1 1294:1 1295:1 1298:1 1302:1 1319:1 1338:1 1361:1 1368:1 1398:4
1 631:1 1368:1 1398:6
1 631:1 1368:1 1398:6
1 631:1 1368:1 1398:7
1 623:1 631:1 1102:1 1319:1 1361:1 1368:1 1398:2
1 175:1 241:1 288:1 306:1 528:1 623:1 631:1 635:1 706:1 715:1 829:1 996:1 1057:1 1102:1 1125:1 1175:1 1221:1 1230:1 1234:1 1254:1 1274:1 1289:1 1302:1 1314:1 1319:1 1338:1 1340:1 1347:1 1361:1 1368:1 1370:1 1374:1 1398:4 1400:3
1 1398:3
1 631:1 1368:1 1398:5
1 631:1 1368:1 1398:6
1 175:1 241:2 288:2 623:3 631:4 635:2 636:1 706:1 715:4 853:1 1102:2 1125:1 1221:1 1230:4 1254:1 1302:2 1319:2 1333:1 1338:2 1340:1 1361:3 1368:4 1370:2 1372:1 1398:6
1 175:1 241:1 288:1 623:1 631:1 713:1 722:1 1079:1 1080:1 1083:1 1102:1 1228:1 1239:1 1254:1 1294:1 1295:1 1298:1 1302:1 1319:1 1338:1 1361:1 1368:1 1398:3
1 631:1 1368:1 1398:6
1 631:1 1368:1 1398:6
1 175:1 241:1 256:1 288:1 344:1 365:1 616:1 623:1 631:1 635:1 706:1 715:1 829:1 832:1 849:1 1079:1 1080:1 1102:1 1125:1 1221:1 1230:1 1254:1 1294:1 1295:1 1302:1 1314:1 1316:1 1319:1 1320:1 1329:1 1338:1 1340:1 1359:1 1361:1 1363:1 1368:1 1370:1 1384:1 1398:5
1 631:1 1368:1 1398:6
1 175:1 241:1 288:1 623:1 631:1 635:1 1102:1 1125:1 1254:1 1302:1 1319:1 1338:1 1340:1 1361:1 1368:1 1370:1 1398:4
1 175:1 241:1 288:1 558:1 623:1 631:1 635:1 706:1 715:1 758:1 829:1 1102:1 1175:1 1221:1 1230:1 1254:1 1261:1 1302:1 1314:1 1319:1 1330:1 1338:1 1361:1 1368:1 1370:1 1374:1 1398:2
1 631:1 1368:1 1398:5
1 631:1 1368:1 1398:7
1 631:1 1368:1 1398:3
1 175:1 484:1 528:1 623:1 631:1 635:1 1102:1 1125:1 1254:1 1262:1 1289:1 1319:1 1340:1 1361:1 1368:1 1370:1 1398:4
1 631:1 1368:1 1398:5
1 631:1 1368:1 1398:6
1 631:1 1368:1 1398:7
1 241:1 288:1 336:1 528:1 623:1 631:1 715:1 829:1 849:1 864:1 888:1 1057:1 1095:1 1102:1 1230:1 1274:1 1289:1 1302:1 1314:1 1315:1 1319:1 1329:1 1338:1 1342:1 1351:1 1358:1 1361:1 1368:1 1398:4
1 631:1 1368:1 1398:6
1 631:1 1368:1 1398:6
1 1398:3
1 457:1 1252:1 1398:5
1 631:1 1368:1 1398:6
1 631:1 1368:1 1398:7
1 631:1 1368:1 1398:5
1 631:1 1368:1 1398:6
1 457:1 1252:1 1398:5
1 631:1 1368:1 1398:7
1 631:1 1368:1 1398:5
1 175:1 623:1 631:1 951:1 1102:1 1254:1 1319:1 1361:1 1368:1 1392:1 1398:2
1 175:1 631:1 1254:1 1368:1 1398:4
1 631:1 1368:1 1398:7
1 175:1 241:1 288:1 631:1 715:1 849:1 1102:1 1230:1 1254:1 1302:1 1319:1 1329:1 1338:1 1368:1 1398:2
1 175:1 241:1 288:1 631:1 715:1 1102:1 1230:1 1254:1 1302:1 1319:1 1338:1 1368:1 1398:3
1 631:1 1368:1 1398:6
1 457:1 1252:1 1398:4
1 631:1 1368:1 1398:7
1 631:1 1368:1 1398:2
1 631:1 1368:1 1398:6
1 631:1 1368:1 1398:6
1 631:1 1368:1 1398:6
1 631:1 1368:1 1398:4
1 631:1 1368:1 1398:7
1 175:1 241:1 288:1 623:1 631:1 635:1 1102:1 1254:1 1302:1 1319:1 1338:1 1361:1 1368:1 1370:1 1398:3
1 631:1 1368:1 1398:5
1 175:1 241:1 288:1 631:2 715:1 1102:1 1230:1 1254:1 1302:1 1319:1 1338:1 1368:2 1398:6
1 631:1 1368:1 1398:6
1 175:1 241:1 288:1 631:1 715:1 1102:1 1230:1 1254:1 1302:1 1319:1 1338:1 1368:1 1398:3
1 631:1 1102:1 1319:1 1368:1 1398:5
1 457:1 1252:1 1398:4
1 631:1 1368:1 1398:6
1 631:1 1368:1 1398:6
1 631:1 1368:1 1398:6
1 631:1 1368:1 1398:7
1 175:1 241:1 288:1 623:1 631:1 715:1 1102:1 1125:1 1230:1 1254:1 1302:1 1319:1 1338:1 1340:1 1361:1 1368:1 1398:8
1 631:1 1368:1 1398:6
1 1398:2
1 631:1 1368:1 1398:6
1 175:1 241:1 288:1 623:1 631:1 635:1 1102:1 1125:1 1254:1 1302:1 1319:1 1338:1 1340:1 1361:1 1368:1 1370:1 1398:3
1 631:1 1368:1 1398:5
1 631:1 1368:1 1398:6
1 175:1 241:1 288:1 528:1 623:1 631:1 635:1 706:1 715:1 853:1 911:1 951:1 1102:1 1125:1 1221:1 1230:1 1254:1 1289:1 1302:1 1319:1 1333:1 1338:1 1340:1 1361:1 1362:1 1368:1 1370:1 1392:1 1398:4 1400:3
1 631:1 1102:1 1319:1 1368:1 1398:5
1 631:1 1368:1 1398:5
1 631:1 1368:1 1398:6
1 631:1 1368:1 1398:6
1 631:1 1368:1 1398:5
1 631:1 1368:1 1398:6
1 175:1 241:1 288:1 528:1 623:1 631:1 635:1 706:1 715:1 853:1 911:1 951:1 1102:1 1125:1 1221:1 1230:1 1254:1 1289:1 1302:1 1319:1 1333:1 1338:1 1340:1 1361:1 1362:1 1368:1 1370:1 1392:1 1398:4 1400:3
1 631:1 1368:1 1398:6
1 631:1 1368:1 1398:6
1 175:1 631:1 1102:1 1254:1 1319:1 1368:1 1398:3
1 631:1 1368:1 1398:3
1 631:1 1368:1 1398:6
1 457:1 1252:1 1398:5
1 623:1 631:1 1102:1 1319:1 1361:1 1368:1 1398:2
1 631:1 1368:1 1398:6
1 631:1 1368:1 1398:6
1 457:1 1252:1 1398:5
1 457:1 1252:1 1398:6
1 457:1 1252:1 1398:5
1 631:1 1368:1 1398:6
1 631:1 1368:1 1398:5
1 175:1 288:1 344:1 623:1 631:1 758:1 1102:1 1254:1 1261:1 1319:1 1338:1 1361:1 1363:1 1368:1 1398:2
1 631:1 1368:1 1398:4
1 175:1 631:1 1254:1 1368:1 1398:4
1 631:1 1368:1 1398:5
1 175:1 241:1 288:1 623:1 631:1 635:1 1102:1 1125:1 1254:1 1302:1 1319:1 1338:1 1340:1 1361:1 1368:1 1370:1 1398:3
1 631:1 1368:1 1398:6
1 175:1 631:1 1102:1 1254:1 1319:1 1368:1 1398:3
1 631:1 1368:1 1398:5
1 631:1 1368:1 1398:5
1 631:1 1368:1 1398:6
1 631:1 1368:1 1398:5
1 631:1 1368:1 1398:2
1 175:1 241:1 288:1 344:1 551:1 616:1 623:1 631:1 635:1 706:1 715:1 722:1 853:1 864:1 1080:1 1102:1 1125:1 1175:1 1221:1 1230:1 1239:1 1254:1 1295:1 1302:1 1319:1 1322:1 1333:1 1338:1 1340:1 1342:1 1359:1 1361:1 1363:1 1368:1 1370:1 1374:1 1398:3
1 175:1 241:1 288:1 623:1 631:1 635:1 1102:1 1125:1 1254:1 1302:1 1319:1 1338:1 1340:1 1361:1 1368:1 1370:1 1398:3
1 175:1 241:1 288:1 623:1 631:1 715:1 832:1 1102:1 1230:1 1254:1 1302:1 1319:1 1320:1 1338:1 1361:1 1368:1 1398:3
1 175:1 241:1 288:1 623:1 631:1 635:1 1102:1 1125:1 1254:1 1302:1 1319:1 1338:1 1340:1 1361:1 1368:1 1370:1 1398:5
1 218:1 231:1 288:1 318:1 344:1 535:1 631:1 709:1 975:1 1090:1 1180:1 1182:1 1218:1 1225:1 1277:1 1288:1 1299:1 1308:1 1338:1 1352:1 1363:1 1368:1 1376:1 1379:1 1398:3
1 457:1 1252:1 1398:6
1 631:1 1368:1 1398:6
1 631:1 1368:1 1398:5
1 631:1 1368:1 1398:5
1 631:1 1368:1 1398:4
1 631:1 1368:1 1398:5
1 631:1 1368:1 1398:5
1 175:1 241:1 288:1 528:1 623:1 631:1 635:1 715:1 1102:1 1125:1 1230:1 1254:1 1289:1 1302:1 1319:1 1338:1 1340:1 1361:1 1368:1 1370:1 1398:4 1400:2
1 631:1 1368:1 1398:6
1 631:1 1368:1 1398:6
1 457:1 1252:1 1398:4
1 631:1 1368:1 1398:6
1 175:1 241:1 288:1 623:1 631:1 715:1 1102:1 1125:1 1230:1 1254:1 1302:1 1319:1 1338:1 1340:1 1361:1 1368:1 1398:8
1 631:1 1368:1 1398:6
1 631:1 1368:1 1398:6
1 457:1 1252:1 1398:5
1 631:1 1368:1 1398:5
1 631:1 1368:1 1398:5
1 631:1 1368:1 1398:6
1 631:1 1368:1 1398:3
1 631:1 1368:1 1398:5
1 175:1 241:1 288:2 623:1 631:1 635:1 636:1 706:1 715:1 758:1 1102:1 1125:1 1175:1 1221:1 1230:1 1254:1 1261:1 1302:1 1319:1 1338:2 1340:1 1361:1 1368:1 1370:1 1372:1 1374:1 1398:4 1400:4252
1 631:1 1368:1 1398:5
1 631:1 1368:1 1398:5
1 631:1 1368:1 1398:3
1 175:1 241:1 288:1 631:1 715:1 1102:1 1230:1 1254:1 1302:1 1319:1 1338:1 1368:1 1398:2
1 631:1 1368:1 1398:6
1 134:1 140:1 146:1 148:1 151:1 247:1 272:1 274:1 295:1 318:1 336:1 347:1 355:1 382:1 392:1 415:1 437:1 452:1 503:1 530:1 536:1 539:1 557:1 564:1 609:1 628:1 647:1 649:1 690:1 715:1 745:1 746:1 812:1 852:1 949:1 974:1 994:1 995:1 1006:1 1031:1 1068:1 1144:1 1162:1 1192:1 1217:1 1219:1 1222:1 1224:1 1229:1 1230:1 1232:1 1233:1 1236:1 1238:1 1240:1 1241:1 1243:1 1250:1 1255:1 1256:1 1257:1 1263:1 1265:1 1267:1 1273:1 1283:1 1284:1 1290:1 1292:1 1300:1 1307:1 1310:1 1325:1 1326:1 1327:1 1332:1 1336:1 1341:1 1348:1 1352:1 1355:1 1356:1 1357:1 1358:1 1366:1 1367:1 1373:1 1377:1 1378:1 1382:1 1385:1 1391:1 1396:1 1397:1 1398:5
1 631:1 1368:1 1398:4
1 175:1 241:1 288:1 623:1 631:1 635:1 1102:1 1125:1 1254:1 1302:1 1319:1 1338:1 1340:1 1361:1 1368:1 1370:1 1398:3
1 631:1 1368:1 1398:8
1 175:1 241:1 288:1 623:1 631:1 635:1 1102:1 1254:1 1302:1 1319:1 1338:1 1361:1 1368:1 1370:1 1398:4
1 631:1 1368:1 1398:5
1 631:1 1368:1 1398:6
1 631:1 1368:1 1398:4
1 457:1 1252:1 1398:4
1 631:1 1368:1 1398:6
1 631:1 790:1 1275:1 1368:1 1398:2
1 631:1 1368:1 1398:5
1 631:1 1368:1 1398:6
1 631:1 1368:1 1398:5
1 457:1 1252:1 1398:5
1 1398:3
1 175:1 241:1 288:1 623:1 631:1 635:1 1102:1 1125:1 1254:1 1302:1 1319:1 1338:1 1340:1 1361:1 1368:1 1370:1 1398:3
1 241:1 288:1 336:1 528:1 623:1 631:1 715:1 829:1 849:1 864:1 888:1 1057:1 1095:1 1102:1 1230:1 1274:1 1289:1 1302:1 1314:1 1315:1 1319:1 1329:1 1338:1 1342:1 1351:1 1358:1 1361:1 1368:1 1398:4
1 631:1 1368:1 1398:6
1 631:1 1368:1 1398:5
1 631:1 1368:1 1398:4
1 631:1 1368:1 1398:6
1 631:1 1368:1 1398:5
1 175:1 631:1 1102:1 1254:1 1319:1 1368:1 1398:4
1 631:1 1368:1 1398:5
1 631:1 1368:1 1398:4
1 175:1 484:1 528:1 623:1 631:1 635:1 1102:1 1125:1 1254:1 1262:1 1289:1 1319:1 1340:1 1361:1 1368:1 1370:1 1398:2
1 631:1 1368:1 1398:5
1 457:1 1252:1 1398:5
1 175:1 241:1 623:2 631:4 635:1 715:3 1102:2 1125:1 1230:3 1254:1 1302:1 1319:2 1340:1 1361:2 1368:4 1370:1 1398:7
1 241:1 288:1 336:1 514:1 616:1 623:1 631:1 710:1 715:1 827:1 852:1 1226:1 1230:1 1249:1 1279:1 1302:1 1311:1 1332:1 1338:1 1358:1 1359:1 1361:1 1368:1 1398:5
1 175:1 241:1 288:1 623:1 631:1 635:1 1102:1 1125:1 1254:1 1302:1 1319:1 1338:1 1340:1 1361:1 1368:1 1370:1 1398:4
1 175:1 241:1 288:1 623:1 631:1 635:1 1102:1 1125:1 1254:1 1302:1 1319:1 1338:1 1340:1 1361:1 1368:1 1370:1 1398:4
1 175:1 241:1 288:1 623:1 631:1 635:1 1102:1 1125:1 1254:1 1302:1 1319:1 1338:1 1340:1 1361:1 1368:1 1370:1 1398:3
1 631:1 1368:1 1398:3
1 175:1 241:1 288:1 623:1 631:1 715:1 832:1 1102:1 1230:1 1254:1 1302:1 1319:1 1320:1 1338:1 1361:1 1368:1 1398:3
1 631:1 1368:1 1398:6
1 175:1 241:1 288:1 623:1 631:1 635:1 1102:1 1125:1 1254:1 1302:1 1319:1 1338:1 1340:1 1361:1 1368:1 1370:1 1398:3
1 631:1 1368:1 1398:5
1 631:1 1368:1 1398:7
1 631:1 1368:1 1398:6
1 631:1 1368:1 1398:3
1 631:1 1368:1 1398:5
1 631:1 1368:1 1398:4
1 631:1 1368:1 1398:5
1 175:1 631:1 1102:1 1254:1 1319:1 1368:1 1398:7
1 457:1 1252:1 1398:4
1 175:1 631:1 1102:1 1254:1 1319:1 1368:1 1398:2
1 354:1 616:1 623:1 631:1 713:1 722:1 1079:1 1080:1 1102:1 1150:1 1175:1 1228:1 1239:1 1294:1 1295:1 1319:1 1350:1 1359:1 1361:1 1368:1 1369:1 1374:1 1398:2 1400:17431
1 631:1 1368:1 1398:6
1 631:1 1368:1 1398:2
1 631:1 1368:1 1398:6
1 631:1 1368:1 1398:3
1 457:1 1252:1 1398:4
1 175:1 241:1 288:1 623:1 631:1 715:1 1102:1 1125:1 1230:1 1254:1 1302:1 1319:1 1338:1 1340:1 1361:1 1368:1 1398:8
1 631:1 1368:1 1398:5
1 631:1 1368:1 1398:7
1 175:1 241:1 288:1 623:1 631:1 635:1 715:1 758:1 829:1 832:1 1102:1 1230:1 1254:1 1261:1 1302:1 1314:1 1319:1 1320:1 1338:1 1361:1 1368:1 1370:1 1398:2
1 175:1 241:1 288:1 623:1 631:1 635:1 1102:1 1125:1 1254:1 1302:1 1319:1 1338:1 1340:1 1361:1 1368:1 1370:1 1398:4
1 631:1 1368:1 1398:3
1 631:1 1368:1 1398:7
1 631:1 1368:1 1398:4
1 175:1 241:1 288:1 623:1 631:1 715:1 1102:1 1125:1 1230:1 1254:1 1302:1 1319:1 1338:1 1340:1 1361:1 1368:1 1398:8
1 631:1 1368:1 1398:6
1 457:1 1252:1 1398:5
1 175:1 241:1 288:1 623:1 631:1 715:1 1102:1 1125:1 1230:1 1254:1 1302:1 1319:1 1338:1 1340:1 1361:1 1368:1 1398:9
1 631:1 1368:1 1398:5
1 457:1 1252:1 1398:4
1 631:1 1368:1 1398:6
1 631:1 1368:1 1398:5
1 631:1 1368:1 1398:4
1 631:1 1368:1 1398:5
1 631:1 1368:1 1398:4
1 631:1 1368:1 1398:5
1 241:1 288:1 354:1 495:1 623:1 631:1 713:1 715:1 1079:1 1080:1 1102:1 1150:1 1228:1 1230:1 1269:1 1294:1 1295:1 1302:1 1319:1 1338:1 1350:1 1361:1 1368:1 1369:1 1398:3 1400:49
1 631:1 1368:1 1398:6
1 631:1 1368:1 1398:6
1 631:1 1368:1 1398:6
1 457:1 1252:1 1398:5
1 457:1 1252:1 1398:5
1 457:1 1252:1 1398:5
1 288:1 631:1 1102:1 1319:1 1338:1 1368:1 1398:3
1 1398:2
1 631:1 1368:1 1398:5
1 631:1 1368:1 1398:5
1 631:1 1368:1 1398:6
1 631:1 1368:1 1398:5
1 631:1 1368:1 1398:3
1 631:1 1368:1 1398:6
1 631:1 1368:1 1398:2
1 175:1 241:1 256:1 288:1 558:1 623:1 631:1 635:1 636:1 706:1 715:1 758:1 829:1 864:1 1057:1 1102:1 1175:1 1221:1 1230:1 1254:1 1261:1 1274:1 1302:1 1314:1 1316:1 1319:1 1330:1 1338:1 1342:1 1361:1 1368:1 1370:1 1372:1 1374:1 1398:3
1 175:1 631:1 1254:1 1368:1 1398:3
1 631:1 1368:1 1398:7
1 631:1 1368:1 1398:4
1 241:1 623:1 631:1 951:1 1302:1 1361:1 1368:1 1392:1 1398:2
1 631:1 1368:1 1398:6
1 631:1 1368:1 1398:4
1 241:1 288:1 354:1 495:1 623:1 631:1 713:1 715:1 1079:1 1080:1 1102:1 1150:1 1228:1 1230:1 1269:1 1294:1 1295:1 1302:1 1319:1 1338:1 1350:1 1361:1 1368:1 1369:1 1398:3 1400:49
1 631:1 1368:1 1398:5
1 457:1 1252:1 1398:4
1 631:1 1368:1 1398:6
1 175:1 241:1 288:1 623:1 631:1 635:1 1102:1 1254:1 1302:1 1319:1 1338:1 1361:1 1368:1 1370:1 1398:2
1 631:1 1368:1 1398:3
1 175:1 623:1 631:1 635:1 1102:1 1254:1 1319:1 1361:1 1368:1 1370:1 1398:1
1 175:1 241:1 288:1 623:1 631:1 715:1 1102:1 1125:1 1230:1 1254:1 1302:1 1319:1 1338:1 1340:1 1361:1 1368:1 1398:8
1 175:1 241:2 288:2 623:3 631:4 635:2 636:1 706:1 715:4 853:1 1102:2 1125:1 1221:1 1230:4 1254:1 1302:2 1319:2 1333:1 1338:2 1340:1 1361:3 1368:4 1370:2 1372:1 1398:6
1 631:1 1368:1 1398:4
1 631:1 1368:1 1398:3
1 631:1 1368:1 1398:6
1 175:1 241:1 288:1 344:1 623:1 631:1 635:1 715:1 1102:1 1175:1 1183:1 1230:1 1254:1 1302:1 1319:1 1338:1 1361:1 1363:1 1368:1 1370:1 1374:1 1381:1 1398:4
1 631:1 1368:1 1398:4
1 631:1 1368:1 1398:5
1 631:1 1368:1 1398:6
1 631:1 1368:1 1398:6
1 457:1 1252:1 1398:4
1 175:1 631:1 1102:1 1254:1 1319:1 1368:1 1398:5
1 631:1 1368:1 1398:6
1 457:1 1252:1 1398:3
1 175:1 241:2 288:2 623:3 631:4 635:2 636:1 706:1 715:4 853:1 1102:2 1125:1 1221:1 1230:4 1254:1 1302:2 1319:2 1333:1 1338:2 1340:1 1361:3 1368:4 1370:2 1372:1 1398:6
1 631:1 1368:1 1398:6
1 631:1 1368:1 1398:6
1 631:1 1368:1 1398:6
1 631:1 1368:1 1398:6
1 175:1 241:1 288:1 631:1 715:1 1102:1 1230:1 1254:1 1302:1 1319:1 1338:1 1368:1 1398:2
1 631:1 1368:1 1398:6
1 631:1 1368:1 1398:3
1 631:1 1368:1 1398:7
1 631:1 1368:1 1398:3
1 631:1 1368:1 1398:3
1 631:1 1368:1 1398:6
1 631:1 1368:1 1398:3
1 631:1 1368:1 1398:4
1 175:1 241:1 288:1 623:1 631:1 635:1 706:1 715:1 853:1 911:1 1102:1 1125:1 1221:1 1230:1 1254:1 1302:1 1319:1 1333:1 1338:1 1340:1 1361:1 1362:1 1368:1 1370:1 1398:5 1400:3
1 631:1 1368:1 1398:5
1 457:1 1252:1 1398:4
1 631:1 1368:1 1398:7
1 631:1 1368:1 1398:3
1 631:1 1368:1 1398:5
1 631:1 1368:1 1398:2
1 631:1 1368:1 1398:5
1 631:1 1368:1 1398:6
1 631:1 1368:1 1398:6
1 175:1 241:1 288:1 623:1 631:1 635:1 1102:1 1254:1 1302:1 1319:1 1338:1 1361:1 1368:1 1370:1 1398:3
1 631:1 1368:1 1398:7
1 134:1 140:1 146:1 148:1 151:1 247:1 272:1 274:1 295:1 318:1 336:1 347:1 355:1 382:1 392:1 415:1 437:1 452:1 503:1 530:1 536:1 539:1 557:1 564:1 609:1 628:1 647:1 649:1 690:1 715:1 745:1 746:1 812:1 852:1 949:1 974:1 994:1 995:1 1006:1 1031:1 1068:1 1144:1 1162:1 1192:1 1217:1 1219:1 1222:1 1224:1 1229:1 1230:1 1232:1 1233:1 1236:1 1238:1 1240:1 1241:1 1243:1 1250:1 1255:1 1256:1 1257:1 1263:1 1265:1 1267:1 1273:1 1283:1 1284:1 1290:1 1292:1 1300:1 1307:1 1310:1 1325:1 1326:1 1327:1 1332:1 1336:1 1341:1 1348:1 1352:1 1355:1 1356:1 1357:1 1358:1 1366:1 1367:1 1373:1 1377:1 1378:1 1382:1 1385:1 1391:1 1396:1 1397:1 1398:5
1 631:1 1368:1 1398:3
1 631:1 1368:1 1398:6
1 175:1 241:1 288:1 631:1 715:1 1102:1 1230:1 1254:1 1302:1 1319:1 1338:1 1368:1 1398:2
1 457:1 1252:1 1398:5
1 631:1 1368:1 1398:5
1 623:3 631:4 635:1 715:1 1102:2 1230:1 1319:2 1361:3 1368:4 1370:1 1398:5
1 631:1 1368:1 1398:6
1 175:1 241:1 288:1 631:1 715:1 1102:1 1230:1 1254:1 1302:1 1319:1 1338:1 1368:1 1398:2
1 631:1 1368:1 1398:6
1 175:1 241:1 288:1 623:1 631:1 635:1 636:1 706:1 715:1 1102:1 1125:1 1175:1 1221:1 1230:1 1254:1 1302:1 1319:1 1338:1 1340:1 1361:1 1368:1 1370:1 1372:1 1374:1 1398:2
1 631:1 1368:1 1398:5
1 631:1 1368:1 1398:6
1 457:1 1252:1 1398:6
1 175:1 631:1 1102:1 1254:1 1319:1 1368:1 1398:3
1 631:1 1368:1 1398:4
1 631:1 1368:1 1398:5
1 631:1 1368:1 1398:3
1 631:1 1368:1 1398:6
1 631:1 1368:1 1398:6
1 175:1 241:1 288:1 623:1 631:1 635:1 1102:1 1125:1 1254:1 1302:1 1319:1 1338:1 1340:1 1361:1 1368:1 1370:1 1398:4
1 175:1 241:1 288:1 623:1 631:1 715:1 1102:1 1125:1 1230:1 1254:1 1302:1 1319:1 1338:1 1340:1 1361:1 1368:1 1398:8
1 457:1 1252:1 1398:5
1 241:1 288:1 623:1 631:1 713:1 722:1 829:1 839:1 911:1 1079:1 1093:1 1102:1 1228:1 1239:1 1294:1 1302:1 1313:1 1314:1 1319:1 1323:1 1338:1 1361:1 1362:1 1368:1 1398:2
1 631:1 1368:1 1398:6
1 631:1 1368:1 1398:6
1 175:1 241:1 288:1 623:1 631:1 635:1 706:1 715:1 722:1 1102:1 1125:1 1175:1 1221:1 1230:1 1239:1 1254:1 1302:1 1319:1 1338:1 1340:1 1361:1 1368:1 1370:1 1374:1 1398:2
1 631:1 1368:1 1398:5
1 175:1 241:1 288:1 631:1 715:1 1102:1 1230:1 1254:1 1302:1 1319:1 1338:1 1368:1 1398:2
1 631:1 1368:1 1398:5
1 457:1 1252:1 1398:4
1 631:1 1368:1 1398:6
1 631:1 1368:1 1398:6
1 175:1 241:1 288:1 623:1 631:1 635:1 1102:1 1125:1 1254:1 1302:1 1319:1 1338:1 1340:1 1361:1 1368:1 1370:1 1398:5
1 175:1 241:1 288:1 623:1 631:1 635:1 1102:1 1125:1 1254:1 1302:1 1319:1 1338:1 1340:1 1361:1 1368:1 1370:1 1398:4
1 623:1 631:1 635:1 715:1 1102:1 1230:1 1319:1 1361:1 1368:1 1370:1 1398:4 1400:2
1 175:1 241:1 288:2 344:1 623:2 631:5 635:1 706:1 715:3 1102:2 1125:1 1221:1 1230:3 1254:1 1302:1 1319:2 1338:2 1340:1 1361:2 1363:1 1368:5 1370:1 1398:7
1 623:3 631:4 635:1 715:1 1102:2 1230:1 1319:2 1361:3 1368:4 1370:1 1398:6
1 631:1 1368:1 1398:5
1 175:1 623:1 631:1 1102:1 1254:1 1319:1 1361:1 1368:1 1398:3
1 631:1 1102:1 1319:1 1368:1 1398:3
1 175:1 241:1 288:1 623:1 631:1 635:1 1102:1 1125:1 1254:1 1302:1 1319:1 1338:1 1340:1 1361:1 1368:1 1370:1 1398:5
1 175:1 241:1 256:1 288:1 528:2 623:1 631:1 635:1 706:1 715:1 1079:1 1102:1 1221:1 1230:1 1254:1 1289:2 1294:1 1302:1 1316:1 1319:1 1338:1 1361:1 1368:1 1370:1 1398:6 1400:2
1 175:1 241:1 288:1 623:1 631:1 635:1 1102:1 1254:1 1302:1 1319:1 1338:1 1361:1 1368:1 1370:1 1398:4
1 631:1 1368:1 1398:4
1 631:1 1368:1 1398:6
1 457:1 1252:1 1398:5
1 175:1 241:1 288:1 631:1 715:1 1102:2 1230:1 1254:1 1302:1 1319:2 1338:1 1368:1 1398:7
1 175:1 241:1 288:1 631:1 715:1 1102:1 1230:1 1254:1 1302:1 1319:1 1338:1 1368:1 1398:2
1 146:1 151:1 162:1 274:1 347:1 393:1 495:1 503:1 528:1 530:1 536:1 541:1 609:1 628:1 713:1 745:1 837:1 852:1 949:1 974:1 988:1 1068:1 1192:1 1214:1 1217:1 1223:1 1228:1 1236:1 1240:1 1247:1 1255:1 1263:1 1269:1 1273:1 1284:1 1289:1 1290:1 1296:1 1300:1 1309:1 1321:1 1326:1 1332:1 1356:1 1366:1 1367:1 1385:1 1391:1 1398:4
1 631:1 1102:1 1319:1 1368:1 1398:3
1 1398:2
1 631:1 1368:1 1398:6
1 623:3 631:4 635:1 715:1 1102:2 1230:1 1319:2 1361:3 1368:4 1370:1 1398:6
1 175:1 241:1 288:1 623:1 631:1 635:1 1102:1 1125:1 1254:1 1302:1 1319:1 1338:1 1340:1 1361:1 1368:1 1370:1 1398:3
1 631:1 1102:1 1319:1 1368:1 1398:2
1 631:1 1368:1 1398:5
1 175:1 241:1 288:1 623:1 631:1 715:1 1102:1 1125:1 1230:1 1254:1 1302:1 1319:1 1338:1 1340:1 1361:1 1368:1 1398:8
1 175:1 241:1 288:1 623:1 631:1 635:1 706:1 715:1 758:1 827:1 829:1 832:1 849:1 864:1 911:1 1080:1 1102:1 1175:1 1221:1 1230:1 1254:1 1261:1 1295:1 1302:1 1311:1 1314:1 1319:1 1320:1 1329:1 1338:1 1342:1 1361:1 1362:1 1368:1 1370:1 1374:1 1398:3
1 175:1 241:1 288:1 631:1 715:1 1102:1 1230:1 1254:1 1302:1 1319:1 1338:1 1368:1 1398:2
1 631:1 1368:1 1398:7
1 631:1 1368:1 1398:6
1 631:1 1368:1 1398:5
1 631:1 1368:1 1398:6
1 175:1 241:1 288:1 623:1 631:1 635:1 1102:1 1125:1 1254:1 1302:1 1319:1 1338:1 1340:1 1361:1 1368:1 1370:1 1398:5
1 457:1 1252:1 1398:5
1 623:1 631:1 1102:1 1319:1 1361:1 1368:1 1398:5
1 631:1 1368:1 1398:5
1 631:1 1368:1 1398:3
1 631:1 1368:1 1398:6
1 288:1 631:1 804:1 1102:1 1285:1 1319:1 1338:1 1368:1 1398:3
1 631:1 1368:1 1398:5
1 631:1 1368:1 1398:5
1 175:1 241:1 288:1 344:1 528:1 623:1 631:1 635:1 706:1 715:1 829:1 853:1 911:1 1102:1 1125:1 1175:1 1221:1 1230:1 1254:1 1268:1 1289:1 1302:1 1314:1 1319:1 1333:1 1338:1 1340:1 1361:1 1362:1 1363:1 1368:1 1370:1 1374:1 1398:4 1400:3
1 631:1 1102:1 1319:1 1368:1 1398:3
1 631:1 1368:1 1398:6
1 631:1 1368:1 1398:5
1 457:1 1252:1 1398:4
1 631:1 1368:1 1398:6
1 175:1 241:1 288:1 623:1 631:1 635:1 1102:1 1125:1 1254:1 1302:1 1319:1 1338:1 1340:1 1361:1 1368:1 1370:1 1398:4
1 631:1 1368:1 1398:5
1 175:1 241:1 288:1 344:1 623:1 631:1 635:1 706:1 715:1 829:1 832:1 864:1 1102:1 1125:1 1177:1 1221:1 1230:1 1254:1 1302:1 1314:1 1319:1 1320:1 1338:1 1340:1 1342:1 1361:1 1363:1 1368:1 1370:1 1375:1 1398:3
1 631:1 1368:1 1398:6
1 631:1 1368:1 1398:6
1 175:1 241:1 288:1 623:1 631:1 635:1 1102:1 1125:1 1254:1 1302:1 1319:1 1338:1 1340:1 1361:1 1368:1 1370:1 1398:3
1 631:1 1368:1 1398:6
1 631:1 1368:1 1398:5
1 631:1 1368:1 1398:4
1 175:1 241:1 288:1 631:1 715:1 1102:1 1230:1 1254:1 1302:1 1319:1 1338:1 1368:1 1398:2
1 631:1 1368:1 1398:6
1 175:1 241:1 288:1 623:1 631:1 635:1 1102:1 1125:1 1254:1 1302:1 1319:1 1338:1 1340:1 1361:1 1368:1 1370:1 1398:5
1 457:1 1252:1 1398:5
1 631:1 1368:1 1398:6
1 175:1 241:1 288:1 623:1 631:1 635:1 1102:1 1125:1 1254:1 1302:1 1319:1 1338:1 1340:1 1361:1 1368:1 1370:1 1398:4
1 175:1 241:1 288:1 623:1 631:1 635:1 1102:1 1125:1 1254:1 1302:1 1319:1 1338:1 1340:1 1361:1 1368:1 1370:1 1398:4
1 631:1 1368:1 1398:3
1 631:1 1368:1 1398:5
1 631:1 1368:1 1398:6
1 175:1 241:1 288:1 623:1 631:1 635:1 1102:1 1125:1 1254:1 1302:1 1319:1 1338:1 1340:1 1361:1 1368:1 1370:1 1398:4
1 175:1 241:1 288:1 623:1 631:1 635:1 1102:1 1125:1 1254:1 1302:1 1319:1 1338:1 1340:1 1361:1 1368:1 1370:1 1398:4
1 631:1 1368:1 1398:7
1 631:1 1368:1 1398:6
1 631:1 1368:1 1398:6
1 631:1 1368:1 1398:5
1 631:1 1368:1 1398:6
1 457:1 1252:1 1398:4
1 175:1 241:1 288:1 623:1 631:1 715:1 1102:1 1125:1 1230:1 1254:1 1302:1 1319:1 1338:1 1340:1 1361:1 1368:1 1398:8
1 1398:2
1 175:1 631:1 1254:1 1368:1 1398:2
1 175:1 241:1 288:1 623:1 631:1 715:1 1102:1 1125:1 1230:1 1254:1 1302:1 1319:1 1338:1 1340:1 1361:1 1368:1 1398:8
1 631:1 1368:1 1398:6
1 457:1 1252:1 1398:5
1 288:1 623:1 631:1 1102:1 1319:1 1338:1 1361:1 1368:1 1398:3
1 631:1 1368:1 1398:6
1 631:1 1368:1 1398:6
1 631:1 1368:1 1398:5
1 175:1 241:1 288:1 631:1 715:1 1102:1 1230:1 1254:1 1302:1 1319:1 1338:1 1368:1 1398:2
1 631:1 1368:1 1398:5
1 631:1 1368:1 1398:6
1 631:1 1368:1 1398:5
1 175:1 241:1 288:1 623:1 631:1 635:1 1102:1 1125:1 1254:1 1302:1 1319:1 1338:1 1340:1 1361:1 1368:1 1370:1 1398:5
1 631:1 1368:1 1398:1
1 631:1 1368:1 1398:4
1 631:1 1368:1 1398:6
1 631:1 1368:1 1398:3
1 631:1 1368:1 1398:5
1 175:1 241:1 288:1 623:1 631:1 635:1 1102:1 1125:1 1254:1 1302:1 1319:1 1338:1 1340:1 1361:1 1368:1 1370:1 1398:4
1 175:2 241:2 288:2 317:1 344:1 528:2 551:1 623:2 631:4 635:2 636:1 706:1 715:3 1102:4 1125:1 1175:1 1221:1 1230:3 1254:2 1289:2 1302:2 1319:4 1322:1 1338:2 1340:1 1354:1 1361:2 1363:1 1368:4 1370:2 1372:1 1374:1 1398:7 1400:17
1 631:1 1368:1 1398:6
1 175:1 241:1 288:1 631:1 715:1 1102:1 1230:1 1254:1 1302:1 1319:1 1338:1 1368:1 1398:2
1 175:1 223:1 241:1 288:1 311:1 336:1 368:1 453:1 484:1 528:1 623:1 631:1 635:1 713:1 715:1 742:1 782:1 829:1 832:1 911:1 1083:1 1093:1 1102:1 1125:1 1228:1 1230:1 1251:1 1253:1 1254:1 1262:1 1271:1 1282:1 1289:1 1298:1 1302:1 1313:1 1314:1 1319:1 1320:1 1338:1 1340:1 1349:1 1358:1 1361:1 1362:1 1368:1 1370:1 1386:1 1398:3
1 175:1 241:1 288:1 631:1 715:1 1102:1 1230:1 1254:1 1302:1 1319:1 1338:1 1368:1 1398:2
1 631:1 1368:1 1398:6
1 631:1 1368:1 1398:5
1 1398:2
1 631:1 1368:1 1398:6
1 631:1 1368:1 1398:6
1 175:1 241:1 288:1 623:1 631:1 635:1 1102:1 1125:1 1254:1 1302:1 1319:1 1338:1 1340:1 1361:1 1368:1 1370:1 1398:4
1 623:1 631:1 635:1 715:1 1102:1 1230:1 1319:1 1361:1 1368:1 1370:1 1398:4 1400:2
1 631:1 1368:1 1398:5
1 175:1 241:1 288:1 631:1 715:1 1102:1 1230:1 1254:1 1302:1 1319:1 1338:1 1368:1 1398:2
1 631:1 1368:1 1398:6
1 631:1 1368:1 1398:6
1 175:1 484:1 528:1 623:1 631:1 635:1 1102:1 1125:1 1254:1 1262:1 1289:1 1319:1 1340:1 1361:1 1368:1 1370:1 1398:2
1 631:1 1368:1 1398:5
1 631:1 1368:1 1398:8
1 631:1 1368:1 1398:6
1 631:1 1368:1 1398:7
1 631:1 1368:1 1398:1
1 175:1 631:1 1254:1 1368:1 1398:4
1 631:1 1368:1 1398:5
1 457:1 1252:1 1398:5
1 457:1 1252:1 1398:5
1 631:1 715:1 758:1 1230:1 1261:1 1368:1 1398:2
1 175:1 241:1 288:1 344:1 495:1 551:1 558:1 616:1 623:1 631:1 635:1 636:1 665:1 706:1 713:1 715:1 722:1 758:1 829:1 1102:1 1125:1 1175:1 1221:1 1228:1 1230:1 1239:1 1254:1 1261:1 1269:1 1302:1 1314:1 1319:1 1322:1 1330:1 1338:1 1340:1 1359:1 1361:1 1363:1 1368:1 1370:1 1372:1 1374:1 1395:1 1398:2
1 457:1 1252:1 1398:6
1 457:1 1252:1 1398:6
1 175:1 241:1 288:1 623:1 631:1 635:1 1102:1 1254:1 1302:1 1319:1 1338:1 1361:1 1368:1 1370:1 1398:4
1 631:1 1368:1 1398:5
1 631:1 1368:1 1398:6
1 457:1 1252:1 1398:5
1 631:1 1368:1 1398:5
1 631:1 1102:1 1319:1 1368:1 1398:5 1400:1
1 175:1 241:1 288:1 623:1 631:1 635:1 1102:1 1125:1 1254:1 1302:1 1319:1 1338:1 1340:1 1361:1 1368:1 1370:1 1398:4
1 631:1 1368:1 1398:6
1 631:1 1368:1 1398:6
1 631:1 1368:1 1398:6
1 631:1 1102:1 1319:1 1368:1 1398:3
1 241:1 288:1 336:1 528:1 623:1 631:1 715:1 829:1 849:1 864:1 888:1 1057:1 1095:1 1102:1 1230:1 1274:1 1289:1 1302:1 1314:1 1315:1 1319:1 1329:1 1338:1 1342:1 1351:1 1358:1 1361:1 1368:1 1398:4
1 631:1 1368:1 1398:6
1 631:1 1368:1 1398:6
1 1398:3
1 1398:2
1 631:1 1368:1 1398:5
1 175:1 241:1 288:2 344:1 528:1 623:2 631:4 635:1 715:3 828:1 911:1 1102:3 1125:1 1230:3 1254:1 1289:1 1302:1 1312:1 1319:3 1338:2 1340:1 1361:2 1362:1 1363:1 1368:4 1370:1 1398:4 1400:2
1 631:1 1368:1 1398:4
1 631:1 1368:1 1398:6
1 241:1 631:1 1302:1 1368:1 1398:6
1 631:1 1368:1 1398:6
1 631:1 1368:1 1398:5
-1 358:1 631:1 1368:1 1398:1
-1 358:1 631:1 1368:1 1398:1
-1 358:1 631:1 1368:1 1398:1
-1 358:1 631:1 1368:1 1398:1
-1 358:1 631:1 1368:1 1398:1
-1 358:1 631:1 1368:1 1398:1
-1 358:1 631:1 1368:1 1398:1
-1 358:1 631:1 1368:1 1398:1
-1 358:1 631:1 1368:1 1398:1
-1 175:1 288:1 528:1 623:1 631:1 722:1 1041:1 1079:1 1102:1 1239:1 1254:1 1289:1 1294:1 1319:1 1338:1 1361:1 1368:1 1398:2
-1 358:1 631:1 1368:1 1398:1
-1 358:1 631:1 1368:1 1398:1
-1 358:1 631:1 1368:1 1398:1
-1 175:1 358:1 631:1 761:1 1102:1 1254:1 1264:1 1319:1 1368:1 1398:1
-1 358:1 631:1 1368:1 1398:1
-1 358:1 631:1 1368:1 1398:1
-1 358:1 631:1 805:1 1368:1 1398:1
-1 358:1 631:1 1368:1 1398:1
-1 358:1 631:1 1368:1 1398:1
-1 358:1 631:1 1368:1 1398:1
-1 358:1 631:1 1368:1 1398:1
-1 358:1 631:1 1368:1 1398:1
-1 358:1 631:1 805:1 1210:1 1368:1 1398:1
-1 358:1 631:1 805:1 1210:1 1368:1 1398:1
-1 358:1 631:1 805:1 1368:1 1398:1
-1 358:1 631:1 1368:1 1398:1
-1 175:1 288:1 615:1 623:1 631:1 635:1 681:1 761:1 829:1 1102:1 1254:1 1264:1 1314:1 1319:1 1338:1 1361:1 1368:1 1370:1 1398:2
-1 160:1 358:1 631:1 1368:1 1398:2
-1 262:1 460:1 617:1 631:1 681:1 720:1 761:1 1036:1 1175:1 1264:1 1318:1 1360:1 1368:1 1374:1 1398:1 1400:1
-1 241:1 288:1 528:1 623:1 631:1 1102:1 1289:1 1302:1 1319:1 1338:1 1361:1 1368:1 1398:3
-1 631:1 715:1 1102:1 1230:1 1319:1 1368:1 1398:4
-1 528:1 623:1 631:1 715:1 1102:1 1230:1 1289:1 1319:1 1361:1 1368:1 1398:2
-1 175:1 241:1 288:1 528:1 623:1 631:1 635:1 706:1 715:1 853:1 1102:1 1221:1 1230:1 1254:1 1289:1 1302:1 1319:1 1333:1 1338:1 1361:1 1368:1 1370:1 1398:3
-1 241:1 288:1 528:1 623:1 631:1 635:1 706:1 715:1 1102:1 1221:1 1230:1 1289:1 1302:1 1319:1 1338:1 1361:1 1368:1 1370:1 1398:4
-1 457:1 1252:1 1398:3
-1 457:1 1252:1 1398:3
-1 175:1 241:1 288:1 414:1 616:1 623:1 631:1 715:1 895:1 1014:1 1078:1 1102:1 1139:1 1146:1 1230:1 1254:1 1302:1 1319:1 1338:1 1359:1 1361:1 1368:1 1398:1
-1 457:1 1252:1 1398:3
-1 175:1 623:1 631:1 706:1 839:1 911:1 1102:1 1125:1 1221:1 1254:1 1319:1 1323:1 1340:1 1361:1 1362:1 1368:1 1398:2
-1 175:1 241:1 288:1 528:1 623:1 631:1 635:1 706:1 715:1 853:1 911:1 1102:1 1221:1 1230:1 1254:1 1289:1 1302:1 1319:1 1333:1 1338:1 1361:1 1362:1 1368:1 1370:1 1398:1
-1 175:1 225:1 241:1 631:1 635:1 706:1 1102:1 1125:1 1221:1 1254:1 1302:1 1319:1 1340:1 1368:1 1370:1 1398:2
-1 175:1 241:1 288:1 558:1 623:1 631:1 635:1 706:1 715:1 1057:1 1102:1 1183:1 1221:1 1230:1 1254:1 1274:1 1302:1 1319:1 1330:1 1338:1 1361:1 1368:1 1370:1 1381:1 1398:2
-1 1398:1
-1 146:1 177:1 247:1 257:1 395:1 415:1 461:1 503:1 528:1 539:1 729:1 852:1 938:1 1027:1 1068:1 1084:1 1115:1 1134:1 1162:1 1222:1 1236:1 1273:1 1284:1 1289:1 1307:1 1310:1 1331:1 1332:1 1357:1 1398:1 1400:3
-1 631:1 1368:1 1398:3
-1 175:1 623:2 631:4 635:1 706:1 715:2 1102:2 1175:1 1221:1 1230:2 1254:1 1319:2 1361:2 1368:4 1370:1 1374:1 1398:6
-1 175:1 288:2 623:2 631:4 635:1 715:2 1102:2 1125:1 1230:2 1254:1 1319:2 1338:2 1340:1 1361:2 1368:4 1370:1 1398:6
-1 528:2 631:1 1175:1 1289:2 1368:1 1374:1 1398:2
-1 288:1 623:1 631:1 1078:1 1102:1 1139:1 1319:1 1338:1 1361:1 1368:1 1398:1
-1 146:1 247:1 257:1 355:1 395:1 415:1 437:1 461:1 503:1 528:1 539:1 729:1 812:1 852:1 938:1 940:1 1031:1 1039:1 1068:1 1084:1 1115:1 1134:1 1162:1 1222:1 1236:1 1241:1 1257:1 1273:1 1284:1 1289:1 1292:1 1307:1 1310:1 1331:1 1332:1 1357:1 1373:1 1398:2
-1 631:1 918:1 1078:1 1368:1 1398:1
-1 457:1 1252:1 1398:2
-1 317:1 528:1 631:1 1102:1 1289:1 1319:1 1354:1 1368:1 1398:2
-1 175:1 203:1 288:1 528:2 623:1 631:1 1079:1 1102:1 1254:1 1289:2 1294:1 1319:1 1338:1 1361:1 1368:1 1398:2
-1 457:1 1252:1 1398:2
-1 457:1 1252:1 1398:2
-1 457:1 1252:1 1398:2
-1 175:1 326:1 528:1 631:1 706:1 1102:1 1221:1 1254:1 1289:1 1319:1 1368:1 1398:2
-1 528:1 631:1 1102:1 1289:1 1319:1 1368:1 1398:5
-1 175:1 241:1 288:1 623:1 631:1 635:1 706:1 715:1 832:1 911:1 1093:1 1102:1 1125:1 1203:1 1221:1 1230:1 1254:1 1302:1 1313:1 1319:1 1320:1 1338:1 1340:1 1361:1 1362:1 1368:1 1370:1 1393:1 1398:1
-1 528:1 631:1 1289:1 1368:1 1398:2
-1 175:1 288:1 616:1 623:1 631:1 635:1 706:1 715:1 829:1 832:1 1079:1 1102:1 1125:1 1221:1 1230:1 1254:1 1294:1 1314:1 1319:1 1320:1 1338:1 1340:1 1359:1 1361:1 1368:1 1370:1 1398:1
-1 711:1 1227:1 1398:1
-1 528:1 631:1 1289:1 1368:1 1398:4
-1 528:1 631:1 1102:1 1289:1 1319:1 1368:1 1398:4
-1 123:1 241:1 288:1 344:1 414:1 623:1 631:1 701:1 713:1 715:1 829:1 853:1 1078:1 1079:1 1102:1 1139:1 1206:1 1228:1 1230:1 1294:1 1302:1 1314:1 1319:1 1333:1 1338:1 1361:1 1363:1 1368:1 1398:1
-1 175:1 241:1 288:1 528:1 631:1 715:1 1041:1 1102:1 1230:1 1254:1 1289:1 1302:1 1319:1 1338:1 1368:1 1398:2
-1 457:1 1252:1 1398:3
-1 175:1 241:1 623:1 631:1 706:1 715:1 1093:1 1102:1 1203:1 1221:1 1230:1 1254:1 1302:1 1313:1 1319:1 1361:1 1368:1 1393:1 1398:1
-1 623:2 631:2 635:1 715:1 1102:2 1230:1 1319:2 1361:2 1368:2 1370:1 1398:7
-1 175:1 288:1 528:2 623:1 631:1 635:1 706:1 1079:1 1102:1 1221:1 1254:1 1289:2 1294:1 1319:1 1338:1 1361:1 1368:1 1370:1 1398:5
-1 457:1 1252:1 1398:3
-1 457:1 1252:1 1398:2
-1 175:1 241:1 288:1 623:1 631:1 713:1 715:1 1102:1 1125:1 1228:1 1230:1 1254:1 1302:1 1319:1 1338:1 1340:1 1361:1 1368:1 1398:2
-1 241:1 288:1 495:1 528:1 623:1 631:1 715:1 766:1 1125:1 1203:1 1230:1 1269:1 1289:1 1302:1 1338:1 1340:1 1361:1 1368:1 1393:1 1398:1
-1 241:1 288:1 623:1 631:1 713:1 805:1 1102:1 1210:1 1228:1 1302:1 1319:1 1338:1 1361:1 1368:1 1398:1
-1 457:1 1252:1 1398:4
-1 457:1 1252:1 1398:3
-1 175:1 241:1 288:1 623:1 631:1 635:1 706:1 715:1 1102:1 1221:1 1230:1 1254:1 1302:1 1319:1 1338:1 1361:1 1368:1 1370:1 1398:1 1400:1
-1 631:1 829:1 1102:1 1314:1 1319:1 1368:1 1398:1
-1 711:1 1227:1 1398:1
-1 241:1 336:1 457:1 528:1 623:1 631:1 715:1 829:1 1230:1 1252:1 1289:1 1302:1 1314:1 1358:1 1361:1 1368:1 1398:3 1400:4
-1 175:1 265:1 288:1 623:1 631:1 635:1 706:1 715:1 1102:1 1221:1 1230:1 1254:1 1319:1 1338:1 1361:1 1368:1 1370:1 1398:11
-1 457:1 1252:1 1398:3
-1 457:1 1252:1 1398:2
-1 175:1 241:1 256:1 288:1 623:1 631:1 715:1 1079:1 1102:1 1175:1 1230:1 1254:1 1294:1 1302:1 1316:1 1319:1 1338:1 1361:1 1368:1 1374:1 1398:2
-1 175:1 241:1 288:1 623:1 631:1 1102:1 1254:1 1302:1 1319:1 1338:1 1361:1 1368:1 1398:2
-1 175:1 241:1 288:1 528:1 551:1 623:2 631:4 635:1 636:1 715:3 1102:3 1125:1 1175:1 1230:3 1254:1 1289:1 1302:1 1319:3 1322:1 1338:1 1340:1 1361:2 1368:4 1370:1 1372:1 1374:1 1398:5
-1 175:1 241:1 288:1 528:1 551:1 623:2 631:4 635:1 636:1 715:3 1102:3 1125:1 1230:3 1254:1 1289:1 1302:1 1319:3 1322:1 1338:1 1340:1 1361:2 1368:4 1370:1 1372:1 1398:5
-1 457:1 1252:1 1398:3
-1 457:1 1252:1 1398:3
-1 146:1 148:1 274:1 415:1 478:1 503:1 528:1 729:1 789:1 793:1 812:1 818:1 852:1 1006:1 1027:1 1031:1 1068:1 1076:1 1084:1 1134:1 1162:1 1222:1 1236:1 1238:1 1243:1 1257:1 1260:1 1273:1 1284:1 1289:1 1292:1 1326:1 1332:1 1357:1 1398:1
-1 175:1 241:1 288:1 344:1 558:1 623:1 631:1 635:1 706:1 715:1 829:1 1102:1 1221:1 1230:1 1254:1 1302:1 1314:1 1319:1 1330:1 1338:1 1361:1 1363:1 1368:1 1370:1 1398:2
-1 175:1 241:1 288:1 551:1 623:1 631:1 635:1 678:1 706:1 1102:1 1221:1 1254:1 1302:1 1319:1 1322:1 1338:1 1361:1 1368:1 1370:1 1398:2
-1 457:1 1252:1 1398:3
-1 528:1 551:1 631:1 1289:1 1322:1 1368:1 1398:6
-1 631:1 1175:1 1368:1 1374:1 1398:2
-1 528:1 631:1 844:1 1041:1 1102:1 1289:1 1319:1 1368:1 1398:2
-1 201:1 631:1 1136:1 1175:1 1368:1 1374:1 1398:3
-1 175:1 241:1 288:1 623:1 631:1 706:1 715:1 758:1 829:1 1102:1 1175:1 1221:1 1230:1 1254:1 1261:1 1302:1 1314:1 1319:1 1338:1 1361:1 1368:1 1374:1 1398:1
-1 125:1 160:1 195:1 207:1 431:1 513:1 631:1 681:1 761:1 855:1 856:1 915:1 918:1 1264:1 1368:1 1398:2
-1 175:1 241:1 288:1 344:1 558:1 623:1 631:1 635:1 706:1 715:1 829:1 1102:1 1125:1 1175:1 1221:1 1230:1 1254:1 1302:1 1314:1 1319:1 1330:1 1338:1 1340:1 1361:1 1363:1 1368:1 1370:1 1374:1 1398:1
-1 631:1 1368:1 1398:2
-1 1398:4
-1 623:1 631:1 1361:1 1368:1 1398:3
-1 241:1 631:1 715:1 1102:1 1230:1 1302:1 1319:1 1368:1 1398:3
-1 175:1 241:1 288:1 391:1 623:1 631:1 635:1 849:1 1102:1 1254:1 1302:1 1319:1 1329:1 1338:1 1361:1 1368:1 1370:1 1398:3
-1 146:1 247:1 257:1 274:1 395:1 415:1 430:1 437:1 461:1 503:1 528:1 539:1 639:1 729:1 746:1 852:1 938:1 1068:1 1084:1 1134:1 1162:1 1222:1 1236:1 1241:1 1256:1 1273:1 1284:1 1289:1 1307:1 1310:1 1326:1 1332:1 1357:1 1398:1
-1 121:1 146:1 274:1 336:1 415:1 426:1 503:1 528:1 729:1 789:1 852:1 949:1 1031:1 1035:1 1068:1 1084:1 1134:1 1222:1 1236:1 1257:1 1273:1 1284:1 1289:1 1326:1 1332:1 1358:1 1391:1 1398:3
-1 121:1 146:1 247:1 274:1 336:1 395:1 415:1 503:1 510:1 528:1 640:1 729:1 789:1 832:1 852:1 940:1 949:1 1004:1 1031:1 1035:1 1068:1 1077:1 1080:1 1084:1 1118:1 1134:1 1211:1 1222:1 1236:1 1257:1 1273:1 1284:1 1289:1 1295:1 1310:1 1320:1 1326:1 1332:1 1358:1 1391:1 1398:2
-1 336:1 528:1 623:1 631:1 1289:1 1358:1 1361:1 1368:1 1398:1
-1 175:1 241:1 558:1 623:1 631:1 635:1 706:1 715:1 829:1 1102:1 1221:1 1230:1 1254:1 1302:1 1314:1 1319:1 1330:1 1361:1 1368:1 1370:1 1398:1
-1 457:1 562:1 623:1 631:1 715:1 1102:1 1230:1 1252:1 1319:1 1361:1 1368:1 1398:1
-1 146:1 395:1 415:1 461:1 503:1 528:1 716:1 729:1 852:1 938:1 1068:1 1084:1 1115:1 1134:1 1222:1 1231:1 1236:1 1273:1 1284:1 1289:1 1331:1 1332:1 1398:2
-1 175:1 241:1 262:1 271:1 288:1 344:1 453:1 623:1 631:1 636:1 715:1 722:1 829:1 843:1 1097:1 1102:1 1125:1 1175:1 1177:1 1230:1 1239:1 1251:1 1254:1 1302:1 1314:1 1318:1 1319:1 1324:1 1338:1 1340:1 1361:1 1363:1 1368:1 1372:1 1374:1 1375:1 1398:2 1400:919
-1 241:1 288:1 528:1 623:1 631:1 715:1 1203:1 1230:1 1289:1 1302:1 1338:1 1361:1 1368:1 1393:1 1398:1
-1 146:1 241:1 247:1 272:1 295:1 318:1 336:1 395:1 415:1 437:1 461:1 503:1 570:1 623:1 630:1 631:1 715:1 729:1 852:1 1102:1 1134:1 1222:1 1230:1 1236:1 1241:1 1273:1 1302:1 1310:1 1319:1 1325:1 1332:1 1339:1 1341:1 1352:1 1358:1 1361:1 1368:1 1398:2
-1 241:1 272:1 295:1 318:1 344:1 368:1 623:1 631:1 715:1 849:1 911:1 1080:1 1083:1 1102:1 1110:1 1230:1 1295:1 1298:1 1302:1 1319:1 1325:1 1329:1 1341:1 1352:1 1361:1 1362:1 1363:1 1368:1 1386:1 1398:1
-1 241:1 623:1 631:1 1302:1 1361:1 1368:1 1398:1
-1 241:1 272:1 295:1 318:1 623:1 631:1 1302:1 1325:1 1341:1 1352:1 1361:1 1368:1 1398:1
-1 241:1 623:1 631:1 832:1 948:1 1080:1 1295:1 1302:1 1320:1 1361:1 1368:1 1398:1
-1 272:1 295:1 318:1 616:1 623:1 631:1 1102:1 1319:1 1325:1 1341:1 1352:1 1359:1 1361:1 1368:1 1398:1
-1 241:1 272:1 288:1 295:1 318:1 623:1 631:1 832:1 1080:1 1102:1 1295:1 1302:1 1319:1 1320:1 1325:1 1338:1 1341:1 1352:1 1361:1 1368:1 1398:1
-1 457:1 1252:1 1398:3
-1 288:1 484:1 623:1 631:1 635:1 715:1 829:1 832:1 1102:1 1125:1 1230:1 1262:1 1314:1 1319:1 1320:1 1338:1 1340:1 1361:1 1368:1 1370:1 1398:1 1400:3
-1 631:1 1368:1 1398:3
-1 623:2 631:2 635:1 715:1 1102:2 1230:1 1319:2 1361:2 1368:2 1370:1 1398:7
-1 336:1 623:1 631:1 1079:1 1175:1 1294:1 1358:1 1361:1 1368:1 1374:1 1398:4
-1 288:1 528:1 623:1 631:1 1102:1 1289:1 1319:1 1338:1 1361:1 1368:1 1398:3
-1 288:1 528:1 623:1 631:1 1102:1 1289:1 1319:1 1338:1 1361:1 1368:1 1398:3
-1 175:1 241:2 288:2 551:1 623:2 631:5 635:1 637:1 706:1 715:3 1072:1 1102:2 1125:1 1175:1 1221:1 1230:3 1254:1 1302:2 1319:2 1322:1 1338:2 1340:1 1361:2 1368:5 1370:1 1374:1 1398:6
-1 227:1 432:1 528:2 631:1 720:1 922:1 943:1 1036:1 1289:2 1368:1 1398:3
-1 146:1 336:1 415:1 503:1 528:1 722:1 729:1 852:1 938:1 940:1 949:1 1058:1 1079:1 1084:1 1098:1 1134:1 1162:1 1222:1 1236:1 1239:1 1273:1 1289:1 1294:1 1332:1 1357:1 1358:1 1391:1 1398:2
-1 631:1 1368:1 1398:2
-1 175:1 241:1 623:2 631:3 635:1 715:1 1102:2 1230:1 1254:1 1302:1 1319:2 1361:2 1368:3 1370:1 1398:6
-1 457:1 1252:1 1398:3
-1 457:1 1252:1 1398:3
-1 631:1 681:1 761:1 902:1 1264:1 1368:1 1398:2
-1 528:1 631:1 1102:1 1289:1 1319:1 1368:1 1398:5
-1 241:1 271:1 623:1 631:1 914:1 996:1 1102:1 1125:1 1234:1 1302:1 1319:1 1324:1 1340:1 1361:1 1368:1 1398:3
-1 218:1 318:1 475:1 487:1 535:1 618:1 631:1 649:1 709:1 881:1 945:1 1053:1 1102:1 1180:1 1182:1 1225:1 1277:1 1299:1 1319:1 1352:1 1368:1 1376:1 1379:1 1382:1 1388:1 1398:3
-1 528:2 623:1 631:1 1289:2 1361:1 1368:1 1398:3
-1 528:1 574:1 631:1 706:1 790:1 1102:1 1221:1 1275:1 1289:1 1319:1 1368:1 1398:2
-1 341:1 528:1 631:1 1289:1 1368:1 1398:2
-1 457:1 1252:1 1398:2
-1 457:1 1252:1 1398:2
-1 241:1 562:1 566:1 623:1 631:1 1302:1 1361:1 1368:1 1398:1
-1 457:1 1252:1 1398:2
-1 241:1 457:1 478:1 562:1 566:1 623:1 631:1 1079:1 1252:1 1260:1 1294:1 1302:1 1361:1 1368:1 1398:1 1400:9
-1 562:1 566:1 623:1 631:1 1361:1 1368:1 1398:3 1400:26
-1 711:1 1227:1 1398:1
-1 146:1 177:1 257:1 395:1 415:1 503:1 528:1 539:1 729:1 807:1 852:1 1027:1 1068:1 1115:1 1134:1 1222:1 1236:1 1273:1 1284:1 1287:1 1289:1 1307:1 1331:1 1332:1 1398:1
-1 457:1 1252:1 1398:4
-1 631:1 1368:1 1398:1
-1 288:1 336:1 528:1 623:1 631:1 829:1 864:1 1102:1 1289:1 1314:1 1319:1 1338:1 1342:1 1358:1 1361:1 1368:1 1398:1
-1 146:1 336:1 415:1 421:1 467:1 503:1 528:1 570:1 623:1 631:1 729:1 852:1 1134:1 1222:1 1236:1 1273:1 1289:1 1332:1 1339:1 1358:1 1361:1 1368:1 1398:1
-1 175:1 244:1 631:1 1102:1 1175:1 1254:1 1319:1 1368:1 1374:1 1398:2
-1 711:1 1227:1 1398:1
-1 175:1 241:1 288:1 376:1 558:1 623:1 631:1 635:1 706:1 715:1 1102:1 1221:1 1230:1 1254:1 1302:1 1319:1 1330:1 1338:1 1361:1 1368:1 1370:1 1394:1 1398:2
-1 528:1 623:1 631:1 1289:1 1361:1 1368:1 1398:2
-1 146:1 336:1 415:1 503:1 528:1 729:1 852:1 933:1 1084:1 1134:1 1222:1 1236:1 1273:1 1289:1 1332:1 1358:1 1398:2
-1 175:1 631:1 750:1 1102:1 1254:1 1319:1 1368:1 1398:3
-1 161:1 210:1 241:1 288:1 502:1 610:1 631:1 706:1 829:1 857:1 899:1 1102:1 1175:1 1191:1 1221:1 1302:1 1314:1 1319:1 1338:1 1368:1 1374:1 1398:2 1400:3660
-1 623:3 631:4 635:1 715:1 1102:2 1230:1 1319:2 1361:3 1368:4 1370:1 1398:5
-1 623:3 631:4 635:1 715:1 1102:2 1230:1 1319:2 1361:3 1368:4 1370:1 1398:4
-1 125:1 160:1 195:1 431:1 513:1 631:1 681:1 761:1 805:1 855:1 918:1 1210:1 1264:1 1368:1 1398:1
-1 241:1 306:1 447:1 623:1 631:1 754:1 1102:1 1175:1 1302:1 1319:1 1347:1 1361:1 1368:1 1374:1 1398:2
-1 175:1 241:1 306:1 528:1 623:1 631:1 1041:1 1102:1 1175:1 1254:1 1289:1 1302:1 1319:1 1347:1 1361:1 1368:1 1374:1 1398:2
-1 623:2 631:2 635:1 715:1 1102:2 1230:1 1319:2 1361:2 1368:2 1370:1 1398:7
-1 132:1 146:1 148:1 247:1 274:1 336:1 373:1 415:1 461:1 503:1 528:1 690:1 729:1 793:1 852:1 949:1 988:1 1006:1 1031:1 1060:1 1068:1 1076:1 1084:1 1134:1 1162:1 1219:1 1222:1 1223:1 1236:1 1238:1 1243:1 1257:1 1273:1 1284:1 1289:1 1310:1 1326:1 1332:1 1357:1 1358:1 1391:1 1398:2
-1 457:1 1252:1 1398:4
-1 175:1 241:1 288:1 623:1 631:1 635:1 1102:1 1125:1 1254:1 1302:1 1319:1 1338:1 1340:1 1361:1 1368:1 1370:1 1398:3
-1 175:1 241:1 288:1 623:1 631:1 635:1 1102:1 1125:1 1254:1 1302:1 1319:1 1338:1 1340:1 1361:1 1368:1 1370:1 1398:3
-1 146:1 274:1 286:1 336:1 373:1 395:1 415:1 421:1 503:1 528:1 632:1 640:1 646:1 715:1 729:1 789:1 826:1 852:1 896:1 940:1 949:1 988:1 1031:1 1034:1 1068:1 1084:1 1134:1 1144:1 1158:1 1162:1 1190:1 1222:1 1223:1 1230:1 1236:1 1257:1 1273:1 1284:1 1289:1 1326:1 1332:1 1348:1 1357:1 1358:1 1391:1 1398:3
-1 146:1 178:1 336:1 382:1 415:1 503:1 528:1 619:1 632:1 729:1 852:1 919:1 938:1 940:1 949:1 1034:1 1084:1 1098:1 1134:1 1162:1 1222:1 1236:1 1273:1 1289:1 1332:1 1357:1 1358:1 1391:1 1396:1 1398:1
-1 241:1 336:1 528:1 623:1 631:1 1102:1 1289:1 1302:1 1319:1 1358:1 1361:1 1368:1 1398:2
-1 175:1 288:1 528:2 616:1 631:1 829:1 1102:1 1254:1 1289:2 1314:1 1319:1 1338:1 1359:1 1368:1 1398:5
-1 146:1 234:1 247:1 274:1 297:1 336:1 373:1 395:1 415:1 461:1 503:1 505:1 528:1 539:1 729:1 812:1 852:1 940:1 949:1 988:1 1031:1 1068:1 1115:1 1134:1 1144:1 1162:1 1222:1 1223:1 1236:1 1257:1 1273:1 1284:1 1289:1 1292:1 1307:1 1310:1 1326:1 1331:1 1332:1 1348:1 1357:1 1358:1 1391:1 1398:2
-1 336:1 1358:1 1398:1
-1 528:1 623:1 631:1 1079:1 1102:1 1289:1 1294:1 1319:1 1361:1 1368:1 1398:4
-1 336:1 1358:1 1398:1
-1 631:1 1368:1 1398:2
-1 336:1 1358:1 1398:1
-1 175:1 241:1 288:1 551:1 623:1 631:1 635:1 706:1 715:1 1102:1 1125:1 1175:1 1221:1 1230:1 1254:1 1302:1 1319:1 1322:1 1338:1 1340:1 1361:1 1368:1 1370:1 1374:1 1398:4
-1 175:1 241:1 288:1 344:1 631:1 713:1 1083:1 1102:1 1177:1 1228:1 1254:1 1298:1 1302:1 1319:1 1338:1 1363:1 1368:1 1375:1 1398:2 1400:2
-1 175:1 288:1 623:1 631:1 706:1 1102:1 1221:1 1254:1 1319:1 1338:1 1361:1 1368:1 1398:1
-1 241:1 528:1 631:1 715:1 1041:1 1102:1 1230:1 1289:1 1302:1 1319:1 1368:1 1398:3
-1 457:1 1252:1 1398:2
-1 175:1 288:1 623:1 631:1 1102:1 1175:1 1254:1 1319:1 1338:1 1361:1 1368:1 1374:1 1398:1
-1 175:1 241:1 288:1 623:1 631:1 635:1 706:1 713:1 715:1 829:1 951:1 1102:1 1125:1 1221:1 1228:1 1230:1 1254:1 1302:1 1314:1 1319:1 1338:1 1340:1 1361:1 1368:1 1370:1 1392:1 1398:1
-1 457:1 1252:1 1398:3
-1 457:1 1252:1 1398:2
-1 175:1 631:1 635:1 706:1 750:1 1102:1 1221:1 1254:1 1319:1 1368:1 1370:1 1398:3
-1 154:1 248:1 350:1 631:1 898:1 1368:1 1398:4
-1 457:1 1252:1 1398:3
-1 457:1 1252:1 1398:2
-1 631:1 720:1 1036:1 1078:1 1368:1 1398:1
-1 175:1 288:1 623:2 631:4 635:1 715:2 1102:2 1230:2 1254:1 1319:2 1338:1 1361:2 1368:4 1370:1 1398:6
-1 175:1 241:1 288:1 344:1 623:2 631:4 635:1 715:3 804:1 1102:2 1125:1 1175:1 1230:3 1254:1 1285:1 1302:1 1319:2 1338:1 1340:1 1361:2 1363:1 1368:4 1370:1 1374:1 1398:6
-1 457:1 1252:1 1398:3
-1 631:1 678:1 1368:1 1398:2
-1 175:1 282:1 288:2 404:1 631:2 853:1 1102:1 1254:1 1319:1 1333:1 1338:2 1368:2 1398:4
-1 288:1 623:1 631:1 1102:1 1125:1 1175:1 1319:1 1338:1 1340:1 1361:1 1368:1 1374:1 1398:2
-1 288:1 623:1 631:1 1102:1 1125:1 1175:1 1319:1 1338:1 1340:1 1361:1 1368:1 1374:1 1398:2
-1 457:1 1252:1 1398:3
-1 227:1 528:1 631:1 720:1 943:1 1036:1 1289:1 1368:1 1398:2
-1 288:1 631:1 715:1 1102:1 1230:1 1319:1 1338:1 1368:1 1398:3
-1 631:1 1368:1 1398:2
-1 175:1 218:1 231:1 241:1 288:1 318:1 487:1 535:1 616:1 618:1 623:1 631:1 635:1 636:1 649:1 709:1 715:1 829:1 863:1 881:1 897:1 945:1 975:1 1018:1 1057:1 1061:1 1102:1 1125:1 1175:1 1180:1 1182:1 1218:1 1225:1 1230:1 1248:1 1254:1 1274:1 1277:1 1288:1 1299:1 1302:1 1314:1 1319:1 1338:1 1340:1 1352:1 1359:1 1361:1 1368:1 1370:1 1372:1 1374:1 1376:1 1379:1 1382:1 1388:1 1398:2 1400:124
-1 175:1 218:1 231:1 241:1 288:1 310:1 311:1 318:1 336:1 344:1 365:1 375:1 427:1 453:1 465:1 475:1 512:1 535:1 590:1 616:1 618:1 623:1 631:1 635:1 636:1 649:1 709:1 713:1 715:1 719:1 829:1 832:1 845:1 849:1 881:1 945:1 951:1 973:1 975:1 1018:1 1040:1 1053:1 1057:1 1061:1 1079:1 1090:1 1102:1 1125:1 1175:1 1180:1 1182:1 1200:1 1218:1 1225:1 1228:1 1230:1 1248:1 1251:1 1254:1 1274:1 1277:1 1280:1 1288:1 1294:1 1299:1 1302:1 1308:1 1314:1 1319:1 1320:1 1329:1 1338:1 1340:1 1349:1 1352:1 1358:1 1359:1 1361:1 1363:1 1368:1 1370:1 1372:1 1374:1 1376:1 1379:1 1382:1 1384:1 1388:1 1390:1 1392:1 1398:4 1400:190
-1 218:1 318:1 336:1 535:1 631:1 709:1 1180:1 1182:1 1225:1 1277:1 1299:1 1352:1 1358:1 1368:1 1376:1 1379:1 1398:1
-1 175:1 241:1 288:1 336:1 623:1 631:1 635:1 713:1 715:1 758:1 829:1 1079:1 1102:1 1228:1 1230:1 1254:1 1261:1 1294:1 1302:1 1314:1 1319:1 1338:1 1358:1 1361:1 1368:1 1370:1 1398:1
-1 175:1 241:1 288:1 558:1 623:1 631:1 635:1 706:1 715:1 829:1 1102:1 1221:1 1230:1 1254:1 1302:1 1314:1 1319:1 1330:1 1338:1 1361:1 1368:1 1370:1 1398:3
-1 160:1 271:1 631:1 681:1 761:1 902:1 996:1 1234:1 1264:1 1324:1 1368:1 1398:2
-1 175:1 241:1 288:1 623:1 631:1 635:1 1102:1 1125:1 1254:1 1302:1 1319:1 1338:1 1340:1 1361:1 1368:1 1370:1 1398:4
-1 175:1 241:1 288:1 623:1 631:1 635:1 1102:1 1125:1 1254:1 1302:1 1319:1 1338:1 1340:1 1361:1 1368:1 1370:1 1398:4
-1 216:1 528:1 631:1 1041:1 1289:1 1368:1 1398:2
-1 623:2 631:2 635:1 715:1 1102:2 1230:1 1319:2 1361:2 1368:2 1370:1 1398:7
-1 528:2 631:1 1289:2 1368:1 1398:2
-1 454:1 631:1 1136:1 1368:1 1398:2
-1 175:1 241:1 288:1 623:1 631:1 635:1 1102:1 1125:1 1254:1 1302:1 1319:1 1338:1 1340:1 1361:1 1368:1 1370:1 1398:3
-1 1398:3
-1 631:1 1368:1 1398:2
-1 146:1 288:1 395:1 415:1 495:1 503:1 528:1 631:1 713:1 729:1 852:1 1102:1 1134:1 1222:1 1228:1 1236:1 1269:1 1273:1 1289:1 1319:1 1332:1 1338:1 1368:1 1398:2
-1 623:2 631:2 635:1 715:1 1102:2 1230:1 1319:2 1361:2 1368:2 1370:1 1398:7
-1 631:1 1175:1 1368:1 1374:1 1398:2
-1 175:1 288:1 528:1 631:1 681:1 761:1 794:1 821:1 1022:1 1102:1 1254:1 1264:1 1289:1 1319:1 1338:1 1368:1 1398:2
-1 528:2 631:1 1289:2 1368:1 1398:2
-1 288:1 395:1 522:1 528:1 623:1 631:1 635:1 1102:1 1289:1 1319:1 1338:1 1361:1 1368:1 1370:1 1398:3 1400:39
-1 175:1 256:1 288:1 528:1 623:1 631:1 635:1 706:1 1102:1 1221:1 1254:1 1289:1 1316:1 1319:1 1338:1 1361:1 1368:1 1370:1 1398:4
-1 241:1 485:1 631:1 715:1 1057:1 1102:1 1230:1 1274:1 1302:1 1319:1 1368:1 1398:2
-1 711:1 1227:1 1398:2
-1 146:1 415:1 437:1 503:1 528:1 539:1 729:1 852:1 1134:1 1222:1 1236:1 1241:1 1273:1 1289:1 1307:1 1332:1 1398:2
-1 146:1 247:1 395:1 415:1 437:1 503:1 528:1 539:1 729:1 852:1 1115:1 1134:1 1222:1 1236:1 1241:1 1273:1 1289:1 1307:1 1310:1 1331:1 1332:1 1398:2
-1 457:1 1252:1 1398:4
-1 528:1 631:1 635:1 1102:1 1289:1 1319:1 1368:1 1370:1 1398:2
-1 175:1 241:1 288:1 623:1 631:1 635:1 636:1 706:1 715:1 1057:1 1102:1 1125:1 1175:1 1221:1 1230:1 1254:1 1274:1 1302:1 1319:1 1338:1 1340:1 1361:1 1368:1 1370:1 1372:1 1374:1 1398:5
-1 623:2 631:2 635:1 715:1 1102:2 1230:1 1319:2 1361:2 1368:2 1370:1 1398:7
-1 623:2 631:2 635:1 715:1 1102:2 1230:1 1319:2 1361:2 1368:2 1370:1 1398:7
-1 457:1 1252:1 1398:3
-1 175:1 183:1 238:1 631:1 678:1 758:1 764:1 806:1 1102:1 1254:1 1261:1 1319:1 1368:1 1398:1
-1 143:1 175:1 346:1 507:1 631:1 635:1 787:1 1078:1 1102:1 1139:1 1254:1 1319:1 1368:1 1370:1 1398:1
-1 175:1 241:1 623:2 631:3 635:1 715:1 1102:2 1175:1 1230:1 1254:1 1302:1 1319:2 1361:2 1368:3 1370:1 1374:1 1398:6
-1 457:1 1252:1 1398:4
-1 623:2 631:2 635:1 715:1 1102:2 1230:1 1319:2 1361:2 1368:2 1370:1 1398:7
-1 159:1 175:1 241:1 366:1 551:1 623:1 631:1 635:1 1019:1 1087:1 1102:1 1125:1 1245:1 1254:1 1302:1 1319:1 1322:1 1340:1 1361:1 1368:1 1370:1 1398:2
-1 175:1 241:1 288:1 344:1 495:1 558:1 616:1 623:1 631:1 635:1 706:1 713:1 715:1 722:1 829:1 832:1 849:1 951:1 1079:1 1080:1 1093:1 1102:1 1125:1 1221:1 1228:1 1230:1 1239:1 1254:1 1269:1 1294:1 1295:1 1302:1 1313:1 1314:1 1319:1 1320:1 1329:1 1330:1 1338:1 1340:1 1359:1 1361:1 1363:1 1368:1 1370:1 1392:1 1398:1
-1 165:1 175:1 241:1 256:1 288:1 453:1 590:1 616:1 623:1 631:1 713:1 715:1 827:1 829:1 849:1 1079:1 1080:1 1102:1 1125:1 1177:1 1228:1 1230:1 1251:1 1254:1 1294:1 1295:1 1302:1 1311:1 1314:1 1316:1 1319:1 1329:1 1338:1 1340:1 1359:1 1361:1 1368:1 1375:1 1398:1
-1 623:2 631:2 635:1 715:1 1102:2 1230:1 1319:2 1361:2 1368:2 1370:1 1398:7
-1 528:1 1289:1 1398:3
-1 175:1 241:1 288:1 518:1 528:1 551:1 623:1 631:1 635:1 706:1 1102:1 1175:1 1221:1 1254:1 1289:1 1302:1 1319:1 1322:1 1338:1 1361:1 1368:1 1370:1 1374:1 1398:4
-1 145:1 146:1 157:1 175:1 228:1 247:1 257:1 274:1 288:1 336:1 354:1 355:1 382:1 383:1 395:1 415:1 437:1 446:1 453:1 461:1 480:1 503:1 516:1 528:1 539:1 540:1 694:1 713:1 729:1 746:1 789:1 793:1 812:1 833:1 852:1 862:1 932:1 938:1 940:1 949:1 970:1 1009:1 1063:1 1068:1 1070:1 1076:1 1084:1 1102:1 1115:1 1118:1 1134:1 1196:1 1215:1 1220:1 1222:1 1228:1 1236:1 1237:1 1241:1 1246:1 1251:1 1254:1 1256:1 1273:1 1284:1 1286:1 1289:1 1292:1 1307:1 1310:1 1319:1 1326:1 1331:1 1332:1 1338:1 1358:1 1369:1 1373:1 1391:1 1396:1 1398:2
-1 336:1 528:1 623:1 631:1 790:1 829:1 832:1 1275:1 1289:1 1314:1 1320:1 1358:1 1361:1 1368:1 1398:2
-1 249:1 274:1 336:1 373:1 415:1 452:1 503:1 528:1 541:1 852:1 923:1 940:1 994:1 1035:1 1068:1 1088:1 1092:1 1098:1 1101:1 1162:1 1181:1 1222:1 1232:1 1250:1 1273:1 1284:1 1289:1 1303:1 1309:1 1326:1 1332:1 1357:1 1358:1 1380:1 1398:2 1400:23
-1 175:1 241:1 528:1 623:1 631:1 635:1 715:1 735:1 1102:1 1230:1 1254:1 1289:1 1302:1 1319:1 1361:1 1368:1 1370:1 1398:2
-1 241:1 288:1 336:1 522:1 528:1 623:1 631:1 635:1 832:1 1095:1 1102:1 1289:1 1302:1 1315:1 1319:1 1320:1 1338:1 1358:1 1361:1 1368:1 1370:1 1398:1 1400:39
-1 146:1 288:1 395:1 415:1 503:1 528:1 631:1 643:1 717:1 729:1 852:1 1134:1 1153:1 1222:1 1236:1 1273:1 1289:1 1332:1 1338:1 1368:1 1398:3
-1 288:1 395:1 528:1 623:1 631:1 715:1 832:1 849:1 1080:1 1102:1 1230:1 1289:1 1295:1 1319:1 1320:1 1329:1 1338:1 1361:1 1368:1 1398:1
-1 241:1 288:1 437:1 522:1 528:1 539:1 614:1 623:1 631:1 829:1 904:1 1095:1 1102:1 1241:1 1289:1 1302:1 1307:1 1314:1 1315:1 1319:1 1338:1 1361:1 1368:1 1398:3 1400:39
-1 288:1 528:1 631:1 1051:1 1289:1 1338:1 1368:1 1398:3
-1 175:1 241:1 288:1 344:1 551:1 616:1 623:1 631:1 722:1 758:1 829:1 951:1 1079:1 1093:1 1102:1 1239:1 1254:1 1261:1 1294:1 1302:1 1313:1 1314:1 1319:1 1322:1 1338:1 1359:1 1361:1 1363:1 1368:1 1392:1 1398:2
-1 623:2 631:2 635:1 715:1 1102:2 1230:1 1319:2 1361:2 1368:2 1370:1 1398:7
-1 711:1 1227:1 1398:1
-1 528:1 623:1 631:4 715:2 1102:2 1230:2 1289:1 1319:2 1361:1 1368:4 1398:5
-1 631:1 1368:1 1398:2
-1 631:1 1368:1 1398:2
-1 175:1 241:1 288:1 623:1 631:1 635:1 713:1 715:1 758:1 832:1 1102:1 1125:1 1228:1 1230:1 1254:1 1261:1 1302:1 1319:1 1320:1 1338:1 1340:1 1361:1 1368:1 1370:1 1398:2
-1 528:1 1289:1 1398:3
-1 175:1 241:1 288:1 558:1 623:1 631:1 635:1 681:1 706:1 715:1 761:1 1102:1 1183:1 1221:1 1230:1 1254:1 1264:1 1302:1 1319:1 1330:1 1338:1 1361:1 1368:1 1370:1 1381:1 1398:2
-1 288:1 336:1 528:1 623:1 631:1 790:1 829:1 832:1 1275:1 1289:1 1314:1 1320:1 1338:1 1358:1 1361:1 1368:1 1398:2
-1 457:1 1252:1 1398:3
-1 175:1 241:1 256:1 288:1 551:1 623:1 631:1 635:1 636:1 706:1 715:1 758:1 829:1 864:1 1057:1 1058:1 1102:1 1125:1 1175:1 1221:1 1230:1 1254:1 1261:1 1274:1 1302:1 1314:1 1316:1 1319:1 1322:1 1338:1 1340:1 1342:1 1361:1 1368:1 1370:1 1372:1 1374:1 1398:1
-1 175:1 241:1 288:2 623:2 631:4 635:1 706:1 715:3 1102:2 1125:1 1221:1 1230:3 1254:1 1302:1 1319:2 1338:2 1340:1 1361:2 1368:4 1370:1 1398:6
-1 528:2 551:1 631:1 1289:2 1322:1 1368:1 1398:3
-1 631:1 1368:1 1398:2
-1 631:1 1368:1 1398:2
-1 631:1 1368:1 1398:3
-1 457:1 1252:1 1398:3
-1 631:1 1368:1 1398:3
-1 528:1 631:1 1289:1 1368:1 1398:3
-1 175:1 241:1 288:1 528:2 551:1 631:1 1102:1 1254:1 1289:2 1302:1 1319:1 1322:1 1338:1 1368:1 1398:2
-1 146:1 177:1 257:1 395:1 415:1 461:1 503:1 528:1 539:1 729:1 807:1 852:1 938:1 1027:1 1068:1 1084:1 1115:1 1134:1 1162:1 1222:1 1236:1 1273:1 1284:1 1287:1 1289:1 1307:1 1331:1 1332:1 1357:1 1398:1 1400:3
-1 631:1 1368:1 1398:3
-1 146:1 336:1 395:1 415:1 437:1 451:1 503:1 528:1 539:1 623:1 631:1 729:1 852:1 904:1 916:1 924:1 1134:1 1222:1 1236:1 1241:1 1273:1 1289:1 1307:1 1332:1 1358:1 1361:1 1368:1 1398:1
-1 175:1 241:1 288:1 336:1 354:1 528:1 631:1 635:1 758:1 829:1 864:1 1102:1 1254:1 1261:1 1289:1 1302:1 1314:1 1319:1 1338:1 1342:1 1358:1 1368:1 1369:1 1370:1 1398:2
-1 241:1 288:1 528:1 631:1 1213:1 1289:1 1302:1 1338:1 1368:1 1398:3
-1 241:1 288:1 528:1 631:1 1213:1 1289:1 1302:1 1338:1 1368:1 1398:3
-1 129:1 198:1 274:1 382:1 510:1 528:1 560:1 717:1 940:1 949:1 1031:1 1044:1 1077:1 1134:1 1155:1 1257:1 1289:1 1326:1 1391:1 1396:1 1398:2
-1 175:1 241:1 288:1 623:1 631:1 635:1 706:1 829:1 978:1 1102:1 1125:1 1175:1 1221:1 1254:1 1302:1 1314:1 1319:1 1338:1 1340:1 1361:1 1368:1 1370:1 1374:1 1398:2 1400:69
-1 528:2 631:1 681:1 761:1 855:1 918:1 1264:1 1289:2 1368:1 1398:3
-1 175:1 241:1 288:1 623:1 631:1 635:1 715:1 832:1 1102:1 1125:1 1230:1 1254:1 1302:1 1319:1 1320:1 1338:1 1340:1 1361:1 1368:1 1370:1 1398:3
-1 528:2 631:1 706:1 1102:1 1221:1 1289:2 1319:1 1368:1 1398:2
-1 457:1 1252:1 1398:3
-1 623:1 631:1 638:1 700:1 712:1 1079:1 1294:1 1361:1 1368:1 1398:1
-1 623:1 631:1 638:1 700:1 712:1 1079:1 1294:1 1361:1 1368:1 1398:1
-1 711:1 1227:1 1398:1
-1 175:1 241:1 256:1 288:1 528:2 623:1 631:1 706:1 715:1 1079:1 1102:1 1175:1 1221:1 1230:1 1254:1 1289:2 1294:1 1302:1 1316:1 1319:1 1338:1 1361:1 1368:1 1374:1 1398:2
-1 528:2 631:1 681:1 761:1 855:1 918:1 944:1 1079:1 1102:1 1264:1 1289:2 1294:1 1319:1 1368:1 1398:2
-1 175:1 327:1 631:1 642:1 678:1 1102:1 1254:1 1319:1 1368:1 1398:1 1400:5
-1 129:1 146:1 148:1 336:1 415:1 503:1 505:1 528:1 623:1 631:1 717:1 729:1 852:1 853:1 911:1 1079:1 1102:1 1134:1 1222:1 1236:1 1238:1 1273:1 1289:1 1294:1 1319:1 1332:1 1333:1 1358:1 1361:1 1362:1 1368:1 1398:2
-1 146:1 274:1 336:1 373:1 415:1 461:1 503:1 505:1 528:1 570:1 687:1 729:1 792:1 852:1 938:1 949:1 1068:1 1084:1 1102:1 1134:1 1222:1 1236:1 1273:1 1276:1 1284:1 1289:1 1319:1 1326:1 1332:1 1339:1 1358:1 1391:1 1398:2
-1 336:1 528:1 623:1 631:1 1289:1 1358:1 1361:1 1368:1 1398:1
-1 457:1 1252:1 1398:3
-1 288:1 631:1 1079:1 1102:1 1294:1 1319:1 1338:1 1368:1 1398:2
-1 623:2 631:2 635:1 715:1 1102:2 1230:1 1319:2 1361:2 1368:2 1370:1 1398:7
-1 457:1 1252:1 1398:2
-1 175:1 241:1 288:1 623:1 631:1 635:1 1102:1 1125:1 1254:1 1302:1 1319:1 1338:1 1340:1 1361:1 1368:1 1370:1 1398:2
-1 175:1 623:2 631:5 635:1 715:2 1102:2 1125:1 1230:2 1254:1 1319:2 1340:1 1361:2 1368:5 1370:1 1398:6
-1 241:1 528:1 623:1 631:1 1289:1 1302:1 1361:1 1368:1 1398:1
-1 175:1 241:1 256:1 288:1 365:1 538:1 623:1 631:1 715:1 722:1 761:1 829:1 951:1 996:1 1079:1 1102:1 1125:1 1175:1 1230:1 1234:1 1239:1 1254:1 1264:1 1294:1 1302:1 1306:1 1314:1 1316:1 1319:1 1338:1 1340:1 1361:1 1368:1 1374:1 1384:1 1392:1 1398:2 1400:59
-1 175:1 453:1 528:1 623:1 631:1 1046:1 1102:1 1251:1 1254:1 1289:1 1319:1 1361:1 1368:1 1398:1
-1 175:1 241:1 288:1 623:1 631:1 635:1 636:1 706:1 715:1 1057:1 1102:1 1125:1 1175:1 1221:1 1230:1 1254:1 1274:1 1302:1 1319:1 1338:1 1340:1 1361:1 1368:1 1370:1 1372:1 1374:1 1398:5
-1 175:1 288:1 623:1 631:1 635:1 706:1 715:1 1102:1 1125:1 1221:1 1230:1 1254:1 1319:1 1338:1 1340:1 1361:1 1368:1 1370:1 1398:5
-1 134:1 146:1 247:1 382:1 394:1 395:1 415:1 503:1 528:1 729:1 743:1 852:1 940:1 949:1 1068:1 1084:1 1134:1 1222:1 1224:1 1236:1 1273:1 1284:1 1289:1 1310:1 1332:1 1391:1 1396:1 1398:3
-1 457:1 1252:1 1398:4
-1 457:1 1252:1 1398:4
-1 631:1 1368:1 1398:2
-1 528:1 623:1 631:1 718:1 1289:1 1361:1 1368:1 1398:3
-1 457:1 1252:1 1398:3
-1 457:1 1252:1 1398:3
-1 175:1 241:1 344:1 623:1 631:1 635:1 715:1 1102:1 1230:1 1254:1 1302:1 1319:1 1361:1 1363:1 1368:1 1370:1 1398:1
-1 175:1 623:2 631:5 635:1 706:1 715:2 1102:2 1125:1 1221:1 1230:2 1254:1 1319:2 1340:1 1361:2 1368:5 1370:1 1398:7
-1 175:1 241:1 623:1 631:3 635:1 706:1 715:2 1102:2 1175:2 1221:1 1230:2 1254:1 1302:1 1319:2 1361:1 1368:3 1370:1 1374:2 1398:6
-1 631:1 1368:1 1398:2
-1 175:1 241:1 623:2 631:4 635:1 715:3 1102:2 1125:1 1175:1 1230:3 1254:1 1302:1 1319:2 1340:1 1361:2 1368:4 1370:1 1374:1 1398:6
-1 175:1 241:1 623:2 631:4 635:1 706:1 715:3 1102:2 1125:1 1175:1 1221:1 1230:3 1254:1 1302:1 1319:2 1340:1 1361:2 1368:4 1370:1 1374:1 1398:6
-1 146:1 247:1 274:1 336:1 382:1 395:1 415:1 461:1 503:1 528:1 715:1 729:1 789:1 804:1 832:1 852:1 938:1 940:1 949:1 988:1 1035:1 1068:1 1076:1 1084:1 1134:1 1162:1 1222:1 1223:1 1230:1 1236:1 1273:1 1284:1 1285:1 1289:1 1310:1 1320:1 1326:1 1332:1 1357:1 1358:1 1391:1 1396:1 1398:2
-1 528:1 631:1 939:1 1289:1 1368:1 1398:8
-1 474:1 524:1 528:1 631:1 1209:1 1289:1 1368:1 1398:6
-1 175:1 528:2 631:1 761:1 1102:1 1254:1 1264:1 1289:2 1319:1 1368:1 1398:2
-1 175:1 241:1 288:2 623:2 631:3 635:1 706:1 715:2 1102:2 1221:1 1230:2 1254:1 1302:1 1319:2 1338:2 1361:2 1368:3 1370:1 1398:6
-1 175:1 241:1 288:1 623:2 631:4 635:1 706:1 715:2 1102:2 1221:1 1230:2 1254:1 1302:1 1319:2 1338:1 1361:2 1368:4 1370:1 1398:6
-1 474:1 524:1 528:1 631:1 1209:1 1289:1 1368:1 1398:6
-1 175:1 623:1 631:1 635:1 706:1 1102:1 1221:1 1254:1 1319:1 1361:1 1368:1 1370:1 1398:1
-1 146:1 206:1 336:1 373:1 382:1 415:1 503:1 528:1 632:1 729:1 789:1 852:1 938:1 940:1 949:1 1006:1 1068:1 1084:1 1098:1 1128:1 1134:1 1162:1 1222:1 1236:1 1243:1 1273:1 1284:1 1289:1 1332:1 1357:1 1358:1 1391:1 1396:1 1398:2
-1 175:1 241:1 288:3 623:2 631:4 635:1 636:1 706:1 715:3 1102:2 1125:1 1221:1 1230:3 1254:1 1302:1 1319:2 1338:3 1340:1 1361:2 1368:4 1370:1 1372:1 1398:6
-1 146:1 288:1 437:1 528:1 539:1 623:1 631:1 852:1 1115:1 1134:1 1236:1 1241:1 1289:1 1307:1 1331:1 1332:1 1338:1 1361:1 1368:1 1398:2
-1 457:1 1252:1 1398:3
-1 457:1 1252:1 1398:4
-1 457:1 1252:1 1398:3
-1 457:1 1252:1 1398:3
-1 457:1 1252:1 1398:3
-1 457:1 1252:1 1398:3
-1 457:1 1252:1 1398:3
-1 256:1 395:1 437:1 528:1 539:1 623:1 631:1 1095:1 1102:1 1115:1 1241:1 1289:1 1307:1 1315:1 1316:1 1319:1 1331:1 1361:1 1368:1 1398:3
-1 175:1 241:1 288:1 631:1 1102:1 1254:1 1302:1 1319:1 1338:1 1368:1 1398:1
-1 175:1 241:1 288:1 344:1 631:1 713:1 1083:1 1102:1 1177:1 1228:1 1254:1 1298:1 1302:1 1319:1 1338:1 1363:1 1368:1 1375:1 1398:2 1400:2
-1 711:1 1227:1 1398:1
-1 175:1 241:1 288:1 623:1 631:1 635:1 1102:1 1125:1 1254:1 1302:1 1319:1 1338:1 1340:1 1361:1 1368:1 1370:1 1398:3
-1 175:1 528:1 631:1 1102:1 1175:1 1254:1 1289:1 1319:1 1368:1 1374:1 1398:2
-1 528:1 631:1 1289:1 1368:1 1398:2
-1 175:1 241:1 288:1 528:1 551:1 623:1 631:1 635:1 706:1 1102:1 1221:1 1254:1 1289:1 1302:1 1319:1 1322:1 1338:1 1361:1 1368:1 1370:1 1398:2
-1 175:1 528:1 631:1 1102:1 1254:1 1289:1 1319:1 1368:1 1398:2
-1 457:1 1252:1 1398:2
-1 146:1 247:1 257:1 274:1 355:1 373:1 415:1 503:1 528:1 570:1 729:1 789:1 793:1 812:1 852:1 940:1 988:1 1031:1 1039:1 1068:1 1134:1 1144:1 1222:1 1223:1 1236:1 1257:1 1273:1 1284:1 1289:1 1292:1 1310:1 1326:1 1332:1 1339:1 1348:1 1373:1 1398:3
-1 213:1 288:1 528:1 631:1 702:1 715:1 844:1 1041:1 1102:1 1230:1 1289:1 1319:1 1338:1 1368:1 1398:2
-1 175:1 241:1 528:1 631:1 635:1 1041:1 1102:1 1183:1 1254:1 1289:1 1302:1 1319:1 1368:1 1370:1 1381:1 1398:3
-1 457:1 1252:1 1398:3
-1 288:1 528:1 623:1 631:1 1102:1 1289:1 1319:1 1338:1 1361:1 1368:1 1398:3
-1 631:1 1368:1 1398:1
-1 175:1 288:1 631:1 635:1 1079:1 1102:1 1254:1 1294:1 1319:1 1338:1 1368:1 1370:1 1398:2
-1 474:1 528:2 631:1 890:1 1289:2 1368:1 1398:5
-1 551:1 631:1 1322:1 1368:1 1398:2
-1 288:1 474:1 528:2 549:1 631:1 890:1 1289:2 1338:1 1368:1 1398:5
-1 175:1 288:1 623:1 631:1 635:1 1102:1 1175:1 1254:1 1319:1 1338:1 1361:1 1368:1 1370:1 1374:1 1398:2
-1 528:2 631:1 1289:2 1368:1 1398:2
-1 175:1 241:1 328:1 495:1 623:1 631:1 635:1 713:1 715:1 758:1 829:1 832:1 849:1 911:1 1102:1 1228:1 1230:1 1254:1 1261:1 1269:1 1302:1 1314:1 1319:1 1320:1 1329:1 1361:1 1362:1 1368:1 1370:1 1398:1
-1 648:1 1398:3
-1 474:1 528:2 549:1 594:1 631:1 890:1 1289:2 1368:1 1398:6
-1 631:1 1078:1 1368:1 1398:2
-1 457:1 1252:1 1398:4
-1 631:1 1136:1 1175:1 1368:1 1374:1 1398:2
-1 623:2 631:2 635:1 715:1 1102:2 1230:1 1319:2 1361:2 1368:2 1370:1 1398:7
-1 147:1 163:1 175:1 183:1 184:1 238:1 241:1 369:1 438:1 525:1 631:1 678:1 758:1 764:1 806:1 820:1 880:1 905:1 965:1 980:1 997:1 1056:1 1102:1 1199:1 1254:1 1261:1 1302:1 1319:1 1368:1 1398:1
-1 631:1 1136:1 1368:1 1398:2
-1 528:2 631:1 1025:1 1289:2 1368:1 1398:2
-1 623:2 631:2 635:1 715:1 1102:2 1230:1 1319:2 1361:2 1368:2 1370:1 1398:6
-1 175:1 241:1 288:3 623:2 631:7 635:1 636:1 706:1 715:3 1102:2 1125:1 1175:1 1221:1 1230:3 1254:1 1302:1 1319:2 1338:3 1340:1 1361:2 1368:7 1370:1 1372:1 1374:1 1398:6
-1 457:1 1252:1 1398:4
-1 623:1 631:1 1102:1 1175:1 1319:1 1361:1 1368:1 1374:1 1398:3
-1 623:1 631:1 1102:1 1175:1 1319:1 1361:1 1368:1 1374:1 1398:3
-1 175:1 241:1 288:1 558:1 623:1 631:1 635:1 706:1 715:1 829:1 1057:1 1102:1 1125:1 1221:1 1230:1 1254:1 1274:1 1302:1 1314:1 1319:1 1330:1 1338:1 1340:1 1361:1 1368:1 1370:1 1398:1
-1 711:1 1227:1 1398:1
-1 141:1 146:1 274:1 287:1 312:1 373:1 415:1 461:1 480:1 503:1 528:1 729:1 746:1 789:1 826:1 852:1 938:1 949:1 1068:1 1076:1 1084:1 1134:1 1162:1 1222:1 1236:1 1256:1 1273:1 1284:1 1289:1 1326:1 1332:1 1357:1 1391:1 1398:2
-1 175:1 241:1 336:1 344:1 368:1 402:1 453:1 528:1 623:1 631:1 713:1 715:1 742:1 782:1 832:1 1083:1 1093:1 1102:1 1228:1 1230:1 1251:1 1253:1 1254:1 1271:1 1289:1 1298:1 1302:1 1313:1 1319:1 1320:1 1358:1 1361:1 1363:1 1368:1 1386:1 1398:2
-1 175:1 223:1 241:1 288:1 311:1 336:1 368:1 453:1 484:1 528:1 623:1 631:1 635:1 713:1 715:1 742:1 782:1 832:1 911:1 1083:1 1093:1 1102:1 1125:1 1228:1 1230:1 1251:1 1253:1 1254:1 1262:1 1271:1 1282:1 1289:1 1298:1 1302:1 1313:1 1319:1 1320:1 1338:1 1340:1 1349:1 1358:1 1361:1 1362:1 1368:1 1370:1 1386:1 1398:1
-1 175:1 288:1 623:1 631:1 635:1 1102:1 1254:1 1319:1 1338:1 1361:1 1368:1 1370:1 1398:3
-1 528:2 631:1 1289:2 1368:1 1398:2
-1 457:1 1252:1 1398:3
-1 457:1 1252:1 1398:2
-1 631:1 1368:1 1398:1
-1 528:1 631:1 962:1 1102:1 1289:1 1319:1 1368:1 1398:2
-1 146:1 395:1 415:1 437:1 503:1 528:1 570:1 623:1 631:1 729:1 852:1 1134:1 1222:1 1236:1 1241:1 1273:1 1289:1 1332:1 1339:1 1361:1 1368:1 1398:3
-1 457:1 1252:1 1398:3
-1 146:1 175:1 241:1 251:1 395:1 415:1 503:1 528:1 623:1 631:1 635:1 729:1 852:1 1102:1 1134:1 1222:1 1236:1 1254:1 1273:1 1289:1 1302:1 1319:1 1332:1 1361:1 1368:1 1370:1 1398:1
-1 711:1 1227:1 1398:1
-1 457:1 1252:1 1398:3
-1 457:1 1252:1 1398:3
-1 146:1 336:1 382:1 415:1 503:1 528:1 657:1 663:1 729:1 852:1 949:1 1006:1 1031:1 1068:1 1079:1 1098:1 1134:1 1222:1 1236:1 1243:1 1257:1 1273:1 1284:1 1289:1 1294:1 1332:1 1358:1 1391:1 1396:1 1398:2
-1 175:1 202:1 241:1 288:1 306:1 336:1 528:1 623:1 631:1 635:1 715:1 758:1 795:1 815:1 829:1 1020:1 1057:1 1083:1 1102:1 1175:1 1230:1 1254:1 1261:1 1274:1 1289:1 1297:1 1298:1 1302:1 1314:1 1319:1 1338:1 1347:1 1358:1 1361:1 1368:1 1370:1 1374:1 1398:1
-1 336:1 528:1 631:1 962:1 1102:1 1289:1 1319:1 1358:1 1368:1 1398:1
-1 274:1 336:1 528:1 631:1 1102:1 1289:1 1319:1 1326:1 1358:1 1368:1 1398:2
-1 457:1 1252:1 1398:3
-1 336:1 528:1 623:1 631:1 1102:1 1289:1 1319:1 1358:1 1361:1 1368:1 1398:1
-1 138:1 146:1 314:1 336:1 415:1 528:1 852:1 933:1 1084:1 1222:1 1236:1 1289:1 1332:1 1358:1 1398:2
-1 314:1 336:1 528:1 623:1 631:1 933:1 1102:1 1289:1 1319:1 1358:1 1361:1 1368:1 1398:2
-1 175:1 241:1 528:1 623:1 631:1 635:1 715:1 735:1 1102:1 1230:1 1254:1 1289:1 1302:1 1319:1 1361:1 1368:1 1370:1 1398:2
-1 631:1 1368:1 1398:1
-1 336:1 528:1 631:1 829:1 1079:1 1102:1 1125:1 1289:1 1294:1 1314:1 1319:1 1340:1 1358:1 1368:1 1398:2
-1 288:1 523:1 616:1 623:1 631:1 951:1 1080:1 1102:1 1125:1 1175:1 1295:1 1319:1 1338:1 1340:1 1359:1 1361:1 1368:1 1374:1 1392:1 1398:3 1400:2
-1 175:1 241:1 288:1 623:1 631:1 635:1 706:1 715:1 1023:1 1102:1 1125:1 1175:1 1221:1 1230:1 1254:1 1302:1 1319:1 1338:1 1340:1 1361:1 1368:1 1370:1 1374:1 1398:5
-1 457:1 1252:1 1398:3
-1 241:1 288:1 336:1 372:1 437:1 528:1 539:1 623:1 631:1 715:1 807:1 1102:1 1115:1 1230:1 1241:1 1287:1 1289:1 1302:1 1307:1 1319:1 1331:1 1338:1 1358:1 1361:1 1368:1 1398:1
-1 241:1 288:1 336:1 372:1 437:1 528:1 539:1 623:1 631:1 715:1 807:1 1102:1 1115:1 1230:1 1241:1 1287:1 1289:1 1302:1 1307:1 1319:1 1331:1 1338:1 1358:1 1361:1 1368:1 1398:1
-1 146:1 177:1 241:1 247:1 257:1 395:1 415:1 503:1 528:1 539:1 631:1 729:1 807:1 852:1 1068:1 1115:1 1134:1 1162:1 1222:1 1236:1 1273:1 1284:1 1287:1 1289:1 1302:1 1307:1 1310:1 1331:1 1332:1 1357:1 1368:1 1398:1 1400:3
-1 223:1 336:1 354:1 528:1 568:1 623:1 631:1 713:1 832:1 893:1 1102:1 1129:1 1228:1 1282:1 1289:1 1319:1 1320:1 1358:1 1361:1 1368:1 1369:1 1398:3
-1 528:1 606:1 623:1 631:1 1079:1 1289:1 1294:1 1361:1 1368:1 1398:1
-1 474:1 524:1 528:1 631:1 1209:1 1289:1 1368:1 1398:6
-1 326:1 528:1 631:1 861:1 1289:1 1368:1 1398:3
-1 175:1 631:1 635:1 660:1 671:1 706:1 733:1 1102:1 1125:1 1221:1 1254:1 1319:1 1340:1 1368:1 1370:1 1398:2 1400:2
-1 528:1 631:1 771:1 1102:1 1289:1 1319:1 1368:1 1398:2
-1 457:1 1252:1 1398:4
-1 175:1 241:1 288:1 558:1 623:2 631:5 635:1 706:1 715:3 1102:2 1125:1 1221:1 1230:3 1254:1 1302:1 1319:2 1330:1 1338:1 1340:1 1361:2 1368:5 1370:1 1398:6
-1 175:1 241:1 288:2 623:2 631:5 635:1 715:3 1102:2 1125:1 1230:3 1254:1 1302:1 1319:2 1338:2 1340:1 1361:2 1368:5 1370:1 1398:6
-1 146:1 175:1 241:1 247:1 274:1 288:1 336:1 373:1 395:1 415:1 461:1 503:1 528:1 555:1 631:1 635:1 715:1 729:1 746:1 789:1 829:1 852:1 938:1 949:1 1068:1 1084:1 1102:1 1134:1 1162:1 1222:1 1230:1 1236:1 1254:1 1256:1 1273:1 1284:1 1289:1 1302:1 1310:1 1314:1 1319:1 1326:1 1328:1 1332:1 1338:1 1357:1 1358:1 1368:1 1370:1 1391:1 1398:2
-1 288:1 528:1 631:1 1041:1 1102:1 1289:1 1319:1 1338:1 1368:1 1398:3
-1 175:1 241:1 288:2 623:2 631:4 635:1 715:2 1102:2 1125:1 1230:2 1254:1 1302:1 1319:2 1338:2 1340:1 1361:2 1368:4 1370:1 1398:6
-1 457:1 1252:1 1398:3
-1 528:1 631:1 1102:1 1289:1 1319:1 1368:1 1398:2
-1 125:1 160:1 431:1 513:1 631:1 681:1 761:1 805:1 918:1 1210:1 1264:1 1368:1 1398:1
-1 336:1 528:1 623:1 631:1 829:1 1079:1 1102:1 1125:1 1289:1 1294:1 1314:1 1319:1 1340:1 1358:1 1361:1 1368:1 1398:2
-1 623:1 631:1 635:1 715:1 1102:1 1230:1 1319:1 1361:1 1368:1 1370:1 1398:5
-1 146:1 157:1 247:1 257:1 274:1 336:1 354:1 373:1 382:1 395:1 415:1 430:1 437:1 461:1 503:1 528:1 539:1 541:1 550:1 583:1 668:1 713:1 715:1 729:1 746:1 782:1 789:1 812:1 832:1 852:1 938:1 940:1 949:1 1035:1 1068:1 1076:1 1084:1 1099:1 1104:1 1118:1 1134:1 1144:1 1162:1 1222:1 1228:1 1230:1 1236:1 1241:1 1256:1 1271:1 1273:1 1284:1 1289:1 1292:1 1307:1 1309:1 1310:1 1320:1 1326:1 1332:1 1348:1 1357:1 1358:1 1369:1 1391:1 1396:1 1398:3
-1 175:1 241:1 288:1 623:1 631:1 635:1 706:1 1102:1 1175:1 1221:1 1254:1 1302:1 1319:1 1338:1 1361:1 1368:1 1370:1 1374:1 1398:4
-1 175:1 241:1 288:1 623:1 631:1 635:1 1102:1 1125:1 1254:1 1302:1 1319:1 1338:1 1340:1 1361:1 1368:1 1370:1 1398:2
-1 288:1 528:1 623:1 631:1 1102:1 1289:1 1319:1 1338:1 1361:1 1368:1 1398:3
-1 146:1 247:1 257:1 274:1 355:1 395:1 415:1 437:1 461:1 503:1 528:1 539:1 716:1 729:1 812:1 852:1 938:1 1031:1 1068:1 1084:1 1115:1 1134:1 1222:1 1231:1 1236:1 1241:1 1257:1 1273:1 1284:1 1289:1 1292:1 1307:1 1310:1 1326:1 1331:1 1332:1 1373:1 1398:2
-1 146:1 336:1 373:1 395:1 415:1 503:1 528:1 539:1 623:1 631:1 729:1 829:1 852:1 864:1 949:1 1102:1 1134:1 1222:1 1236:1 1273:1 1289:1 1307:1 1314:1 1319:1 1332:1 1342:1 1358:1 1361:1 1368:1 1391:1 1398:2
-1 146:1 241:1 247:1 257:1 274:1 336:1 355:1 373:1 392:1 395:1 415:1 437:1 461:1 503:1 528:1 539:1 715:1 729:1 812:1 829:1 852:1 938:1 949:1 1031:1 1068:1 1084:1 1095:1 1102:1 1115:1 1134:1 1144:1 1162:1 1222:1 1230:1 1236:1 1241:1 1257:1 1273:1 1284:1 1289:1 1292:1 1302:1 1307:1 1310:1 1314:1 1315:1 1319:1 1326:1 1331:1 1332:1 1348:1 1357:1 1358:1 1373:1 1391:1 1397:1 1398:3
-1 528:1 631:1 1289:1 1368:1 1398:2
-1 528:2 631:1 1289:2 1368:1 1398:2
-1 175:1 241:1 288:1 528:1 529:1 623:1 631:1 635:1 706:1 892:1 1102:1 1125:1 1221:1 1254:1 1289:1 1291:1 1302:1 1319:1 1338:1 1340:1 1361:1 1368:1 1370:1 1398:1
-1 175:1 484:1 528:1 623:1 631:1 635:1 1102:1 1125:1 1254:1 1262:1 1289:1 1319:1 1340:1 1361:1 1368:1 1370:1 1398:2
-1 146:1 274:1 336:1 373:1 415:1 430:1 458:1 480:1 503:1 528:1 640:1 729:1 746:1 786:1 789:1 852:1 927:1 938:1 940:1 949:1 1006:1 1027:1 1031:1 1035:1 1068:1 1076:1 1084:1 1098:1 1134:1 1144:1 1162:1 1222:1 1236:1 1243:1 1256:1 1257:1 1273:1 1284:1 1289:1 1326:1 1332:1 1348:1 1357:1 1358:1 1391:1 1398:2
-1 146:1 274:1 373:1 415:1 503:1 528:1 729:1 789:1 852:1 938:1 949:1 1031:1 1084:1 1098:1 1134:1 1140:1 1144:1 1162:1 1222:1 1236:1 1257:1 1273:1 1289:1 1326:1 1332:1 1348:1 1357:1 1391:1 1398:3
-1 300:1 305:1 484:1 528:1 623:1 631:1 635:1 892:1 951:1 1102:1 1262:1 1289:1 1319:1 1346:1 1361:1 1368:1 1370:1 1392:1 1398:2
-1 528:2 623:1 631:1 1289:2 1361:1 1368:1 1398:4
-1 133:1 631:1 671:1 1102:1 1122:1 1319:1 1368:1 1398:3 1400:2
-1 175:1 241:1 288:1 453:1 497:1 558:1 616:1 623:1 631:1 706:1 715:1 829:1 1102:1 1221:1 1230:1 1251:1 1254:1 1302:1 1314:1 1319:1 1330:1 1338:1 1359:1 1361:1 1368:1 1398:1
-1 288:1 548:1 631:1 635:1 1102:1 1319:1 1338:1 1368:1 1370:1 1398:2
-1 175:1 241:1 453:1 558:1 623:1 631:1 635:1 706:1 715:1 1102:1 1183:1 1221:1 1230:1 1251:1 1254:1 1302:1 1319:1 1330:1 1361:1 1368:1 1370:1 1381:1 1398:2
-1 457:1 1252:1 1398:3
-1 175:1 528:1 631:1 892:1 1102:1 1254:1 1289:1 1319:1 1368:1 1398:2
-1 175:1 241:1 288:1 623:1 631:1 635:1 1102:1 1125:1 1254:1 1302:1 1319:1 1338:1 1340:1 1361:1 1368:1 1370:1 1398:3
-1 241:1 288:1 528:1 623:1 631:1 892:1 1102:1 1125:1 1289:1 1302:1 1319:1 1338:1 1340:1 1361:1 1368:1 1398:1
-1 711:1 1227:1 1398:1
-1 288:1 381:1 474:1 528:2 549:1 594:1 631:1 635:1 828:1 851:1 890:1 1102:1 1289:2 1312:1 1319:1 1338:1 1368:1 1370:1 1398:5 1400:35
-1 175:1 241:1 288:1 569:1 623:1 631:1 635:1 706:1 715:1 853:1 1102:1 1125:1 1175:1 1221:1 1230:1 1254:1 1302:1 1319:1 1333:1 1337:1 1338:1 1340:1 1361:1 1368:1 1370:1 1374:1 1398:5
-1 336:1 528:1 623:1 631:1 635:1 961:1 1102:1 1125:1 1289:1 1319:1 1340:1 1358:1 1361:1 1368:1 1370:1 1398:2
-1 528:2 631:1 1289:2 1368:1 1398:3
-1 528:2 631:1 1289:2 1368:1 1398:2
-1 631:1 681:1 761:1 902:1 1264:1 1368:1 1398:2
-1 175:1 462:1 528:2 631:1 681:1 761:1 1102:1 1254:1 1264:1 1289:2 1319:1 1368:1 1398:2
-1 289:1 528:1 631:1 1289:1 1368:1 1398:3
-1 711:1 1227:1 1398:1
-1 711:1 1227:1 1398:1
-1 457:1 1252:1 1398:3
-1 175:1 241:1 288:1 476:31 528:2 623:1 631:1 635:1 706:1 715:1 1102:1 1221:1 1230:1 1254:1 1289:2 1302:1 1319:1 1338:1 1361:1 1368:1 1370:1 1398:2
-1 146:1 228:1 274:1 336:1 373:1 415:1 503:1 528:1 632:1 729:1 789:1 826:1 852:1 938:1 940:1 949:1 1035:1 1068:1 1084:1 1098:1 1134:1 1162:1 1222:1 1236:1 1273:1 1284:1 1286:1 1289:1 1326:1 1332:1 1357:1 1358:1 1391:1 1398:1
-1 457:1 1252:1 1398:3
-1 241:1 336:1 528:1 623:1 631:1 715:1 829:1 1230:1 1289:1 1302:1 1314:1 1358:1 1361:1 1368:1 1398:1
-1 336:1 528:1 631:1 933:1 1289:1 1358:1 1368:1 1398:2
-1 528:1 631:1 1041:1 1102:1 1289:1 1319:1 1368:1 1398:2
-1 288:1 336:1 395:1 631:1 1338:1 1358:1 1368:1 1398:1
-1 631:1 706:1 1102:1 1221:1 1319:1 1368:1 1398:4
-1 175:1 241:1 288:1 528:1 623:1 631:1 635:1 706:1 715:1 804:1 829:1 844:1 1102:1 1125:1 1221:1 1230:1 1254:1 1285:1 1289:1 1302:1 1314:1 1319:1 1338:1 1340:1 1361:1 1368:1 1370:1 1398:2
-1 175:1 241:1 259:1 271:1 288:1 623:1 631:1 635:1 706:1 1102:1 1125:1 1183:1 1221:1 1254:1 1302:1 1317:1 1319:1 1324:1 1338:1 1340:1 1361:1 1368:1 1370:1 1381:1 1398:2
-1 146:1 175:1 415:1 503:1 528:1 631:1 729:1 829:1 852:1 1102:1 1134:1 1222:1 1236:1 1254:1 1273:1 1289:1 1314:1 1319:1 1332:1 1368:1 1398:2
-1 146:1 395:1 415:1 503:1 528:1 631:1 715:1 729:1 852:1 1134:1 1222:1 1230:1 1236:1 1273:1 1289:1 1332:1 1368:1 1398:2
-1 457:1 1252:1 1398:2
-1 528:2 631:1 1289:2 1368:1 1398:2
-1 528:2 631:1 1289:2 1368:1 1398:2
-1 623:3 631:4 635:1 715:1 1102:2 1230:1 1319:2 1361:3 1368:4 1370:1 1398:4
-1 631:1 1368:1 1398:2
-1 457:1 1252:1 1398:3
-1 457:1 1252:1 1398:2
-1 146:1 241:1 288:1 336:1 415:1 461:1 495:1 503:1 528:1 623:1 631:1 713:1 715:1 717:1 729:1 829:1 849:1 852:1 1080:1 1084:1 1102:1 1134:1 1168:1 1222:1 1228:1 1230:1 1236:1 1269:1 1273:1 1289:1 1295:1 1302:1 1314:1 1319:1 1329:1 1332:1 1338:1 1358:1 1361:1 1368:1 1398:1
-1 457:1 1252:1 1398:3
-1 631:1 1368:1 1398:1
-1 146:1 247:1 336:1 373:1 415:1 503:1 528:1 729:1 852:1 1027:1 1084:1 1134:1 1222:1 1236:1 1273:1 1289:1 1310:1 1332:1 1358:1 1398:2
-1 175:1 241:1 288:1 623:1 631:1 635:1 1102:1 1254:1 1302:1 1319:1 1338:1 1361:1 1368:1 1370:1 1398:2
-1 457:1 1252:1 1398:3
-1 457:1 1252:1 1398:3
-1 129:1 146:1 175:1 247:1 274:1 336:1 373:1 382:1 395:1 415:1 437:1 455:1 461:1 503:1 528:1 539:1 613:1 635:1 636:1 692:1 713:1 729:1 789:1 793:1 812:1 826:1 849:1 852:1 938:1 940:1 949:1 1027:1 1031:1 1068:1 1076:1 1080:1 1084:1 1102:1 1134:1 1176:1 1222:1 1228:1 1236:1 1241:1 1254:1 1257:1 1273:1 1284:1 1289:1 1292:1 1295:1 1307:1 1310:1 1319:1 1326:1 1329:1 1332:1 1358:1 1370:1 1372:1 1391:1 1396:1 1398:3
-1 457:1 1252:1 1398:3
-1 528:1 631:1 1289:1 1368:1 1398:5
-1 457:1 1252:1 1398:2
-1 146:1 288:1 395:1 415:1 503:1 528:1 623:1 631:1 729:1 829:1 852:1 1102:1 1134:1 1222:1 1236:1 1273:1 1289:1 1314:1 1319:1 1332:1 1338:1 1361:1 1368:1 1398:2
-1 457:1 1252:1 1398:4
-1 528:1 823:1 1289:1 1398:1
-1 528:1 631:1 706:1 1102:1 1221:1 1289:1 1319:1 1368:1 1398:2
-1 241:1 631:1 1302:1 1368:1 1398:2
-1 175:1 551:1 623:1 631:1 715:1 1102:1 1230:1 1254:1 1319:1 1322:1 1361:1 1368:1 1398:2
-1 175:1 241:1 288:1 623:1 631:1 635:1 636:1 715:1 1102:1 1125:1 1230:1 1254:1 1302:1 1319:1 1338:1 1340:1 1361:1 1368:1 1370:1 1372:1 1398:4
-1 175:1 241:1 288:1 306:1 344:1 528:1 623:1 631:1 635:1 706:1 1102:1 1175:1 1221:1 1254:1 1289:1 1302:1 1319:1 1338:1 1347:1 1361:1 1363:1 1368:1 1370:1 1374:1 1398:2
-1 175:1 241:1 288:2 623:3 631:5 635:1 706:1 715:3 1102:2 1125:1 1221:1 1230:3 1254:1 1302:1 1319:2 1338:2 1340:1 1361:3 1368:5 1370:1 1398:6
-1 175:1 288:1 623:1 631:1 635:1 706:1 829:1 853:1 1079:1 1102:1 1175:1 1221:1 1254:1 1294:1 1314:1 1319:1 1333:1 1338:1 1361:1 1368:1 1370:1 1374:1 1398:2
-1 175:1 288:1 623:1 631:1 635:1 706:1 829:1 853:1 911:1 1079:1 1102:1 1175:1 1221:1 1254:1 1294:1 1314:1 1319:1 1333:1 1338:1 1361:1 1362:1 1368:1 1370:1 1374:1 1398:2
-1 528:1 623:1 631:1 1102:1 1289:1 1319:1 1361:1 1368:1 1398:2
-1 175:1 623:1 631:1 706:1 1102:1 1125:1 1221:1 1254:1 1319:1 1340:1 1361:1 1368:1 1398:2
-1 175:1 631:1 678:1 758:1 806:1 1102:1 1254:1 1261:1 1319:1 1368:1 1398:1
-1 711:1 1227:1 1398:1
-1 118:1 124:1 175:1 241:1 271:1 288:1 344:1 623:1 631:1 635:1 678:1 706:1 715:1 758:1 829:1 832:1 1102:1 1125:1 1221:1 1230:1 1254:1 1261:1 1302:1 1314:1 1319:1 1320:1 1324:1 1338:1 1340:1 1361:1 1363:1 1368:1 1370:1 1398:1
-1 457:1 1252:1 1398:3
-1 175:1 288:1 623:1 631:1 1102:1 1254:1 1319:1 1338:1 1361:1 1368:1 1398:2
-1 631:1 1368:1 1398:1
-1 175:1 623:2 631:4 635:1 706:1 715:2 1102:2 1175:1 1221:1 1230:2 1254:1 1319:2 1361:2 1368:4 1370:1 1374:1 1398:6
-1 528:2 631:1 1289:2 1368:1 1398:2
-1 175:1 241:1 306:1 528:1 551:1 623:1 631:1 702:1 844:1 1102:1 1175:1 1254:1 1289:1 1302:1 1319:1 1322:1 1347:1 1361:1 1368:1 1374:1 1398:3 1400:9
-1 528:1 631:1 1041:1 1102:1 1289:1 1319:1 1368:1 1398:2
-1 623:2 631:2 635:1 715:1 1102:2 1230:1 1319:2 1361:2 1368:2 1370:1 1398:6
-1 175:1 241:1 288:1 623:1 631:1 715:1 829:1 1102:1 1125:1 1175:1 1230:1 1254:1 1302:1 1314:1 1319:1 1338:1 1340:1 1361:1 1368:1 1374:1 1398:2
-1 262:1 631:1 1102:1 1318:1 1319:1 1368:1 1398:2
-1 175:1 241:1 256:1 288:1 623:1 631:1 715:1 761:1 1079:1 1102:1 1175:1 1230:1 1254:1 1264:1 1294:1 1302:1 1316:1 1319:1 1338:1 1361:1 1368:1 1374:1 1398:2 1400:40
-1 175:1 218:1 231:1 288:1 318:1 344:1 512:1 535:1 623:1 631:1 635:1 649:1 709:1 829:1 945:1 975:1 1018:1 1090:1 1102:1 1180:1 1182:1 1218:1 1225:1 1248:1 1254:1 1277:1 1280:1 1288:1 1299:1 1308:1 1314:1 1319:1 1338:1 1352:1 1361:1 1363:1 1368:1 1370:1 1376:1 1379:1 1382:1 1388:1 1398:2
-1 457:1 1252:1 1398:3
-1 175:1 326:1 528:1 631:1 706:1 1072:1 1102:1 1221:1 1254:1 1289:1 1319:1 1368:1 1398:2
-1 175:1 326:1 528:1 631:1 706:1 1102:1 1221:1 1254:1 1289:1 1319:1 1368:1 1398:2
-1 175:1 326:1 528:1 631:1 706:1 1102:1 1221:1 1254:1 1289:1 1319:1 1368:1 1398:2
-1 631:1 1368:1 1398:2
-1 175:1 241:1 288:1 623:1 631:1 635:1 1102:1 1125:1 1254:1 1302:1 1319:1 1338:1 1340:1 1361:1 1368:1 1370:1 1398:2
-1 711:1 1227:1 1398:1
-1 175:1 241:1 288:1 623:2 631:3 635:1 706:1 715:1 853:1 1102:2 1125:1 1221:1 1230:1 1254:1 1302:1 1319:2 1333:1 1338:1 1340:1 1361:2 1368:3 1370:1 1398:6
-1 528:1 631:1 1041:1 1102:1 1289:1 1319:1 1368:1 1398:3
-1 146:1 336:1 395:1 415:1 437:1 503:1 528:1 539:1 623:1 631:1 715:1 729:1 829:1 852:1 940:1 949:1 1102:1 1115:1 1134:1 1162:1 1222:1 1230:1 1236:1 1241:1 1273:1 1289:1 1307:1 1314:1 1319:1 1331:1 1332:1 1357:1 1358:1 1361:1 1368:1 1391:1 1398:3
-1 146:1 175:1 288:1 336:1 415:1 421:1 455:1 503:1 528:1 623:1 631:1 635:1 706:1 713:1 729:1 832:1 852:1 1102:1 1134:1 1190:1 1221:1 1222:1 1228:1 1236:1 1254:1 1273:1 1289:1 1319:1 1320:1 1332:1 1338:1 1358:1 1361:1 1368:1 1370:1 1398:2
-1 175:1 238:1 288:1 585:1 623:1 631:1 635:1 678:1 706:1 758:1 764:1 806:1 1102:1 1221:1 1254:1 1261:1 1319:1 1338:1 1361:1 1368:1 1370:1 1398:1
-1 241:1 562:1 616:1 623:1 631:1 715:1 829:1 1102:1 1230:1 1302:1 1314:1 1319:1 1359:1 1361:1 1368:1 1398:2
-1 241:1 528:1 623:1 631:1 715:1 1102:1 1125:1 1230:1 1289:1 1302:1 1319:1 1340:1 1361:1 1368:1 1398:1 1400:1
-1 474:1 524:1 528:1 631:1 1209:1 1289:1 1368:1 1398:6
-1 457:1 1252:1 1398:5
-1 175:1 241:1 259:1 288:1 306:1 528:1 551:1 623:1 631:1 635:1 681:1 706:1 761:1 844:1 1102:1 1151:1 1175:1 1221:1 1254:1 1264:1 1289:1 1302:1 1317:1 1319:1 1322:1 1338:1 1347:1 1361:1 1368:1 1370:1 1374:1 1398:2 1400:61
-1 175:1 241:1 288:1 623:1 631:1 635:1 1102:1 1125:1 1254:1 1302:1 1319:1 1338:1 1340:1 1361:1 1368:1 1370:1 1398:3
-1 336:1 731:1 1358:1 1398:2
-1 336:1 631:1 1358:1 1368:1 1398:1
-1 175:1 241:1 288:1 528:1 623:1 631:1 635:1 706:1 715:1 1102:1 1221:1 1230:1 1254:1 1289:1 1302:1 1319:1 1338:1 1361:1 1368:1 1370:1 1398:4
-1 455:1 528:1 631:1 1289:1 1368:1 1398:2
-1 175:1 623:1 631:1 706:1 1102:1 1221:1 1254:1 1319:1 1361:1 1368:1 1398:1
-1 457:1 1252:1 1398:3
-1 146:1 175:1 241:1 336:1 395:1 415:1 453:1 503:1 528:1 623:1 631:1 635:1 715:1 725:1 729:1 852:1 864:1 1057:1 1102:1 1134:1 1222:1 1230:1 1236:1 1242:1 1251:1 1254:1 1273:1 1274:1 1289:1 1302:1 1319:1 1332:1 1342:1 1358:1 1361:1 1368:1 1370:1 1398:1
-1 241:1 528:1 623:1 631:1 715:1 1102:1 1230:1 1289:1 1302:1 1319:1 1361:1 1368:1 1398:2
-1 149:1 631:1 1368:1 1398:2
-1 528:1 631:1 1102:1 1289:1 1319:1 1368:1 1398:4
-1 528:2 551:1 631:1 1079:1 1289:2 1294:1 1322:1 1368:1 1398:3
-1 241:1 631:1 1023:1 1102:1 1302:1 1319:1 1368:1 1398:2
-1 241:1 631:1 1023:1 1102:1 1302:1 1319:1 1368:1 1398:2
-1 193:1 528:1 631:1 720:1 943:1 1036:1 1102:1 1289:1 1319:1 1368:1 1398:3
-1 180:1 528:1 631:1 681:1 761:1 1264:1 1289:1 1368:1 1398:2
-1 551:1 623:1 631:1 1322:1 1361:1 1368:1 1398:2
-1 562:1 623:1 631:1 1361:1 1368:1 1398:1
-1 528:2 551:1 631:1 1289:2 1322:1 1368:1 1398:3
-1 175:1 241:1 288:1 551:1 623:2 631:4 635:1 715:2 853:1 1102:2 1125:1 1230:2 1254:1 1302:1 1319:2 1322:1 1333:1 1338:1 1340:1 1361:2 1368:4 1370:1 1398:6
-1 175:1 551:1 623:2 631:4 635:1 706:1 715:2 1102:2 1125:1 1221:1 1230:2 1254:1 1319:2 1322:1 1340:1 1361:2 1368:4 1370:1 1398:6
-1 175:1 241:1 288:1 344:1 365:1 495:1 616:1 623:1 631:1 635:1 636:1 713:1 715:1 722:1 758:1 804:1 829:1 832:1 1079:1 1083:1 1102:1 1125:1 1175:1 1228:1 1230:1 1239:1 1254:1 1261:1 1269:1 1285:1 1294:1 1298:1 1302:1 1314:1 1319:1 1320:1 1338:1 1340:1 1359:1 1361:1 1363:1 1368:1 1370:1 1372:1 1374:1 1384:1 1398:2
-1 457:1 1252:1 1398:3
-1 457:1 1252:1 1398:2
-1 317:1 623:1 631:4 715:2 918:1 1102:2 1230:2 1319:2 1354:1 1361:1 1368:4 1398:5
-1 175:1 241:1 623:2 631:4 635:1 681:1 706:1 715:3 761:2 1102:2 1125:1 1221:1 1230:3 1254:1 1264:2 1302:1 1319:2 1340:1 1361:2 1368:4 1370:1 1398:6
-1 428:1 631:1 681:1 761:1 902:1 918:1 1264:1 1368:1 1398:4
-1 175:1 241:1 288:1 623:1 631:1 635:1 1102:1 1254:1 1302:1 1319:1 1338:1 1361:1 1368:1 1370:1 1398:2
-1 146:1 247:1 274:1 355:1 382:1 415:1 503:1 528:1 729:1 832:1 852:1 869:1 940:1 949:1 988:1 1068:1 1084:1 1134:1 1162:1 1222:1 1223:1 1236:1 1273:1 1284:1 1289:1 1310:1 1320:1 1326:1 1332:1 1357:1 1373:1 1391:1 1396:1 1398:2
-1 528:1 631:1 1289:1 1368:1 1398:5
-1 528:2 631:1 1289:2 1368:1 1398:3
-1 457:1 1252:1 1398:4
-1 711:1 1227:1 1398:1
-1 146:1 228:1 239:1 247:1 257:1 274:1 312:1 336:1 355:1 394:1 395:1 415:1 426:1 437:1 446:1 461:1 503:1 506:1 516:1 528:1 539:1 680:1 716:1 725:1 729:1 743:1 789:1 797:1 812:1 852:1 938:1 940:1 946:1 949:1 970:1 1031:1 1039:1 1068:1 1084:1 1102:1 1115:1 1118:1 1133:1 1134:1 1156:1 1215:1 1222:1 1231:1 1236:1 1241:1 1242:1 1257:1 1273:1 1284:1 1286:1 1289:1 1292:1 1304:1 1307:1 1310:1 1319:1 1326:1 1331:1 1332:1 1344:1 1358:1 1373:1 1389:1 1391:1 1398:3
-1 146:1 274:1 415:1 461:1 503:1 528:1 729:1 852:1 938:1 1031:1 1068:1 1084:1 1134:1 1222:1 1236:1 1257:1 1273:1 1284:1 1289:1 1326:1 1332:1 1398:2
-1 457:1 1252:1 1398:2
-1 175:1 288:1 623:1 631:1 635:1 706:1 853:1 1079:1 1102:1 1221:1 1254:1 1294:1 1319:1 1333:1 1338:1 1361:1 1368:1 1370:1 1398:1
-1 711:1 1227:1 1398:1
-1 623:2 631:2 635:1 715:1 1102:2 1230:1 1319:2 1361:2 1368:2 1370:1 1398:7
-1 175:1 288:1 336:1 376:1 395:1 456:1 528:1 623:1 631:1 635:1 715:1 758:1 1102:1 1230:1 1254:1 1261:1 1289:1 1319:1 1338:1 1358:1 1361:1 1368:1 1370:1 1394:1 1398:2
-1 175:1 241:1 288:1 623:1 631:1 635:1 1102:1 1125:1 1254:1 1302:1 1319:1 1338:1 1340:1 1361:1 1368:1 1370:1 1398:3
-1 711:1 1227:1 1398:1
-1 1398:3
-1 336:1 528:1 631:1 1102:1 1289:1 1319:1 1358:1 1368:1 1398:2
-1 175:1 241:1 288:1 528:1 623:1 631:1 635:1 706:1 722:1 790:1 829:1 849:1 864:1 1079:1 1102:1 1175:1 1221:1 1239:1 1254:1 1275:1 1289:1 1294:1 1302:1 1314:1 1319:1 1329:1 1338:1 1342:1 1361:1 1368:1 1370:1 1374:1 1398:4
-1 457:1 1252:1 1398:3
-1 175:1 288:1 623:2 631:4 635:1 715:2 1102:2 1125:1 1230:2 1254:1 1319:2 1338:1 1340:1 1361:2 1368:4 1370:1 1398:6
-1 241:1 405:1 528:1 631:1 1289:1 1302:1 1368:1 1398:1
-1 241:1 556:1 715:1 801:1 1230:1 1302:1 1398:2
-1 528:2 631:1 1289:2 1368:1 1398:5
-1 288:1 623:1 631:1 1102:1 1319:1 1338:1 1361:1 1368:1 1398:3
-1 457:1 1252:1 1398:2
-1 137:1 146:1 274:1 336:1 373:1 382:1 395:1 415:1 503:1 528:1 630:1 640:1 646:1 729:1 789:1 812:1 852:1 891:1 938:1 949:1 988:1 1035:1 1068:1 1084:1 1098:1 1134:1 1222:1 1223:1 1236:1 1273:1 1284:1 1289:1 1292:1 1326:1 1332:1 1358:1 1391:1 1396:1 1398:3
-1 175:1 241:1 288:1 623:1 631:1 635:1 1102:1 1125:1 1254:1 1302:1 1319:1 1338:1 1340:1 1361:1 1368:1 1370:1 1398:3
-1 457:1 1252:1 1398:3
-1 175:1 241:2 256:1 288:1 623:2 631:5 635:1 636:1 706:1 715:3 761:3 853:1 1102:2 1125:1 1221:1 1230:3 1254:1 1264:3 1302:2 1316:1 1319:2 1333:1 1338:1 1340:1 1361:2 1368:5 1370:1 1372:1 1398:6
-1 457:1 1252:1 1398:3
-1 391:1 631:1 1368:1 1398:3
-1 631:1 681:1 732:1 761:1 886:1 902:1 1264:1 1368:1 1398:1
-1 631:1 681:1 732:1 761:1 902:1 1264:1 1368:1 1398:1
-1 631:1 681:1 732:1 761:1 886:1 902:1 1264:1 1368:1 1398:1
-1 357:1 631:1 854:1 1078:1 1102:1 1120:1 1127:1 1139:1 1319:1 1368:1 1398:1
-1 711:1 1227:1 1398:1
-1 631:1 1368:1 1398:2
-1 227:1 267:1 528:2 631:1 720:1 930:1 943:1 1036:1 1184:1 1289:2 1368:1 1398:2
-1 175:1 288:1 623:1 631:1 706:1 1102:1 1221:1 1254:1 1319:1 1338:1 1361:1 1368:1 1398:1
-1 631:1 1136:1 1368:1 1398:3
-1 631:1 1136:1 1368:1 1398:3
-1 631:1 1136:1 1368:1 1398:3
-1 631:1 1136:1 1368:1 1398:3
-1 175:1 233:1 623:1 631:1 1011:1 1020:1 1102:1 1254:1 1293:1 1319:1 1361:1 1368:1 1398:2
-1 175:1 241:1 256:1 288:2 551:1 623:2 631:5 635:1 706:1 715:2 828:1 1102:3 1125:1 1221:1 1230:2 1254:1 1302:1 1312:1 1316:1 1319:3 1322:1 1338:2 1340:1 1361:2 1368:5 1370:1 1398:6
-1 288:1 528:1 631:1 829:1 1102:1 1289:1 1314:1 1319:1 1338:1 1368:1 1398:6
-1 137:1 146:1 157:1 199:1 247:1 274:1 294:1 312:1 336:1 354:1 373:1 395:1 410:1 415:1 421:1 437:1 458:1 461:1 503:1 528:1 640:1 646:1 674:1 713:1 715:1 717:1 729:1 746:1 784:1 789:1 792:1 812:1 826:1 852:1 938:1 940:1 949:1 970:1 988:1 1027:1 1031:1 1035:1 1068:1 1076:1 1084:1 1126:1 1128:1 1134:1 1162:1 1168:1 1215:1 1222:1 1223:1 1228:1 1230:1 1236:1 1241:1 1256:1 1257:1 1273:1 1276:1 1284:1 1289:1 1292:1 1310:1 1326:1 1332:1 1357:1 1358:1 1369:1 1391:1 1398:2
-1 146:1 288:1 336:1 373:1 415:1 503:1 528:1 631:1 729:1 789:1 826:1 852:1 940:1 1068:1 1084:1 1134:1 1222:1 1236:1 1273:1 1284:1 1289:1 1332:1 1338:1 1358:1 1368:1 1398:2
-1 146:1 247:1 274:1 336:1 355:1 373:1 395:1 401:1 415:1 437:1 461:1 503:1 528:1 539:1 542:1 632:1 644:1 715:1 729:1 746:1 789:1 852:1 870:1 938:1 940:1 949:1 1006:1 1027:1 1031:1 1068:1 1084:1 1115:1 1134:1 1144:1 1162:1 1211:1 1222:1 1230:1 1236:1 1241:1 1243:1 1256:1 1257:1 1273:1 1284:1 1289:1 1307:1 1310:1 1326:1 1331:1 1332:1 1348:1 1357:1 1358:1 1373:1 1391:1 1398:2
-1 395:1 415:1 503:1 528:1 623:1 631:1 729:1 829:1 852:1 1021:1 1134:1 1222:1 1273:1 1289:1 1314:1 1332:1 1361:1 1368:1 1398:1
-1 146:1 415:1 503:1 528:1 631:1 729:1 852:1 1102:1 1134:1 1222:1 1236:1 1273:1 1289:1 1319:1 1332:1 1368:1 1398:3
-1 711:1 1227:1 1398:1
-1 175:1 241:1 288:1 623:1 631:1 635:1 1102:1 1125:1 1254:1 1302:1 1319:1 1338:1 1340:1 1361:1 1368:1 1370:1 1398:3
-1 457:1 1252:1 1398:3
-1 241:1 336:1 453:1 528:1 623:1 631:1 715:1 1102:1 1230:1 1251:1 1289:1 1302:1 1319:1 1358:1 1361:1 1368:1 1398:2
-1 631:1 1368:1 1398:1
-1 175:1 288:1 336:1 395:1 528:1 623:1 631:1 635:1 715:1 891:1 1102:1 1230:1 1254:1 1289:1 1319:1 1338:1 1358:1 1361:1 1368:1 1370:1 1398:1
-1 457:1 1252:1 1398:2
-1 528:1 623:1 631:1 1289:1 1361:1 1368:1 1398:3
-1 159:1 175:1 241:1 558:1 623:1 631:1 635:1 706:1 715:1 1102:1 1175:1 1183:1 1221:1 1230:1 1245:1 1254:1 1302:1 1319:1 1330:1 1361:1 1368:1 1370:1 1374:1 1381:1 1398:2
-1 159:1 175:1 241:1 558:1 623:1 631:1 635:1 706:1 715:1 1102:1 1175:1 1183:1 1221:1 1230:1 1245:1 1254:1 1302:1 1319:1 1330:1 1361:1 1368:1 1370:1 1374:1 1381:1 1398:2
-1 146:1 272:1 274:1 295:1 318:1 355:1 395:1 415:1 461:1 498:1 503:1 630:1 715:1 729:1 789:1 812:1 852:1 882:1 940:1 949:1 1035:1 1068:1 1077:1 1084:1 1107:1 1133:1 1134:1 1162:1 1222:1 1230:1 1236:1 1273:1 1284:1 1292:1 1325:1 1326:1 1332:1 1341:1 1344:1 1352:1 1357:1 1373:1 1391:1 1398:1
-1 175:1 288:1 528:1 543:1 623:1 631:1 1102:1 1254:1 1289:1 1319:1 1338:1 1361:1 1368:1 1398:2
-1 175:1 543:1 623:2 631:4 635:1 715:2 1102:2 1125:1 1175:1 1230:2 1254:1 1319:2 1340:1 1361:2 1368:4 1370:1 1374:1 1398:6
-1 175:1 288:1 528:1 623:1 631:1 635:1 844:1 1041:1 1102:1 1254:1 1289:1 1319:1 1338:1 1361:1 1368:1 1370:1 1398:2
-1 175:1 288:1 551:1 623:2 631:4 635:1 715:2 1102:2 1230:2 1254:1 1319:2 1322:1 1338:1 1361:2 1368:4 1370:1 1398:6
-1 631:1 1368:1 1398:1
-1 631:1 1368:1 1398:2
-1 457:1 1252:1 1398:3
-1 648:1 1398:2
-1 175:1 241:1 288:1 528:2 551:1 623:1 631:1 635:1 706:1 1102:1 1221:1 1254:1 1289:2 1302:1 1319:1 1322:1 1338:1 1361:1 1368:1 1370:1 1398:2
-1 528:1 631:1 1289:1 1368:1 1398:2
-1 175:1 241:1 288:1 484:1 555:1 623:1 631:1 635:1 706:1 715:1 829:1 832:1 1102:1 1125:1 1221:1 1230:1 1254:1 1262:1 1302:1 1314:1 1319:1 1320:1 1328:1 1338:1 1340:1 1361:1 1368:1 1370:1 1398:2
-1 175:1 241:1 288:1 623:1 631:1 635:1 706:1 715:1 1102:1 1125:1 1221:1 1230:1 1254:1 1302:1 1319:1 1338:1 1340:1 1361:1 1368:1 1370:1 1398:1
-1 395:1 528:1 623:1 631:1 832:1 1102:1 1125:1 1289:1 1319:1 1320:1 1340:1 1361:1 1368:1 1398:1
-1 146:1 274:1 295:1 318:1 336:1 373:1 415:1 461:1 503:1 630:1 729:1 789:1 938:1 1035:1 1064:1 1068:1 1084:1 1098:1 1134:1 1222:1 1236:1 1273:1 1284:1 1326:1 1341:1 1352:1 1358:1 1398:2
-1 336:1 395:1 528:1 623:1 631:1 1079:1 1102:1 1125:1 1289:1 1294:1 1319:1 1340:1 1358:1 1361:1 1368:1 1398:1 1400:3
-1 146:1 247:1 274:1 336:1 373:1 395:1 415:1 437:1 503:1 528:1 541:1 713:1 729:1 789:1 792:1 832:1 852:1 1035:1 1068:1 1084:1 1134:1 1222:1 1228:1 1236:1 1241:1 1273:1 1276:1 1284:1 1289:1 1309:1 1310:1 1320:1 1326:1 1332:1 1358:1 1398:1
-1 175:1 241:1 288:1 623:1 631:1 635:1 706:1 715:1 1102:1 1221:1 1230:1 1254:1 1302:1 1319:1 1338:1 1361:1 1368:1 1370:1 1398:1
-1 457:1 1252:1 1398:4
-1 171:1 284:1 335:1 336:1 370:1 528:1 715:1 903:1 1044:1 1155:1 1230:1 1289:1 1358:1 1398:1
-1 151:1 336:1 347:1 393:1 407:1 452:1 503:1 528:1 530:1 536:1 557:1 564:1 609:1 628:1 645:1 696:1 715:1 745:1 852:1 974:1 1068:1 1088:1 1133:1 1162:1 1192:1 1214:1 1217:1 1230:1 1240:1 1250:1 1255:1 1273:1 1284:1 1289:1 1290:1 1300:1 1303:1 1327:1 1332:1 1336:1 1344:1 1356:1 1357:1 1358:1 1366:1 1367:1 1385:1 1398:1
-1 146:1 239:1 257:1 274:1 298:1 336:1 373:1 382:1 395:1 410:1 415:1 426:1 444:1 461:1 503:1 528:1 646:1 715:1 718:1 729:1 789:1 826:1 852:1 949:1 1068:1 1076:1 1084:1 1098:1 1134:1 1144:1 1162:1 1222:1 1230:1 1236:1 1273:1 1284:1 1289:1 1304:1 1326:1 1332:1 1348:1 1357:1 1358:1 1391:1 1396:1 1398:2
-1 457:1 1252:1 1398:3
-1 528:1 631:1 1036:1 1289:1 1368:1 1398:2
-1 457:1 1252:1 1398:3
-1 146:1 175:1 247:1 256:1 268:1 294:1 336:1 355:1 373:1 395:1 415:1 437:1 461:1 503:1 528:1 539:1 614:1 623:1 631:1 635:1 694:1 716:1 729:1 812:1 829:1 852:1 864:1 938:1 949:1 1068:1 1084:1 1095:1 1102:1 1115:1 1134:1 1144:1 1176:1 1220:1 1222:1 1231:1 1236:1 1241:1 1254:1 1273:1 1284:1 1289:1 1292:1 1307:1 1310:1 1314:1 1315:1 1316:1 1319:1 1331:1 1332:1 1342:1 1348:1 1358:1 1361:1 1368:1 1370:1 1373:1 1391:1 1398:3
-1 457:1 1252:1 1398:3
-1 457:1 1252:1 1398:3
-1 457:1 1252:1 1398:3
-1 528:1 623:1 631:1 635:1 1102:1 1289:1 1319:1 1361:1 1368:1 1370:1 1398:2
-1 631:1 1368:1 1398:1
-1 175:1 241:1 259:1 271:1 288:1 623:1 631:1 635:1 706:1 996:1 1102:1 1151:1 1175:1 1221:1 1234:1 1254:1 1302:1 1317:1 1319:1 1324:1 1338:1 1361:1 1368:1 1370:1 1374:1 1398:2 1400:2
-1 288:1 528:1 623:1 631:1 1102:1 1289:1 1319:1 1338:1 1361:1 1368:1 1398:3
-1 623:3 631:4 635:1 715:1 1102:2 1230:1 1319:2 1361:3 1368:4 1370:1 1398:4
-1 146:1 199:1 274:1 336:1 373:1 415:1 421:1 503:1 528:1 646:1 653:1 729:1 789:1 832:1 852:1 882:1 938:1 949:1 963:1 988:1 1031:1 1068:1 1077:1 1084:1 1098:1 1126:1 1134:1 1222:1 1223:1 1236:1 1257:1 1273:1 1284:1 1289:1 1320:1 1326:1 1332:1 1358:1 1391:1 1398:2
-1 326:1 528:1 631:1 861:1 1289:1 1368:1 1398:3
-1 474:1 524:1 528:1 631:1 1209:1 1289:1 1368:1 1398:6
-1 474:1 524:1 528:1 631:1 1209:1 1289:1 1368:1 1398:6
-1 474:1 524:1 528:1 631:1 1209:1 1289:1 1368:1 1398:5
-1 474:1 524:1 528:1 631:1 1209:1 1289:1 1368:1 1398:5
-1 528:2 631:1 720:1 790:1 943:1 1036:1 1275:1 1289:2 1368:1 1398:2
-1 146:1 295:1 318:1 336:1 395:1 415:1 461:1 503:1 630:1 729:1 838:1 1084:1 1134:1 1222:1 1236:1 1273:1 1341:1 1352:1 1358:1 1398:2
-1 146:1 295:1 318:1 336:1 395:1 415:1 461:1 503:1 630:1 729:1 838:1 1084:1 1134:1 1222:1 1236:1 1273:1 1341:1 1352:1 1358:1 1398:2
-1 528:1 631:1 1289:1 1368:1 1398:6
-1 457:1 1252:1 1398:3
-1 146:1 247:1 274:1 287:1 373:1 382:1 395:1 401:1 415:1 437:1 461:1 498:1 503:1 528:1 539:1 713:1 715:1 729:1 782:1 789:1 852:1 870:1 938:1 940:1 949:1 1031:1 1068:1 1084:1 1134:1 1144:1 1211:1 1222:1 1228:1 1230:1 1236:1 1241:1 1257:1 1271:1 1273:1 1284:1 1289:1 1307:1 1310:1 1326:1 1332:1 1348:1 1391:1 1396:1 1398:2
-1 146:1 247:1 274:1 313:1 373:1 377:1 395:1 401:1 415:1 436:1 503:1 528:1 715:1 729:1 789:1 826:1 852:1 870:1 938:1 949:1 1027:1 1031:1 1068:1 1134:1 1144:1 1162:1 1222:1 1230:1 1236:1 1257:1 1273:1 1284:1 1289:1 1310:1 1326:1 1332:1 1348:1 1357:1 1391:1 1398:2
-1 146:1 148:1 247:1 268:1 274:1 336:1 395:1 405:1 415:1 437:1 461:1 503:1 528:1 539:1 674:1 713:1 729:1 789:1 852:1 938:1 940:1 951:1 1031:1 1064:1 1068:1 1084:1 1118:1 1134:1 1144:1 1162:1 1222:1 1228:1 1236:1 1238:1 1241:1 1257:1 1273:1 1284:1 1289:1 1307:1 1310:1 1326:1 1332:1 1348:1 1357:1 1358:1 1392:1 1398:2
-1 146:1 373:1 395:1 401:1 415:1 468:1 503:1 528:1 570:1 729:1 832:1 852:1 949:1 1068:1 1095:1 1102:1 1134:1 1222:1 1236:1 1273:1 1284:1 1289:1 1315:1 1319:1 1320:1 1332:1 1339:1 1391:1 1398:2
-1 146:1 247:1 373:1 395:1 401:1 415:1 436:1 437:1 441:1 503:1 528:1 539:1 644:1 715:1 729:1 789:1 832:1 852:1 870:1 949:1 1027:1 1068:1 1134:1 1211:1 1222:1 1230:1 1236:1 1241:1 1273:1 1284:1 1289:1 1307:1 1310:1 1320:1 1332:1 1391:1 1398:2
-1 457:1 1252:1 1398:3
-1 457:1 1252:1 1398:2
-1 146:1 274:1 336:1 373:1 415:1 503:1 528:1 722:1 729:1 789:1 852:1 949:1 1084:1 1134:1 1222:1 1236:1 1239:1 1273:1 1289:1 1326:1 1332:1 1358:1 1391:1 1398:2
-1 457:1 1252:1 1398:3
-1 474:1 528:2 623:1 631:1 700:1 781:1 934:1 1030:1 1209:1 1289:2 1361:1 1368:1 1398:4
-1 631:1 1102:1 1319:1 1368:1 1398:2
-1 457:1 1252:1 1398:3
-1 457:1 1252:1 1398:3
-1 457:1 1252:1 1398:3
-1 336:1 528:1 631:1 933:1 1289:1 1358:1 1368:1 1398:2
-1 288:1 484:1 623:1 631:1 635:1 715:1 829:1 832:1 1102:1 1125:1 1230:1 1262:1 1314:1 1319:1 1320:1 1338:1 1340:1 1361:1 1368:1 1370:1 1398:1 1400:3
-1 175:1 623:1 631:1 635:1 1102:1 1125:1 1254:1 1319:1 1340:1 1361:1 1368:1 1370:1 1398:2
-1 175:1 241:1 623:1 631:1 635:1 715:1 804:1 829:1 1102:1 1230:1 1254:1 1285:1 1302:1 1314:1 1319:1 1361:1 1368:1 1370:1 1398:1
-1 457:1 1252:1 1398:3
-1 631:1 1368:1 1398:1
-1 146:1 241:1 288:1 395:1 415:1 421:1 503:1 528:1 623:1 631:1 635:1 713:1 729:1 852:1 1095:1 1102:1 1134:1 1190:1 1222:1 1228:1 1236:1 1273:1 1289:1 1302:1 1315:1 1319:1 1332:1 1338:1 1361:1 1368:1 1370:1 1398:2
-1 146:1 241:1 288:1 395:1 415:1 503:1 528:1 729:1 829:1 852:1 1102:1 1134:1 1222:1 1236:1 1273:1 1289:1 1302:1 1314:1 1319:1 1332:1 1338:1 1398:3
-1 528:1 631:1 1289:1 1368:1 1398:2 1400:1
-1 528:1 631:1 1289:1 1368:1 1398:2 1400:1
-1 175:1 241:1 288:1 623:1 631:1 635:1 681:1 706:1 715:1 761:1 829:1 1057:1 1102:1 1175:1 1221:1 1230:1 1254:1 1264:1 1274:1 1302:1 1314:1 1319:1 1338:1 1361:1 1368:1 1370:1 1374:1 1398:2
-1 175:1 241:1 288:1 623:1 631:1 635:1 681:1 706:1 715:1 761:1 829:1 1057:1 1102:1 1175:1 1221:1 1230:1 1254:1 1264:1 1274:1 1302:1 1314:1 1319:1 1338:1 1361:1 1368:1 1370:1 1374:1 1398:3
-1 528:1 631:1 874:1 918:1 1102:1 1289:1 1319:1 1368:1 1398:3
-1 623:3 631:4 635:1 715:1 1102:2 1230:1 1319:2 1361:3 1368:4 1370:1 1398:4
-1 129:1 146:1 336:1 338:1 395:1 415:1 421:1 503:1 528:1 631:1 682:1 715:1 729:1 829:1 852:1 853:1 949:1 1079:1 1102:1 1125:1 1134:1 1222:1 1230:1 1236:1 1273:1 1289:1 1294:1 1314:1 1319:1 1332:1 1333:1 1340:1 1358:1 1368:1 1391:1 1398:2
-1 118:1 124:1 175:1 241:1 288:1 623:1 631:1 635:1 678:1 715:1 758:1 829:1 1102:1 1125:1 1230:1 1254:1 1261:1 1302:1 1314:1 1319:1 1338:1 1340:1 1361:1 1368:1 1370:1 1398:1
-1 175:1 288:1 623:1 631:1 635:1 706:1 758:1 1079:1 1102:1 1221:1 1254:1 1261:1 1294:1 1319:1 1338:1 1361:1 1368:1 1370:1 1398:1
-1 175:1 241:1 288:1 623:1 631:1 635:1 1102:1 1125:1 1254:1 1302:1 1319:1 1338:1 1340:1 1361:1 1368:1 1370:1 1398:2
-1 175:1 241:1 288:2 623:2 631:4 635:1 706:1 715:2 1102:2 1125:1 1221:1 1230:2 1254:1 1302:1 1319:2 1338:2 1340:1 1361:2 1368:4 1370:1 1398:6
-1 623:2 631:2 635:1 715:1 1102:2 1230:1 1319:2 1361:2 1368:2 1370:1 1398:7
-1 457:1 1252:1 1398:3
-1 146:1 157:1 274:1 336:1 373:1 415:1 461:1 503:1 528:1 640:1 729:1 746:1 789:1 852:1 940:1 1031:1 1068:1 1076:1 1084:1 1098:1 1133:1 1134:1 1162:1 1222:1 1236:1 1256:1 1257:1 1273:1 1284:1 1289:1 1326:1 1332:1 1344:1 1357:1 1358:1 1398:2
-1 146:1 274:1 336:1 415:1 453:1 503:1 528:1 631:1 718:1 729:1 826:1 852:1 925:1 940:1 1068:1 1134:1 1162:1 1222:1 1236:1 1251:1 1273:1 1284:1 1289:1 1326:1 1332:1 1357:1 1358:1 1368:1 1398:2
-1 457:1 1252:1 1398:3
-1 457:1 1252:1 1398:2
-1 623:3 631:4 635:1 715:2 1102:2 1230:2 1319:2 1361:3 1368:4 1370:1 1398:6
-1 711:1 1227:1 1398:3
-1 711:1 1227:1 1398:2
-1 711:1 1227:1 1398:2
-1 711:1 1227:1 1398:2
-1 711:1 1227:1 1398:2
-1 711:1 1227:1 1398:2
-1 711:1 1227:1 1398:1
-1 711:1 1227:1 1398:1
-1 711:1 1227:1 1398:2
-1 711:1 1227:1 1398:1
-1 711:1 1227:1 1398:1
-1 711:1 1227:1 1398:1
-1 146:1 395:1 415:1 437:1 453:1 503:1 528:1 539:1 623:1 631:1 729:1 829:1 852:1 1102:1 1134:1 1222:1 1236:1 1241:1 1251:1 1273:1 1289:1 1307:1 1314:1 1319:1 1332:1 1361:1 1368:1 1398:3
-1 146:1 175:1 241:1 344:1 354:1 395:1 415:1 421:1 451:1 461:1 503:1 528:1 539:1 623:1 631:1 653:1 713:1 715:1 729:1 782:1 832:1 852:1 951:1 1080:1 1083:1 1093:1 1102:1 1126:1 1134:1 1211:1 1222:1 1228:1 1230:1 1236:1 1254:1 1271:1 1273:1 1289:1 1295:1 1298:1 1302:1 1307:1 1313:1 1319:1 1320:1 1332:1 1361:1 1363:1 1368:1 1369:1 1392:1 1398:1
-1 146:1 247:1 415:1 436:1 503:1 528:1 729:1 852:1 1068:1 1134:1 1222:1 1236:1 1273:1 1284:1 1289:1 1310:1 1332:1 1398:2
-1 175:1 241:1 558:1 623:1 631:1 635:1 706:1 715:1 829:1 1102:1 1221:1 1230:1 1254:1 1302:1 1314:1 1319:1 1330:1 1361:1 1368:1 1370:1 1398:1
-1 457:1 1252:1 1398:4
-1 457:1 1252:1 1398:3
-1 528:2 551:1 631:1 1289:2 1322:1 1368:1 1398:3
-1 528:2 631:1 1289:2 1368:1 1398:2
-1 146:1 336:1 395:1 415:1 461:1 503:1 528:1 729:1 826:1 852:1 938:1 988:1 1068:1 1084:1 1134:1 1222:1 1223:1 1236:1 1273:1 1284:1 1289:1 1332:1 1358:1 1398:1
-1 425:1 631:1 1130:1 1136:1 1368:1 1398:2
-1 623:2 631:2 635:1 715:1 1102:2 1230:1 1319:2 1361:2 1368:2 1370:1 1398:7
-1 175:1 213:1 241:1 288:1 317:1 528:1 623:1 631:1 706:1 715:1 758:1 795:1 829:1 864:1 868:1 1102:1 1221:1 1230:1 1254:1 1261:1 1289:1 1302:1 1314:1 1319:1 1338:1 1342:1 1354:1 1361:1 1368:1 1398:1 1400:43
-1 175:1 288:1 623:1 631:1 1102:1 1254:1 1319:1 1338:1 1361:1 1368:1 1398:2
-1 528:1 623:1 631:1 1289:1 1361:1 1368:1 1398:2
-1 447:1 631:1 754:1 759:1 900:1 1102:1 1319:1 1368:1 1398:2
-1 175:1 241:1 288:1 344:1 528:1 623:1 631:1 635:1 715:1 804:1 829:1 832:1 1057:1 1102:1 1125:1 1230:1 1254:1 1274:1 1285:1 1289:1 1302:1 1314:1 1319:1 1320:1 1338:1 1340:1 1361:1 1363:1 1368:1 1370:1 1398:3
-1 137:1 138:1 146:1 266:1 274:1 336:1 394:1 415:1 439:1 446:1 461:1 463:1 503:1 528:1 572:1 583:1 690:1 729:1 852:1 940:1 1031:1 1068:1 1084:1 1134:1 1144:1 1219:1 1222:1 1236:1 1257:1 1273:1 1284:1 1289:1 1326:1 1332:1 1348:1 1358:1 1398:2
-1 241:1 288:1 528:1 623:1 631:1 715:1 1102:1 1230:1 1289:1 1302:1 1319:1 1338:1 1361:1 1368:1 1398:2
-1 175:1 241:1 288:1 623:1 631:1 635:1 706:1 715:1 1102:1 1125:1 1221:1 1230:1 1254:1 1302:1 1319:1 1338:1 1340:1 1361:1 1368:1 1370:1 1398:2
-1 146:1 166:1 288:1 312:1 324:1 336:1 354:1 373:1 395:1 415:1 503:1 505:1 528:1 623:1 631:1 729:1 789:1 852:1 1006:1 1031:1 1068:1 1076:1 1084:1 1102:1 1125:1 1134:1 1144:1 1162:1 1222:1 1236:1 1243:1 1257:1 1273:1 1284:1 1289:1 1319:1 1332:1 1338:1 1340:1 1348:1 1357:1 1358:1 1361:1 1368:1 1369:1 1398:3
-1 175:1 623:1 631:1 635:1 1102:1 1125:1 1254:1 1319:1 1340:1 1361:1 1368:1 1370:1 1398:2
-1 175:1 623:1 631:1 635:1 1102:1 1125:1 1254:1 1319:1 1340:1 1361:1 1368:1 1370:1 1398:2
-1 241:1 288:1 623:1 631:1 635:1 706:1 715:1 1102:1 1221:1 1230:1 1302:1 1319:1 1338:1 1361:1 1368:1 1370:1 1398:1
-1 457:1 1252:1 1398:3
-1 623:2 631:2 635:1 715:1 1102:2 1230:1 1319:2 1361:2 1368:2 1370:1 1398:7
-1 175:1 241:1 288:1 336:1 405:1 495:1 514:1 528:1 623:1 631:1 694:1 713:1 715:1 758:1 829:1 832:1 1102:1 1177:1 1220:1 1228:1 1230:1 1254:1 1261:1 1269:1 1279:1 1289:1 1302:1 1314:1 1319:1 1320:1 1338:1 1358:1 1361:1 1368:1 1375:1 1398:1
-1 288:1 528:1 623:1 631:1 1102:1 1289:1 1319:1 1338:1 1361:1 1368:1 1398:4
-1 469:1 631:1 722:1 1136:1 1239:1 1368:1 1398:3
-1 631:1 675:1 722:1 1136:1 1239:1 1368:1 1398:3
-1 175:1 623:2 631:5 635:1 715:2 1102:2 1125:1 1230:2 1254:1 1319:2 1340:1 1361:2 1368:5 1370:1 1398:6
-1 288:1 623:1 631:1 635:1 1102:1 1319:1 1338:1 1361:1 1368:1 1370:1 1398:1
-1 631:1 976:1 1368:1 1398:1
-1 395:1 528:1 623:1 631:1 1102:1 1289:1 1319:1 1361:1 1368:1 1398:2
-1 175:1 315:1 469:1 528:2 623:1 631:1 713:1 1079:1 1102:1 1228:1 1254:1 1289:2 1294:1 1319:1 1361:1 1368:1 1398:4 1400:5590
-1 623:2 631:2 635:1 715:1 1102:2 1230:1 1319:2 1361:2 1368:2 1370:1 1398:7
-1 288:1 528:1 623:1 631:1 1102:1 1289:1 1319:1 1338:1 1361:1 1368:1 1398:4
-1 241:1 288:1 336:1 392:1 528:1 614:1 623:1 631:1 635:1 1057:1 1095:1 1102:1 1274:1 1289:1 1302:1 1315:1 1319:1 1338:1 1358:1 1361:1 1368:1 1370:1 1397:1 1398:2
-1 146:1 274:1 336:1 395:1 415:1 421:1 493:1 503:1 528:1 623:1 624:1 631:1 729:1 789:1 832:1 852:1 940:1 949:1 1034:1 1102:1 1134:1 1144:1 1190:1 1222:1 1236:1 1273:1 1289:1 1319:1 1320:1 1326:1 1332:1 1348:1 1358:1 1361:1 1364:1 1368:1 1391:1 1398:3
-1 146:1 371:1 395:1 415:1 503:1 528:1 716:1 729:1 831:1 852:1 1068:1 1134:1 1222:1 1231:1 1236:1 1273:1 1284:1 1289:1 1332:1 1398:2
-1 175:1 241:1 288:1 623:1 631:1 635:1 1102:1 1125:1 1254:1 1302:1 1319:1 1338:1 1340:1 1361:1 1368:1 1370:1 1398:3
-1 175:1 241:1 623:1 631:1 635:1 678:1 715:1 790:1 809:1 829:1 1102:1 1230:1 1254:1 1275:1 1302:1 1314:1 1319:1 1361:1 1368:1 1370:1 1398:2
-1 260:1 301:1 386:1 631:1 1078:1 1368:1 1398:2
-1 175:1 241:1 260:1 288:1 301:1 386:1 623:1 631:1 635:1 715:1 829:1 1078:1 1102:1 1125:1 1230:1 1254:1 1302:1 1314:1 1319:1 1338:1 1340:1 1361:1 1368:1 1370:1 1398:1
-1 457:1 1252:1 1398:4
-1 457:1 1252:1 1398:2
-1 457:1 1252:1 1398:3
-1 457:1 1252:1 1398:2
-1 457:1 1252:1 1398:3
-1 623:2 631:2 635:1 715:1 1102:2 1230:1 1319:2 1361:2 1368:2 1370:1 1398:7
-1 457:1 1252:1 1398:3
-1 175:1 241:1 288:1 623:1 631:1 635:1 1102:1 1125:1 1254:1 1302:1 1319:1 1338:1 1340:1 1361:1 1368:1 1370:1 1398:3
-1 457:1 1252:1 1398:2
-1 457:1 1252:1 1398:2
-1 457:1 1252:1 1398:2
-1 457:1 1252:1 1398:2
-1 350:1 553:1 627:1 631:1 761:1 1264:1 1368:1 1398:3 1400:66
-1 262:1 378:1 631:1 761:1 1141:1 1264:1 1318:1 1368:1 1398:1 1400:66
-1 457:1 1252:1 1398:2
-1 129:1 146:1 247:1 268:1 274:1 382:1 395:1 401:1 402:1 421:1 461:1 503:1 528:1 653:1 663:1 715:1 729:1 789:1 832:1 852:1 938:1 940:1 949:1 1035:1 1068:1 1076:1 1084:1 1134:1 1144:1 1162:1 1211:1 1230:1 1236:1 1273:1 1284:1 1289:1 1310:1 1320:1 1326:1 1332:1 1348:1 1357:1 1391:1 1396:1 1398:2
-1 146:1 257:1 295:1 318:1 395:1 415:1 437:1 461:1 503:1 539:1 630:1 729:1 852:1 938:1 1031:1 1068:1 1084:1 1115:1 1134:1 1222:1 1236:1 1241:1 1257:1 1273:1 1284:1 1307:1 1331:1 1332:1 1341:1 1352:1 1398:2
-1 175:1 288:1 344:1 623:1 631:1 706:1 715:1 722:1 829:1 1102:1 1221:1 1230:1 1239:1 1254:1 1314:1 1319:1 1338:1 1361:1 1363:1 1368:1 1398:1
-1 623:3 631:4 635:1 715:1 1102:2 1230:1 1319:2 1361:3 1368:4 1370:1 1398:5
-1 623:1 631:1 1102:1 1319:1 1361:1 1368:1 1398:1
-1 175:1 288:1 623:1 631:1 635:1 1102:1 1254:1 1319:1 1338:1 1361:1 1368:1 1370:1 1398:1
-1 175:1 288:1 623:1 631:1 635:1 1102:1 1254:1 1319:1 1338:1 1361:1 1368:1 1370:1 1398:1
-1 288:1 623:1 631:1 1102:1 1319:1 1338:1 1361:1 1368:1 1398:1
-1 288:1 623:1 631:1 1102:1 1319:1 1338:1 1361:1 1368:1 1398:1
-1 175:1 241:1 259:1 288:1 376:1 453:1 495:1 558:1 569:1 623:1 631:1 706:1 715:1 829:1 853:1 1102:1 1125:1 1221:1 1230:1 1251:1 1254:1 1269:1 1302:1 1314:1 1317:1 1319:1 1330:1 1333:1 1337:1 1338:1 1340:1 1361:1 1368:1 1394:1 1398:1
-1 175:1 241:1 259:1 288:1 376:1 453:1 495:1 558:1 569:1 623:1 631:1 706:1 715:1 829:1 853:1 1102:1 1125:1 1221:1 1230:1 1251:1 1254:1 1269:1 1302:1 1314:1 1317:1 1319:1 1330:1 1333:1 1337:1 1338:1 1340:1 1361:1 1368:1 1394:1 1398:1
-1 528:1 631:1 761:1 902:1 1264:1 1289:1 1368:1 1398:3
-1 175:1 623:1 631:1 706:1 1102:1 1221:1 1254:1 1319:1 1361:1 1368:1 1398:1
-1 146:1 288:1 336:1 387:1 415:1 503:1 528:1 623:1 631:1 713:1 729:1 852:1 1129:1 1134:1 1222:1 1228:1 1236:1 1273:1 1289:1 1332:1 1338:1 1358:1 1361:1 1368:1 1398:2
-1 175:1 241:1 288:1 623:1 631:1 715:1 829:1 1102:1 1230:1 1254:1 1302:1 1314:1 1319:1 1338:1 1361:1 1368:1 1398:1
-1 241:1 457:1 528:1 623:1 631:1 715:1 829:1 1230:1 1252:1 1289:1 1302:1 1314:1 1361:1 1368:1 1398:3
-1 175:1 241:1 288:1 336:1 528:1 623:1 631:1 635:1 713:1 715:1 864:1 1102:1 1228:1 1230:1 1254:1 1289:1 1302:1 1319:1 1338:1 1342:1 1358:1 1361:1 1368:1 1370:1 1398:2 1400:1
-1 175:1 528:1 631:1 635:1 681:1 761:1 1102:1 1254:1 1264:1 1289:1 1319:1 1368:1 1370:1 1398:3
-1 528:1 631:1 1102:1 1289:1 1319:1 1368:1 1398:5
-1 175:1 241:1 558:1 623:1 631:1 635:1 706:1 715:1 1102:1 1183:1 1221:1 1230:1 1254:1 1302:1 1319:1 1330:1 1361:1 1368:1 1370:1 1381:1 1398:2
-1 288:1 631:1 635:1 750:1 1102:1 1319:1 1338:1 1368:1 1370:1 1398:2
-1 175:1 288:1 551:1 623:1 631:1 1102:1 1254:1 1319:1 1322:1 1338:1 1361:1 1368:1 1398:2
-1 175:1 241:2 256:1 288:2 623:2 631:6 635:1 636:1 706:1 715:3 1072:1 1102:2 1125:1 1175:1 1221:1 1230:3 1254:1 1302:2 1316:1 1319:2 1338:2 1340:1 1361:2 1368:6 1370:1 1372:1 1374:1 1398:5
-1 336:1 528:1 534:1 623:1 631:1 1289:1 1358:1 1361:1 1368:1 1398:2
-1 241:1 336:1 437:1 528:1 539:1 623:1 631:1 715:1 849:1 1083:1 1102:1 1230:1 1241:1 1289:1 1298:1 1302:1 1307:1 1319:1 1329:1 1358:1 1361:1 1368:1 1398:2
-1 457:1 1252:1 1398:3
-1 528:2 552:1 631:1 1289:2 1368:1 1398:2
-1 457:1 1252:1 1398:3
-1 457:1 1252:1 1398:3
-1 457:1 1252:1 1398:3
-1 175:1 241:1 288:1 344:1 558:1 623:1 631:1 635:1 706:1 715:1 1102:1 1183:1 1221:1 1230:1 1254:1 1302:1 1319:1 1330:1 1338:1 1361:1 1363:1 1368:1 1370:1 1381:1 1398:2
-1 711:1 1227:1 1398:1
-1 175:1 241:1 288:1 546:1 623:1 631:1 635:1 715:1 722:1 758:1 829:1 1079:1 1080:1 1102:1 1125:1 1142:1 1175:1 1230:1 1239:1 1254:1 1261:1 1294:1 1295:1 1302:1 1314:1 1319:1 1338:1 1340:1 1361:1 1368:1 1370:1 1374:1 1398:1 1400:4
-1 175:1 623:1 631:1 681:1 761:1 1102:1 1254:1 1264:1 1319:1 1361:1 1368:1 1398:2
-1 528:1 631:1 1289:1 1368:1 1398:3
-1 175:1 241:1 288:1 551:1 623:2 631:4 635:1 706:1 715:3 1102:2 1125:1 1175:1 1221:1 1230:3 1254:1 1302:1 1319:2 1322:1 1338:1 1340:1 1361:2 1368:4 1370:1 1374:1 1398:6
-1 175:1 241:1 288:1 569:1 623:1 631:1 635:1 715:1 832:1 1102:1 1125:1 1230:1 1254:1 1302:1 1319:1 1320:1 1337:1 1338:1 1340:1 1361:1 1368:1 1370:1 1398:1
-1 648:1 1398:2
-1 175:1 288:1 551:1 623:1 631:1 635:1 706:1 715:1 722:1 1102:1 1125:1 1221:1 1230:1 1239:1 1254:1 1319:1 1322:1 1338:1 1340:1 1361:1 1368:1 1370:1 1398:5
-1 175:1 241:1 288:1 623:1 631:1 635:1 715:1 829:1 1102:1 1230:1 1254:1 1302:1 1314:1 1319:1 1338:1 1361:1 1368:1 1370:1 1398:1
-1 175:1 241:1 288:1 558:1 623:1 631:1 635:1 706:1 715:1 822:1 829:1 1102:1 1221:1 1230:1 1254:1 1302:1 1314:1 1319:1 1330:1 1338:1 1361:1 1368:1 1370:1 1398:1
-1 175:1 241:1 288:1 623:1 631:1 715:1 822:1 829:1 1102:1 1230:1 1254:1 1302:1 1314:1 1319:1 1338:1 1361:1 1368:1 1398:1
-1 631:1 805:1 1210:1 1368:1 1398:1
-1 175:1 241:1 558:1 623:1 631:1 635:1 706:1 715:1 829:1 1102:1 1221:1 1230:1 1254:1 1302:1 1314:1 1319:1 1330:1 1361:1 1368:1 1370:1 1398:1
-1 288:1 623:1 631:1 1102:1 1319:1 1338:1 1361:1 1368:1 1398:1
-1 175:1 241:1 288:1 362:1 558:1 623:1 631:1 706:1 715:1 828:1 829:1 1102:1 1221:1 1230:1 1254:1 1302:1 1312:1 1314:1 1319:1 1330:1 1338:1 1361:1 1368:1 1398:1
-1 175:1 241:1 256:1 288:1 495:1 558:1 623:1 631:1 635:1 636:1 706:1 713:1 715:1 758:1 829:1 864:1 1057:1 1102:1 1175:1 1221:1 1228:1 1230:1 1254:1 1261:1 1269:1 1274:1 1302:1 1314:1 1316:1 1319:1 1330:1 1338:1 1342:1 1361:1 1368:1 1370:1 1372:1 1374:1 1398:1
-1 175:1 241:1 288:1 558:1 623:1 631:1 706:1 715:1 829:1 1102:1 1221:1 1230:1 1254:1 1302:1 1314:1 1319:1 1330:1 1338:1 1361:1 1368:1 1398:1
-1 175:1 241:1 288:1 453:1 558:1 623:1 631:1 635:1 706:1 715:1 722:1 829:1 832:1 1057:1 1079:1 1102:1 1175:1 1221:1 1230:1 1239:1 1251:1 1254:1 1274:1 1294:1 1302:1 1314:1 1319:1 1320:1 1330:1 1338:1 1361:1 1368:1 1370:1 1374:1 1398:1
-1 175:1 288:1 623:1 631:1 635:1 715:1 829:1 1102:1 1230:1 1254:1 1314:1 1319:1 1338:1 1361:1 1368:1 1370:1 1398:1
-1 175:1 241:1 450:1 558:1 623:1 631:1 635:1 706:1 715:1 829:1 1102:1 1221:1 1230:1 1254:1 1302:1 1314:1 1319:1 1330:1 1361:1 1368:1 1370:1 1398:1
-1 623:2 631:2 635:1 715:1 1102:2 1230:1 1319:2 1361:2 1368:2 1370:1 1398:7
-1 175:1 241:1 528:1 623:1 631:1 635:1 1102:1 1254:1 1289:1 1302:1 1319:1 1361:1 1368:1 1370:1 1398:2
-1 175:1 241:1 288:1 623:1 631:1 635:1 948:1 1102:1 1254:1 1302:1 1319:1 1338:1 1361:1 1368:1 1370:1 1398:1 1400:14
-1 551:1 631:1 1322:1 1368:1 1398:2
-1 175:1 241:1 288:1 528:1 623:1 631:1 715:1 1041:1 1102:1 1125:1 1230:1 1254:1 1289:1 1302:1 1319:1 1338:1 1340:1 1361:1 1368:1 1398:1
-1 623:1 631:1 635:1 1102:1 1125:1 1319:1 1340:1 1361:1 1368:1 1370:1 1398:2
-1 623:2 631:2 635:1 715:1 1102:2 1230:1 1319:2 1361:2 1368:2 1370:1 1398:7
-1 551:1 631:1 1322:1 1368:1 1398:2
-1 146:1 247:1 328:1 415:1 458:1 461:1 480:1 503:1 528:1 640:1 729:1 746:1 789:1 793:1 852:1 938:1 949:1 1031:1 1035:1 1068:1 1076:1 1084:1 1098:1 1134:1 1158:1 1222:1 1236:1 1256:1 1257:1 1273:1 1284:1 1289:1 1310:1 1332:1 1391:1 1398:2
-1 551:1 631:1 1322:1 1368:1 1398:2
-1 551:1 631:1 1322:1 1368:1 1398:2
-1 551:1 631:1 1322:1 1368:1 1398:2
-1 551:1 631:1 1322:1 1368:1 1398:2
-1 175:1 623:1 631:1 715:1 829:1 849:1 1102:1 1230:1 1254:1 1314:1 1319:1 1329:1 1361:1 1368:1 1398:1
-1 288:1 623:1 631:1 1080:1 1102:1 1295:1 1319:1 1338:1 1361:1 1368:1 1398:1
-1 175:1 241:1 256:1 288:1 558:1 623:1 631:1 706:1 715:1 829:1 1057:1 1102:1 1125:1 1221:1 1230:1 1254:1 1274:1 1302:1 1314:1 1316:1 1319:1 1330:1 1338:1 1340:1 1361:1 1368:1 1398:1
-1 175:1 241:1 256:1 288:1 372:1 528:1 623:1 631:1 635:1 706:1 715:1 1021:1 1102:1 1221:1 1230:1 1254:1 1289:1 1302:1 1316:1 1319:1 1338:1 1361:1 1368:1 1370:1 1398:1
-1 175:1 241:1 623:1 631:1 706:1 715:1 1078:1 1102:1 1221:1 1230:1 1254:1 1302:1 1319:1 1361:1 1368:1 1398:1
-1 457:1 1252:1 1398:3
-1 457:1 1252:1 1398:3
-1 175:1 241:1 288:1 558:1 623:1 631:1 706:1 715:1 829:1 1102:1 1221:1 1230:1 1254:1 1302:1 1314:1 1319:1 1330:1 1338:1 1361:1 1368:1 1398:1
-1 129:1 146:1 336:1 415:1 421:1 503:1 505:1 528:1 623:1 631:1 682:1 717:1 729:1 852:1 853:1 1079:1 1102:1 1134:1 1222:1 1236:1 1273:1 1289:1 1294:1 1319:1 1332:1 1333:1 1358:1 1361:1 1368:1 1398:2
-1 288:1 528:1 631:1 829:1 1102:1 1289:1 1314:1 1319:1 1338:1 1368:1 1398:2
-1 711:1 1227:1 1398:1
-1 528:1 623:1 631:1 635:1 1021:1 1102:1 1289:1 1319:1 1361:1 1368:1 1370:1 1398:1
-1 457:1 1252:1 1398:3
-1 631:1 1102:1 1319:1 1368:1 1398:2
-1 175:1 241:1 288:1 623:1 631:1 635:1 636:1 706:1 715:1 758:1 829:1 1102:1 1221:1 1230:1 1254:1 1261:1 1302:1 1314:1 1319:1 1338:1 1361:1 1368:1 1370:1 1372:1 1398:1
-1 159:1 175:1 241:1 631:1 1020:1 1102:1 1245:1 1254:1 1302:1 1319:1 1368:1 1398:2
-1 159:1 175:1 241:1 631:1 1020:1 1102:1 1245:1 1254:1 1302:1 1319:1 1368:1 1398:2
-1 159:1 175:1 241:1 631:1 1020:1 1102:1 1245:1 1254:1 1302:1 1319:1 1368:1 1398:2
-1 159:1 175:1 241:1 631:1 1020:1 1102:1 1245:1 1254:1 1302:1 1319:1 1368:1 1398:2
-1 631:1 681:1 761:1 902:1 1264:1 1368:1 1398:3
-1 631:1 808:1 1368:1 1398:2
-1 457:1 1252:1 1398:4
-1 175:1 241:1 288:1 623:1 631:1 635:1 1102:1 1125:1 1254:1 1302:1 1319:1 1338:1 1340:1 1361:1 1368:1 1370:1 1398:3
-1 457:1 1252:1 1398:4
-1 711:1 1227:1 1398:1
-1 218:1 231:1 241:1 302:1 318:1 535:1 623:1 631:1 649:1 709:1 945:1 948:1 975:1 1018:1 1090:1 1180:1 1182:1 1218:1 1225:1 1248:1 1277:1 1288:1 1299:1 1302:1 1308:1 1352:1 1361:1 1368:1 1376:1 1379:1 1382:1 1388:1 1398:3 1400:8
-1 175:1 241:1 262:1 302:1 623:1 631:1 715:1 987:1 1102:1 1230:1 1254:1 1302:1 1318:1 1319:1 1361:1 1368:1 1398:1 1400:4
-1 711:1 1227:1 1398:1
-1 124:1 631:1 678:1 720:1 1036:1 1368:1 1398:3
-1 528:1 631:1 1289:1 1368:1 1398:3
-1 175:1 241:1 288:2 623:2 631:4 635:1 706:1 715:3 1102:2 1125:1 1175:1 1221:1 1230:3 1254:1 1302:1 1319:2 1338:2 1340:1 1361:2 1368:4 1370:1 1374:1 1398:6
-1 175:1 241:1 288:1 528:1 623:1 631:1 635:1 844:1 894:1 1041:1 1102:1 1125:1 1254:1 1289:1 1302:1 1319:1 1338:1 1340:1 1361:1 1368:1 1370:1 1398:2
-1 336:1 484:1 528:1 623:1 631:1 832:1 1102:1 1262:1 1289:1 1319:1 1320:1 1358:1 1361:1 1368:1 1398:3
-1 623:2 631:2 715:1 1102:2 1230:1 1319:2 1361:2 1368:2 1398:7
-1 129:1 146:1 148:1 156:1 175:1 198:1 226:1 228:1 245:1 247:1 269:1 274:1 288:1 294:1 297:1 321:1 336:1 355:1 373:1 392:1 395:1 402:1 415:1 437:1 461:1 480:1 503:1 510:1 514:1 526:1 528:1 539:1 540:1 583:1 631:1 632:1 646:1 694:1 713:1 715:1 716:1 724:1 729:1 746:1 770:1 773:1 789:1 792:1 812:1 826:1 829:1 832:1 838:1 852:1 864:1 901:1 938:1 940:1 949:1 967:1 988:1 1031:1 1035:1 1068:1 1076:1 1080:1 1084:1 1102:1 1115:1 1134:1 1156:1 1162:1 1174:1 1220:1 1222:1 1223:1 1228:1 1230:1 1231:1 1236:1 1238:1 1241:1 1254:1 1256:1 1257:1 1273:1 1276:1 1279:1 1284:1 1286:1 1289:1 1292:1 1295:1 1307:1 1310:1 1314:1 1319:1 1320:1 1326:1 1331:1 1332:1 1338:1 1342:1 1357:1 1358:1 1368:1 1373:1 1391:1 1397:1 1398:2
-1 175:1 623:1 631:1 681:1 761:1 902:1 1102:1 1175:1 1254:1 1264:1 1319:1 1361:1 1368:1 1374:1 1398:2
-1 457:1 1252:1 1398:3
-1 457:1 1252:1 1398:2
-1 457:1 1252:1 1398:3
-1 457:1 1252:1 1398:4
-1 457:1 1252:1 1398:2
-1 241:1 288:1 528:1 623:1 631:1 829:1 956:1 1102:1 1289:1 1302:1 1314:1 1319:1 1338:1 1361:1 1368:1 1398:2
-1 146:1 415:1 484:1 503:1 528:1 631:1 635:1 729:1 1102:1 1134:1 1222:1 1236:1 1262:1 1273:1 1289:1 1319:1 1368:1 1370:1 1398:2
-1 259:1 631:1 1102:1 1175:1 1317:1 1319:1 1368:1 1374:1 1398:2
-1 175:1 241:1 288:1 506:1 516:1 528:1 623:1 631:1 715:1 770:1 804:1 829:1 956:1 1042:1 1102:1 1230:1 1254:1 1285:1 1289:1 1302:1 1314:1 1319:1 1338:1 1361:1 1368:1 1398:1
-1 528:1 631:1 1079:1 1102:1 1289:1 1294:1 1319:1 1368:1 1398:5 1400:7
-1 457:1 1252:1 1398:4
-1 631:1 750:1 1368:1 1398:3
-1 631:1 1368:1 1398:2
-1 160:1 175:1 462:1 528:1 631:1 681:1 700:1 761:1 1102:1 1254:1 1264:1 1289:1 1319:1 1368:1 1398:2
-1 457:1 1252:1 1398:3
-1 457:1 1252:1 1398:3
-1 631:1 1102:1 1319:1 1368:1 1398:4
-1 203:1 528:2 631:1 1079:1 1289:2 1294:1 1368:1 1398:2
-1 528:2 631:1 1289:2 1368:1 1398:2
-1 175:1 241:1 288:1 528:1 631:1 635:1 706:1 829:1 1102:1 1221:1 1254:1 1289:1 1302:1 1314:1 1319:1 1338:1 1368:1 1370:1 1398:2
-1 528:1 631:1 706:1 1102:1 1221:1 1289:1 1319:1 1368:1 1398:2
-1 528:1 631:1 706:1 1102:1 1221:1 1289:1 1319:1 1368:1 1398:2
-1 175:1 528:1 631:1 706:1 1102:1 1221:1 1254:1 1289:1 1319:1 1368:1 1398:2
-1 336:1 528:1 631:1 933:1 1289:1 1358:1 1368:1 1398:2
-1 528:2 551:1 631:1 1125:1 1289:2 1322:1 1340:1 1368:1 1398:5
-1 457:1 1252:1 1398:3
-1 241:1 288:1 576:1 590:1 616:1 623:1 631:1 635:1 706:1 715:1 740:1 829:1 849:1 951:1 1079:1 1080:1 1102:1 1125:1 1221:1 1230:1 1294:1 1295:1 1302:1 1314:1 1319:1 1329:1 1338:1 1340:1 1359:1 1361:1 1368:1 1370:1 1392:1 1398:2
-1 241:1 288:1 528:1 631:1 715:1 1102:1 1230:1 1289:1 1302:1 1319:1 1338:1 1368:1 1398:3
-1 528:2 551:1 631:1 1289:2 1322:1 1368:1 1398:3
-1 631:1 876:1 1102:1 1319:1 1368:1 1398:3
-1 259:1 528:2 551:1 631:1 1102:1 1151:1 1289:2 1317:1 1319:1 1322:1 1368:1 1398:3
-1 259:1 528:2 631:1 800:1 1289:2 1317:1 1368:1 1398:2
-1 631:1 1368:1 1398:1
-1 241:1 252:1 288:1 528:1 623:1 631:1 635:1 715:1 1102:1 1230:1 1289:1 1302:1 1319:1 1338:1 1361:1 1368:1 1370:1 1398:1
-1 711:1 1227:1 1398:1
-1 457:1 1252:1 1398:3
-1 175:1 218:1 231:1 241:1 288:1 318:1 344:1 409:1 535:1 623:1 631:1 649:1 672:1 694:1 709:1 715:1 829:1 1102:1 1125:1 1180:1 1182:1 1220:1 1225:1 1230:1 1254:1 1277:1 1288:1 1299:1 1302:1 1314:1 1319:1 1338:1 1340:1 1352:1 1361:1 1363:1 1368:1 1376:1 1379:1 1382:1 1398:2
-1 288:1 528:1 631:1 720:1 943:1 1036:1 1102:1 1289:1 1319:1 1338:1 1368:1 1398:4
-1 175:1 241:1 336:1 457:1 528:1 631:1 635:1 758:1 829:1 864:1 1102:1 1252:1 1254:1 1261:1 1289:1 1302:1 1314:1 1319:1 1342:1 1358:1 1368:1 1370:1 1398:3
-1 457:1 1252:1 1398:3
-1 175:1 241:1 288:1 528:1 551:1 623:1 631:1 635:1 706:1 715:1 1102:1 1221:1 1230:1 1254:1 1289:1 1302:1 1319:1 1322:1 1338:1 1361:1 1368:1 1370:1 1398:4
-1 457:1 1252:1 1398:3
-1 175:1 241:1 288:1 558:1 623:1 631:1 635:1 706:1 715:1 829:1 1079:1 1102:1 1116:1 1175:1 1183:1 1221:1 1230:1 1254:1 1294:1 1302:1 1314:1 1319:1 1330:1 1338:1 1361:1 1368:1 1370:1 1374:1 1381:1 1398:2
-1 631:1 750:1 1102:1 1319:1 1368:1 1398:3
-1 175:1 241:1 288:1 623:1 631:1 710:1 715:1 829:1 1079:1 1102:1 1226:1 1230:1 1254:1 1294:1 1302:1 1314:1 1319:1 1338:1 1361:1 1368:1 1398:4
-1 175:1 241:1 288:1 623:1 631:1 635:1 1102:1 1254:1 1302:1 1319:1 1338:1 1361:1 1368:1 1370:1 1398:2
-1 175:1 241:1 288:1 368:1 528:1 551:1 623:1 631:1 635:1 706:1 710:1 713:1 715:1 853:1 911:1 1079:1 1102:1 1175:1 1221:1 1226:1 1228:1 1230:1 1254:1 1289:1 1294:1 1302:1 1319:1 1322:1 1333:1 1338:1 1361:1 1362:1 1368:1 1370:1 1374:1 1386:1 1398:5
-1 623:1 631:1 1079:1 1102:1 1125:1 1294:1 1319:1 1340:1 1361:1 1368:1 1398:1
-1 175:1 241:1 288:1 623:1 631:1 635:1 715:1 722:1 758:1 829:1 1079:1 1102:1 1125:1 1230:1 1239:1 1254:1 1261:1 1294:1 1302:1 1314:1 1319:1 1338:1 1340:1 1361:1 1368:1 1370:1 1398:2
-1 175:1 241:1 288:1 615:1 623:2 631:5 635:1 681:1 706:1 715:3 761:1 966:1 1023:1 1102:2 1125:1 1221:1 1230:3 1254:1 1264:1 1302:1 1319:2 1338:1 1340:1 1361:2 1368:5 1370:1 1398:6
-1 336:1 528:1 631:1 933:1 1289:1 1358:1 1368:1 1398:2
-1 288:1 528:1 631:1 1102:1 1289:1 1319:1 1338:1 1368:1 1398:3
-1 146:1 336:1 339:1 373:1 415:1 430:1 503:1 528:1 729:1 789:1 852:1 938:1 1006:1 1027:1 1031:1 1068:1 1076:1 1084:1 1098:1 1134:1 1144:1 1222:1 1236:1 1243:1 1257:1 1273:1 1284:1 1289:1 1332:1 1348:1 1358:1 1398:2
-1 175:1 241:1 623:1 631:1 635:1 1102:1 1254:1 1302:1 1319:1 1361:1 1368:1 1370:1 1398:1 1400:5
-1 146:1 373:1 415:1 478:1 503:1 528:1 729:1 789:1 852:1 938:1 949:1 1079:1 1084:1 1098:1 1134:1 1162:1 1222:1 1236:1 1260:1 1273:1 1289:1 1294:1 1332:1 1357:1 1391:1 1398:2
-1 288:1 528:1 623:1 631:1 1102:1 1289:1 1319:1 1338:1 1361:1 1368:1 1398:3
-1 218:1 231:1 318:1 512:1 535:1 623:1 631:1 649:1 709:1 935:1 1180:1 1182:1 1225:1 1277:1 1280:1 1288:1 1299:1 1352:1 1361:1 1368:1 1376:1 1379:1 1382:1 1398:4 1400:36
-1 288:1 528:1 631:1 635:1 715:1 1102:1 1230:1 1289:1 1319:1 1338:1 1368:1 1370:1 1398:4
-1 146:1 415:1 503:1 528:1 631:1 729:1 770:1 852:1 1134:1 1222:1 1236:1 1273:1 1289:1 1332:1 1368:1 1398:3
-1 457:1 1252:1 1398:3
-1 528:2 631:1 1289:2 1368:1 1398:2
-1 241:1 528:1 631:1 832:1 1102:1 1289:1 1302:1 1319:1 1320:1 1368:1 1398:2
-1 175:1 241:1 288:1 623:1 631:1 864:1 1102:1 1254:1 1302:1 1319:1 1338:1 1342:1 1361:1 1368:1 1398:2
-1 175:1 241:1 288:1 623:1 631:1 715:1 1102:1 1230:1 1254:1 1302:1 1319:1 1338:1 1361:1 1368:1 1398:2
-1 175:1 241:1 288:1 623:1 631:1 715:1 1102:1 1230:1 1254:1 1302:1 1319:1 1338:1 1361:1 1368:1 1398:2
-1 631:1 1368:1 1398:3
-1 175:1 241:1 288:1 336:1 528:1 607:1 623:1 631:1 635:1 715:1 758:1 829:1 864:1 1102:1 1230:1 1254:1 1261:1 1289:1 1302:1 1314:1 1319:1 1338:1 1342:1 1358:1 1361:1 1368:1 1370:1 1398:1
-1 711:1 1227:1 1398:1
-1 241:1 631:1 715:1 1102:1 1125:1 1230:1 1302:1 1319:1 1340:1 1368:1 1398:2
-1 146:1 295:1 318:1 373:1 415:1 461:1 503:1 630:1 649:1 729:1 766:1 789:1 938:1 940:1 949:1 1068:1 1084:1 1098:1 1134:1 1162:1 1222:1 1236:1 1273:1 1284:1 1341:1 1352:1 1357:1 1382:1 1391:1 1398:1
-1 241:1 528:1 623:1 631:1 715:1 871:1 1041:1 1102:1 1230:1 1289:1 1302:1 1319:1 1345:1 1361:1 1368:1 1398:2 1400:5
-1 175:1 241:1 623:1 631:1 635:1 715:1 1102:1 1125:1 1230:1 1254:1 1302:1 1319:1 1340:1 1361:1 1368:1 1370:1 1398:5
-1 175:1 288:1 528:2 631:1 1102:1 1175:1 1254:1 1289:2 1319:1 1338:1 1368:1 1374:1 1398:2 1400:116
-1 528:1 631:1 1102:1 1125:1 1175:1 1289:1 1319:1 1340:1 1368:1 1374:1 1398:3
-1 623:2 631:2 635:1 715:1 1102:2 1230:1 1319:2 1361:2 1368:2 1370:1 1398:7
-1 175:1 241:1 288:1 623:1 631:1 635:1 1102:1 1125:1 1254:1 1302:1 1319:1 1338:1 1340:1 1361:1 1368:1 1370:1 1398:3
-1 146:1 288:1 336:1 395:1 415:1 437:1 503:1 528:1 539:1 623:1 631:1 715:1 729:1 832:1 852:1 1134:1 1222:1 1230:1 1236:1 1241:1 1273:1 1289:1 1307:1 1320:1 1332:1 1338:1 1358:1 1361:1 1368:1 1398:2
-1 146:1 241:1 395:1 415:1 461:1 503:1 528:1 631:1 729:1 852:1 1068:1 1084:1 1102:1 1134:1 1222:1 1236:1 1273:1 1284:1 1289:1 1302:1 1319:1 1332:1 1368:1 1398:3
-1 336:1 528:1 631:1 1289:1 1358:1 1368:1 1398:1
-1 175:1 623:2 631:4 635:1 681:2 706:1 715:2 761:3 1102:2 1125:1 1221:1 1230:2 1254:1 1264:3 1319:2 1340:1 1361:2 1368:4 1370:1 1398:6
-1 146:1 175:1 395:1 415:1 461:1 503:1 528:1 623:1 631:1 706:1 729:1 829:1 852:1 1084:1 1102:1 1134:1 1221:1 1222:1 1236:1 1254:1 1273:1 1289:1 1314:1 1319:1 1332:1 1361:1 1368:1 1398:3
-1 336:1 528:1 631:1 829:1 1079:1 1102:1 1125:1 1289:1 1294:1 1314:1 1319:1 1340:1 1358:1 1368:1 1398:2
-1 126:1 175:1 210:1 229:1 241:1 246:1 288:1 344:1 551:1 610:1 623:1 631:1 635:1 706:1 715:1 829:1 1079:1 1081:1 1102:1 1175:1 1221:1 1230:1 1254:1 1294:1 1302:1 1314:1 1319:1 1322:1 1338:1 1361:1 1363:1 1368:1 1370:1 1374:1 1398:2 1400:368
-1 175:1 631:1 1102:1 1125:1 1175:1 1254:1 1319:1 1340:1 1368:1 1374:1 1398:2
-1 396:1 801:1 1398:2
-1 288:1 528:2 631:1 1289:2 1338:1 1368:1 1398:2
-1 631:1 1079:1 1294:1 1368:1 1398:2
-1 631:1 1368:1 1398:2
-1 169:1 175:1 241:1 623:2 631:5 635:1 706:1 715:3 1102:2 1125:1 1221:1 1230:3 1254:1 1302:1 1319:2 1340:1 1361:2 1368:5 1370:1 1398:6
-1 175:1 623:1 631:1 706:1 1102:1 1221:1 1254:1 1319:1 1361:1 1368:1 1398:4
-1 175:1 241:1 288:1 631:1 635:1 678:1 706:1 1079:1 1102:1 1221:1 1254:1 1294:1 1302:1 1319:1 1338:1 1368:1 1370:1 1398:2
-1 631:1 678:1 918:1 1368:1 1398:2
-1 631:1 678:1 918:1 1368:1 1398:2
-1 631:1 1368:1 1398:3
-1 431:1 528:2 631:1 681:1 761:1 918:1 1264:1 1289:2 1368:1 1398:2
-1 175:1 202:1 241:1 288:1 306:1 317:1 336:1 528:1 623:1 631:1 635:1 715:1 758:1 795:1 815:1 829:1 849:1 1057:1 1083:1 1102:1 1175:1 1230:1 1254:1 1261:1 1274:1 1289:1 1297:1 1298:1 1302:1 1314:1 1319:1 1329:1 1338:1 1347:1 1354:1 1358:1 1361:1 1368:1 1370:1 1374:1 1398:2
-1 175:1 241:1 288:1 344:1 616:1 623:1 631:1 635:1 706:1 715:1 728:1 829:1 832:1 849:1 853:1 1079:1 1102:1 1150:1 1175:1 1221:1 1230:1 1244:1 1254:1 1294:1 1302:1 1314:1 1319:1 1320:1 1329:1 1333:1 1338:1 1350:1 1359:1 1361:1 1363:1 1368:1 1370:1 1374:1 1398:3
-1 175:1 241:1 288:1 344:1 616:1 623:1 631:1 635:1 706:1 715:1 832:1 853:1 1102:1 1150:1 1175:1 1221:1 1230:1 1254:1 1302:1 1319:1 1320:1 1333:1 1338:1 1350:1 1359:1 1361:1 1363:1 1368:1 1370:1 1374:1 1398:2
-1 242:1 528:1 631:1 890:1 1102:1 1289:1 1319:1 1368:1 1398:7
-1 175:1 288:1 528:2 631:1 681:1 706:1 761:1 1102:1 1175:1 1221:1 1254:1 1264:1 1289:2 1319:1 1338:1 1368:1 1374:1 1398:2 1400:112
-1 175:1 241:1 288:1 623:2 631:5 635:1 706:1 715:2 1102:3 1125:1 1221:1 1230:2 1254:1 1302:1 1319:3 1338:1 1340:1 1361:2 1368:5 1370:1 1398:6
-1 623:3 631:4 635:1 715:1 1102:2 1230:1 1319:2 1361:3 1368:4 1370:1 1398:4
-1 288:1 443:1 528:2 551:1 612:1 631:1 763:1 1102:1 1289:2 1319:1 1322:1 1338:1 1368:1 1398:2
-1 528:2 623:1 631:1 1289:2 1361:1 1368:1 1398:3
-1 623:1 631:1 722:1 1073:1 1078:1 1079:1 1239:1 1294:1 1361:1 1368:1 1398:2
-1 180:1 288:1 528:1 631:1 681:1 702:1 761:1 844:1 1264:1 1289:1 1338:1 1368:1 1398:2
-1 314:1 395:1 528:1 623:1 631:1 635:1 933:1 1102:1 1289:1 1319:1 1361:1 1368:1 1370:1 1398:2
-1 711:1 1227:1 1398:1
-1 175:1 241:1 288:1 478:1 528:1 623:1 631:1 635:1 706:1 710:1 829:1 832:1 1079:1 1102:1 1221:1 1226:1 1254:1 1260:1 1289:1 1294:1 1302:1 1314:1 1319:1 1320:1 1338:1 1361:1 1368:1 1370:1 1398:1
-1 146:1 198:1 274:1 336:1 339:1 373:1 395:1 411:1 415:1 480:1 503:1 528:1 632:1 640:1 729:1 746:1 789:1 826:1 852:1 858:1 938:1 940:1 949:1 1034:1 1035:1 1068:1 1076:1 1084:1 1098:1 1134:1 1144:1 1162:1 1222:1 1236:1 1256:1 1273:1 1284:1 1289:1 1326:1 1332:1 1334:1 1348:1 1357:1 1358:1 1391:1 1398:2
-1 528:1 631:1 1079:1 1102:1 1289:1 1294:1 1319:1 1368:1 1398:2
-1 258:1 279:1 631:1 641:1 1113:1 1136:1 1368:1 1398:3
-1 528:2 551:1 631:1 1125:1 1289:2 1322:1 1340:1 1368:1 1398:4
-1 129:1 146:1 274:1 336:1 373:1 415:1 478:1 503:1 528:1 640:1 729:1 789:1 852:1 938:1 949:1 1035:1 1068:1 1079:1 1084:1 1098:1 1134:1 1162:1 1222:1 1236:1 1260:1 1273:1 1284:1 1289:1 1294:1 1326:1 1332:1 1357:1 1358:1 1391:1 1398:1
-1 175:1 631:1 1102:1 1254:1 1319:1 1368:1 1398:2
-1 175:1 631:1 706:1 1102:1 1175:1 1221:1 1254:1 1319:1 1368:1 1374:1 1398:2
-1 175:1 513:1 631:1 681:1 706:1 761:1 1102:1 1221:1 1254:1 1264:1 1319:1 1368:1 1398:2
-1 175:1 241:1 288:1 558:1 623:1 631:1 635:1 706:1 715:1 755:1 829:1 853:1 947:1 1102:1 1221:1 1230:1 1254:1 1302:1 1314:1 1319:1 1330:1 1333:1 1338:1 1361:1 1368:1 1370:1 1398:2
-1 175:1 241:1 288:1 558:1 623:1 631:1 635:1 706:1 715:1 829:1 1102:1 1221:1 1230:1 1254:1 1302:1 1314:1 1319:1 1330:1 1338:1 1361:1 1368:1 1370:1 1398:1
-1 175:1 241:1 288:1 504:1 558:1 602:1 623:1 631:1 635:1 706:1 715:1 829:1 947:1 1102:1 1221:1 1230:1 1254:1 1302:1 1314:1 1319:1 1330:1 1338:1 1361:1 1368:1 1370:1 1398:1
-1 175:1 241:1 288:1 342:1 504:1 558:1 581:1 602:1 623:1 631:1 635:1 706:1 715:1 822:1 829:1 942:1 947:1 1102:1 1221:1 1230:1 1254:1 1302:1 1314:1 1319:1 1330:1 1338:1 1361:1 1368:1 1370:1 1398:1 1400:21
-1 175:1 241:1 288:1 558:1 623:1 631:1 635:1 706:1 715:1 737:1 829:1 1102:1 1221:1 1230:1 1254:1 1302:1 1314:1 1319:1 1330:1 1338:1 1361:1 1368:1 1370:1 1398:1
-1 175:1 241:1 558:1 623:1 631:1 635:1 706:1 715:1 829:1 942:1 1102:1 1221:1 1230:1 1254:1 1302:1 1314:1 1319:1 1330:1 1361:1 1368:1 1370:1 1398:1
-1 623:2 631:2 635:1 715:1 1102:2 1230:1 1319:2 1361:2 1368:2 1370:1 1398:7
-1 175:1 288:1 395:1 522:1 528:1 623:1 631:1 635:1 1102:1 1254:1 1289:1 1319:1 1338:1 1361:1 1368:1 1370:1 1398:2 1400:39
-1 288:1 522:1 528:1 623:1 631:1 635:1 1102:1 1289:1 1319:1 1338:1 1361:1 1368:1 1370:1 1398:2 1400:39
-1 623:2 631:2 635:1 715:1 1102:2 1230:1 1319:2 1361:2 1368:2 1370:1 1398:6
-1 175:1 288:1 528:1 623:1 631:1 706:1 1021:1 1102:1 1221:1 1254:1 1289:1 1319:1 1338:1 1361:1 1368:1 1398:1
-1 175:1 241:1 288:1 336:1 340:1 508:1 528:1 543:1 623:1 631:1 713:1 715:1 829:1 832:1 1102:1 1125:1 1228:1 1230:1 1254:1 1289:1 1302:1 1314:1 1319:1 1320:1 1338:1 1340:1 1358:1 1361:1 1368:1 1398:2
-1 528:1 623:1 631:1 703:1 1289:1 1361:1 1368:1 1398:2
-1 631:1 678:1 1096:1 1102:1 1319:1 1368:1 1398:2
-1 528:2 631:1 1289:2 1368:1 1398:2
-1 175:1 241:1 288:1 623:1 631:1 635:1 1102:1 1125:1 1254:1 1302:1 1319:1 1338:1 1340:1 1361:1 1368:1 1370:1 1398:3
-1 146:1 241:1 272:1 295:1 318:1 415:1 437:1 461:1 503:1 539:1 623:1 630:1 631:1 715:1 729:1 807:1 832:1 1134:1 1196:1 1222:1 1230:1 1236:1 1241:1 1273:1 1287:1 1302:1 1307:1 1320:1 1325:1 1341:1 1352:1 1361:1 1368:1 1398:1
-1 175:1 462:1 528:2 631:1 681:1 761:1 985:1 1102:1 1254:1 1264:1 1289:2 1319:1 1368:1 1398:2
-1 175:1 241:1 256:1 288:1 538:1 551:1 623:1 631:1 715:1 761:1 829:1 996:1 1079:1 1102:1 1125:1 1175:1 1230:1 1234:1 1254:1 1264:1 1294:1 1302:1 1306:1 1314:1 1316:1 1319:1 1322:1 1338:1 1340:1 1361:1 1368:1 1374:1 1398:2 1400:5
-1 288:1 528:1 623:1 631:1 1102:1 1289:1 1319:1 1338:1 1361:1 1368:1 1398:3
-1 711:1 1227:1 1398:1
-1 175:1 462:1 528:2 631:1 681:1 761:1 1102:1 1254:1 1264:1 1289:2 1319:1 1368:1 1398:2
-1 145:1 146:1 175:1 239:1 257:1 288:1 294:1 295:1 318:1 336:1 395:1 415:1 437:1 461:1 496:1 503:1 506:1 516:1 539:1 623:1 630:1 631:1 635:1 649:1 694:1 715:1 725:1 729:1 758:1 777:1 829:1 832:1 852:1 864:1 946:1 975:1 1100:1 1102:1 1115:1 1134:1 1218:1 1220:1 1222:1 1230:1 1236:1 1237:1 1241:1 1242:1 1254:1 1261:1 1270:1 1273:1 1304:1 1307:1 1314:1 1319:1 1320:1 1331:1 1332:1 1338:1 1341:1 1342:1 1352:1 1358:1 1361:1 1368:1 1370:1 1382:1 1389:1 1398:2
-1 175:1 241:1 288:1 623:2 631:5 635:1 636:1 715:2 736:1 1102:2 1125:1 1230:2 1254:1 1302:1 1319:2 1338:1 1340:1 1361:2 1368:5 1370:1 1372:1 1398:6
-1 306:1 528:1 631:1 635:1 706:1 1102:1 1221:1 1289:1 1319:1 1347:1 1368:1 1370:1 1398:1
-1 457:1 1252:1 1398:3
-1 457:1 1252:1 1398:2
-1 175:1 241:1 288:1 623:1 631:1 635:1 1102:1 1125:1 1254:1 1302:1 1319:1 1338:1 1340:1 1361:1 1368:1 1370:1 1398:3
-1 241:1 336:1 453:1 528:1 623:1 631:1 715:1 832:1 1230:1 1251:1 1289:1 1302:1 1320:1 1358:1 1361:1 1368:1 1398:2
-1 711:1 1227:1 1398:1
-1 200:1 416:1 528:1 631:1 844:1 1041:1 1102:1 1289:1 1319:1 1368:1 1398:2
-1 528:1 631:1 1289:1 1368:1 1398:6
-1 528:2 631:1 1289:2 1368:1 1398:2
-1 528:1 631:1 1289:1 1368:1 1398:5
-1 528:2 631:1 1289:2 1368:1 1398:3
-1 528:2 623:1 631:1 700:1 1079:1 1102:1 1289:2 1294:1 1319:1 1361:1 1368:1 1398:4
-1 528:2 631:1 1079:1 1289:2 1294:1 1368:1 1398:4
-1 479:1 528:1 631:1 781:1 1289:1 1368:1 1398:3
-1 175:1 241:1 288:1 558:1 623:1 631:1 635:1 706:1 715:1 829:1 1020:1 1102:1 1175:1 1183:1 1221:1 1230:1 1254:1 1302:1 1314:1 1319:1 1330:1 1338:1 1361:1 1368:1 1370:1 1374:1 1381:1 1398:2
-1 175:1 241:1 288:1 623:1 631:1 635:1 636:1 706:1 715:1 1102:1 1125:1 1221:1 1230:1 1254:1 1302:1 1319:1 1338:1 1340:1 1361:1 1368:1 1370:1 1372:1 1398:5
-1 175:1 288:1 623:1 631:1 635:1 715:1 1102:1 1125:1 1230:1 1254:1 1319:1 1338:1 1340:1 1361:1 1368:1 1370:1 1398:4
-1 175:1 241:1 288:1 623:1 631:1 635:1 636:1 706:1 715:1 853:1 1102:1 1125:1 1175:1 1221:1 1230:1 1254:1 1302:1 1319:1 1333:1 1338:1 1340:1 1361:1 1368:1 1370:1 1372:1 1374:1 1398:5
-1 175:1 241:1 288:1 528:2 623:1 631:1 635:1 706:1 715:1 1093:1 1102:1 1221:1 1230:1 1254:1 1289:2 1302:1 1313:1 1319:1 1338:1 1361:1 1368:1 1370:1 1398:4
-1 241:1 631:1 1302:1 1368:1 1398:2
-1 204:1 359:1 374:1 391:1 400:1 412:1 434:1 631:1 741:1 879:1 1165:1 1368:1 1398:1 1400:75
-1 138:1 146:1 257:1 274:1 336:1 373:1 395:1 415:1 495:1 503:1 528:1 541:1 570:1 583:1 713:1 715:1 717:1 729:1 789:1 812:1 832:1 852:1 882:1 924:1 938:1 949:1 1027:1 1035:1 1064:1 1068:1 1076:1 1077:1 1084:1 1134:1 1162:1 1222:1 1228:1 1230:1 1236:1 1269:1 1273:1 1284:1 1289:1 1292:1 1309:1 1320:1 1326:1 1332:1 1339:1 1357:1 1358:1 1391:1 1398:2
-1 631:1 1368:1 1398:2
-1 447:1 631:1 754:1 759:1 1102:1 1319:1 1368:1 1398:3
-1 175:1 241:1 288:1 623:1 631:1 635:1 1102:1 1125:1 1254:1 1302:1 1319:1 1338:1 1340:1 1361:1 1368:1 1370:1 1398:2
-1 528:1 631:1 1289:1 1368:1 1398:1
-1 457:1 1252:1 1398:3
-1 175:1 241:1 558:1 623:1 631:1 635:1 706:1 715:1 1102:1 1183:1 1221:1 1230:1 1254:1 1302:1 1319:1 1330:1 1361:1 1368:1 1370:1 1381:1 1398:2
-1 241:1 631:1 758:1 1078:1 1102:1 1139:1 1261:1 1302:1 1319:1 1368:1 1398:1
-1 631:1 1102:1 1319:1 1368:1 1398:3
-1 129:1 146:1 336:1 338:1 395:1 415:1 421:1 503:1 505:1 528:1 631:1 653:1 682:1 715:1 717:1 729:1 852:1 853:1 949:1 1006:1 1079:1 1102:1 1134:1 1222:1 1230:1 1236:1 1243:1 1273:1 1289:1 1294:1 1319:1 1332:1 1333:1 1358:1 1368:1 1391:1 1398:2
-1 551:1 623:1 631:1 1102:1 1319:1 1322:1 1361:1 1368:1 1398:2
-1 631:1 1368:1 1398:2
-1 528:2 631:1 1289:2 1368:1 1398:2
-1 457:1 1252:1 1398:3
-1 366:1 388:1 631:1 761:1 918:1 1019:1 1032:1 1074:1 1094:1 1264:1 1368:1 1398:2
-1 175:1 256:1 288:1 528:1 623:1 631:1 635:1 706:1 1102:1 1221:1 1254:1 1289:1 1316:1 1319:1 1338:1 1361:1 1368:1 1370:1 1398:4
-1 175:1 241:1 288:1 623:1 631:1 635:1 1102:1 1125:1 1254:1 1302:1 1319:1 1338:1 1340:1 1361:1 1368:1 1370:1 1398:3
-1 120:1 128:1 139:1 181:1 220:1 250:1 264:1 329:1 330:1 389:1 413:1 528:1 631:1 664:1 697:1 781:1 803:1 955:1 989:1 998:1 1071:1 1102:1 1159:1 1195:1 1198:1 1204:1 1289:1 1319:1 1368:1 1398:6
-1 120:1 128:1 139:1 181:1 220:1 250:1 264:1 329:1 413:1 528:1 631:1 697:1 781:1 803:1 955:1 989:1 998:1 1071:1 1102:1 1159:1 1195:1 1198:1 1204:1 1289:1 1319:1 1368:1 1398:6
-1 175:1 241:1 288:1 623:1 631:1 635:1 1102:1 1125:1 1254:1 1302:1 1319:1 1338:1 1340:1 1361:1 1368:1 1370:1 1398:3
-1 623:2 631:2 635:1 715:1 1102:2 1230:1 1319:2 1361:2 1368:2 1370:1 1398:7
-1 457:1 1252:1 1398:4
-1 159:1 175:1 241:1 306:1 528:1 559:1 631:1 1102:1 1175:1 1245:1 1254:1 1289:1 1302:1 1319:1 1347:1 1368:1 1374:1 1398:4
-1 175:1 241:1 288:1 623:1 631:1 635:1 1102:1 1125:1 1254:1 1302:1 1319:1 1338:1 1340:1 1361:1 1368:1 1370:1 1398:3
-1 125:1 160:1 195:1 431:1 513:1 631:1 681:1 761:1 805:1 855:1 918:1 1210:1 1264:1 1368:1 1398:1
-1 528:2 631:1 1289:2 1368:1 1398:5 1400:73
-1 175:1 551:1 631:1 635:1 761:1 1102:1 1175:1 1254:1 1264:1 1319:1 1322:1 1368:1 1370:1 1374:1 1398:2
-1 175:1 447:1 531:1 631:1 681:1 754:1 759:1 761:1 1102:1 1254:1 1264:1 1319:1 1368:1 1398:2
-1 149:1 631:1 1368:1 1398:2
-1 241:1 356:1 608:1 631:1 681:1 761:1 902:1 1102:1 1264:1 1302:1 1319:1 1368:1 1398:3
-1 528:1 631:1 1289:1 1368:1 1398:2
-1 457:1 1252:1 1398:3
-1 623:2 631:2 635:1 715:1 1102:2 1230:1 1319:2 1361:2 1368:2 1370:1 1398:7
-1 648:1 1398:1
-1 175:1 288:1 623:1 631:1 1102:1 1254:1 1319:1 1338:1 1361:1 1368:1 1398:3
-1 175:1 262:1 288:1 617:1 631:1 635:1 636:1 706:1 1075:1 1102:1 1221:1 1254:1 1318:1 1319:1 1338:1 1360:1 1368:1 1370:1 1372:1 1398:1
-1 241:1 288:1 623:1 631:1 829:1 832:1 911:1 1080:1 1102:1 1125:1 1295:1 1302:1 1314:1 1319:1 1320:1 1338:1 1340:1 1361:1 1362:1 1368:1 1398:1
-1 631:1 829:1 1314:1 1368:1 1398:1
-1 241:1 288:1 631:1 829:1 1102:1 1302:1 1314:1 1319:1 1338:1 1368:1 1398:3
-1 711:1 1227:1 1398:1
-1 175:1 259:1 271:1 288:2 623:2 631:4 635:1 706:1 715:2 1102:2 1125:1 1175:1 1221:1 1230:2 1254:1 1317:1 1319:2 1324:1 1338:2 1340:1 1361:2 1368:4 1370:1 1374:1 1398:6
-1 129:1 146:1 148:1 223:1 338:1 395:1 415:1 421:1 503:1 528:1 623:1 631:1 682:1 715:1 717:1 729:1 789:1 852:1 853:1 938:1 1079:1 1083:1 1084:1 1098:1 1102:1 1126:1 1134:1 1162:1 1168:1 1222:1 1230:1 1236:1 1238:1 1273:1 1282:1 1289:1 1294:1 1298:1 1319:1 1332:1 1333:1 1357:1 1361:1 1368:1 1398:1
-1 528:1 631:1 1102:1 1289:1 1319:1 1368:1 1398:5
-1 146:1 274:1 336:1 373:1 382:1 415:1 461:1 503:1 528:1 729:1 789:1 852:1 940:1 949:1 1068:1 1084:1 1102:1 1134:1 1162:1 1222:1 1236:1 1273:1 1284:1 1289:1 1319:1 1326:1 1332:1 1357:1 1358:1 1391:1 1396:1 1398:1
-1 175:1 241:5 259:1 271:1 288:2 623:2 631:4 635:1 706:1 715:3 1102:2 1125:1 1221:1 1230:3 1254:1 1302:5 1317:1 1319:2 1324:1 1338:2 1340:1 1361:2 1368:4 1370:1 1398:7
-1 175:1 241:1 288:1 528:2 623:1 631:1 635:1 706:1 715:1 761:1 943:1 1102:1 1221:1 1230:1 1254:1 1264:1 1289:2 1302:1 1319:1 1338:1 1361:1 1368:1 1370:1 1398:2
-1 146:1 336:1 415:1 492:1 503:1 528:1 623:1 631:1 729:1 839:1 1080:1 1102:1 1134:1 1222:1 1236:1 1273:1 1289:1 1295:1 1319:1 1323:1 1358:1 1361:1 1368:1 1398:1
-1 288:1 623:1 631:1 635:1 829:1 1079:1 1102:1 1294:1 1314:1 1319:1 1338:1 1361:1 1368:1 1370:1 1398:2
-1 457:1 1252:1 1398:3
-1 118:1 124:1 175:1 288:1 631:1 635:1 678:1 681:1 761:1 855:1 902:1 918:1 1102:1 1175:1 1254:1 1264:1 1319:1 1338:1 1368:1 1370:1 1374:1 1398:2
-1 175:1 241:1 288:1 528:1 623:1 631:1 635:1 706:1 715:1 1023:1 1041:1 1102:1 1125:1 1221:1 1230:1 1254:1 1289:1 1302:1 1319:1 1338:1 1340:1 1361:1 1368:1 1370:1 1398:1
-1 432:1 528:1 631:1 720:1 1036:1 1289:1 1368:1 1398:3
-1 175:1 241:1 256:1 288:1 405:1 558:1 623:1 631:1 635:1 636:1 706:1 715:1 758:1 829:1 914:1 1023:1 1057:1 1079:1 1102:1 1125:1 1175:1 1221:1 1230:1 1254:1 1261:1 1274:1 1294:1 1302:1 1314:1 1316:1 1319:1 1330:1 1338:1 1340:1 1361:1 1368:1 1370:1 1372:1 1374:1 1398:4
-1 528:1 631:1 720:1 943:1 1007:1 1036:1 1289:1 1368:1 1398:4
-1 631:1 1368:1 1398:1
-1 175:1 631:1 1102:1 1254:1 1319:1 1368:1 1398:1
-1 175:1 288:1 623:1 631:1 715:1 805:1 1037:1 1102:1 1210:1 1230:1 1254:1 1319:1 1338:1 1361:1 1368:1 1398:1
-1 623:2 631:2 635:1 715:1 1102:2 1230:1 1319:2 1361:2 1368:2 1370:1 1398:7
-1 175:1 241:1 256:1 262:1 288:1 484:1 617:1 623:1 631:1 636:1 701:1 715:1 758:1 829:1 849:1 864:1 1055:1 1102:1 1230:1 1254:1 1261:1 1262:1 1302:1 1314:1 1316:1 1318:1 1319:1 1329:1 1338:1 1342:1 1360:1 1361:1 1368:1 1372:1 1398:1 1400:44
-1 175:1 241:1 262:1 288:1 623:1 631:1 715:1 829:1 832:1 1055:1 1102:1 1230:1 1254:1 1302:1 1314:1 1318:1 1319:1 1320:1 1338:1 1361:1 1368:1 1398:2 1400:1
-1 146:1 256:1 288:1 395:1 415:1 503:1 528:1 623:1 631:1 635:1 729:1 829:1 852:1 1102:1 1134:1 1222:1 1236:1 1273:1 1289:1 1314:1 1316:1 1319:1 1332:1 1338:1 1361:1 1368:1 1370:1 1398:2
-1 175:1 288:1 528:1 623:1 631:1 681:1 702:1 761:1 844:1 1041:1 1102:1 1175:1 1254:1 1264:1 1289:1 1319:1 1338:1 1361:1 1368:1 1374:1 1398:2 1400:92
-1 175:1 241:1 288:1 631:1 635:1 715:1 1102:1 1125:1 1230:1 1254:1 1302:1 1319:1 1338:1 1340:1 1368:1 1370:1 1398:5
-1 457:1 1252:1 1398:4
-1 528:2 631:1 781:1 1289:2 1368:1 1398:3
-1 528:2 631:1 781:1 1289:2 1368:1 1398:3
-1 175:1 288:1 623:1 631:1 1102:1 1254:1 1319:1 1338:1 1361:1 1368:1 1398:2
-1 267:1 460:1 528:2 631:1 720:1 721:1 943:1 1036:1 1289:2 1368:1 1398:2
-1 479:1 528:1 631:1 664:1 781:1 1159:1 1289:1 1368:1 1398:3 1400:6
-1 528:1 631:1 664:1 989:1 1289:1 1368:1 1398:3
-1 175:1 241:1 623:2 631:6 635:1 636:1 706:1 715:3 1102:2 1125:1 1221:1 1230:3 1254:1 1302:1 1319:2 1340:1 1361:2 1368:6 1370:1 1372:1 1398:6
-1 528:1 631:1 794:1 821:1 1022:1 1289:1 1368:1 1398:3
-1 457:1 1252:1 1398:3
-1 175:1 241:2 288:1 379:1 623:2 631:4 635:1 636:1 706:1 715:2 853:1 1000:1 1072:1 1102:2 1125:1 1221:1 1230:2 1254:1 1302:2 1319:2 1333:1 1338:1 1340:1 1361:2 1368:4 1370:1 1372:1 1398:5
-1 457:1 1252:1 1398:4
-1 118:1 124:1 175:1 288:1 623:1 631:1 635:1 678:1 1102:1 1201:1 1254:1 1319:1 1338:1 1361:1 1368:1 1370:1 1398:2
-1 175:1 241:1 288:1 528:1 551:1 623:1 631:1 635:1 706:1 1102:1 1125:1 1221:1 1254:1 1289:1 1302:1 1319:1 1322:1 1338:1 1340:1 1361:1 1368:1 1370:1 1398:4
-1 175:1 241:1 288:1 623:1 631:1 635:1 1102:1 1125:1 1254:1 1302:1 1319:1 1338:1 1340:1 1361:1 1368:1 1370:1 1398:3
-1 631:1 1368:1 1398:3
-1 175:1 241:1 288:1 551:1 558:1 623:1 631:1 635:1 706:1 1102:1 1175:1 1221:1 1254:1 1302:1 1319:1 1322:1 1330:1 1338:1 1361:1 1368:1 1370:1 1374:1 1398:2
-1 631:1 1368:1 1398:3 1400:1
-1 175:1 288:1 623:1 631:1 1102:1 1254:1 1319:1 1338:1 1361:1 1368:1 1398:2
-1 336:1 528:1 631:1 1289:1 1358:1 1368:1 1398:2
-1 631:1 1368:1 1398:1
-1 457:1 1252:1 1398:3
-1 175:1 202:1 241:1 288:1 306:1 317:1 336:1 528:1 623:1 631:1 635:1 715:1 758:1 795:1 815:1 829:1 849:1 1057:1 1083:1 1102:1 1175:1 1230:1 1254:1 1261:1 1274:1 1289:1 1297:1 1298:1 1302:1 1314:1 1319:1 1329:1 1338:1 1347:1 1354:1 1358:1 1361:1 1368:1 1370:1 1374:1 1398:2
-1 457:1 1252:1 1398:3
-1 457:1 1252:1 1398:3
-1 457:1 1252:1 1398:3
-1 175:1 241:1 288:1 623:1 631:1 635:1 1102:1 1125:1 1254:1 1302:1 1319:1 1338:1 1340:1 1361:1 1368:1 1370:1 1398:2
-1 528:1 631:1 1289:1 1368:1 1398:2
-1 175:1 241:1 288:1 336:1 528:1 623:1 631:1 635:1 715:1 774:1 829:1 1102:1 1230:1 1254:1 1289:1 1302:1 1314:1 1319:1 1338:1 1358:1 1361:1 1368:1 1370:1 1398:2
-1 262:1 631:1 1318:1 1368:1 1398:2
-1 219:1 241:1 631:1 1302:1 1368:1 1398:2
-1 528:1 623:1 631:1 1289:1 1361:1 1368:1 1398:2
-1 175:1 288:1 528:2 623:1 631:1 635:1 706:1 1102:1 1221:1 1254:1 1289:2 1319:1 1338:1 1361:1 1368:1 1370:1 1398:3
-1 528:1 631:1 635:1 1102:1 1289:1 1319:1 1368:1 1370:1 1398:2
-1 457:1 1252:1 1398:4
-1 175:1 241:1 288:1 623:1 631:1 635:1 715:1 1102:1 1125:1 1230:1 1254:1 1302:1 1319:1 1338:1 1340:1 1361:1 1368:1 1370:1 1398:2
-1 528:2 551:1 631:1 1289:2 1322:1 1368:1 1398:3
-1 528:2 551:1 631:1 1289:2 1322:1 1368:1 1398:3
-1 175:1 288:1 569:1 623:1 631:1 635:1 1102:1 1254:1 1319:1 1337:1 1338:1 1361:1 1368:1 1370:1 1398:3
-1 711:1 1227:1 1398:1
-1 175:1 241:1 288:1 551:1 623:2 631:4 635:1 706:1 715:3 1102:2 1125:1 1221:1 1230:3 1254:1 1302:1 1319:2 1322:1 1338:1 1340:1 1361:2 1368:4 1370:1 1398:6
-1 146:1 373:1 415:1 478:1 503:1 528:1 729:1 789:1 852:1 938:1 949:1 1079:1 1084:1 1098:1 1134:1 1162:1 1222:1 1236:1 1260:1 1273:1 1289:1 1294:1 1332:1 1357:1 1391:1 1398:2
-1 528:1 552:1 631:1 1289:1 1368:1 1398:2
-1 241:1 631:1 715:1 1230:1 1302:1 1368:1 1398:1
-1 241:1 288:1 616:1 623:1 631:1 715:1 758:1 829:1 1083:1 1102:1 1125:1 1230:1 1261:1 1298:1 1302:1 1314:1 1319:1 1338:1 1340:1 1359:1 1361:1 1368:1 1398:1
-1 175:1 241:1 288:1 558:1 623:1 631:1 635:1 706:1 715:1 829:1 1102:1 1221:1 1230:1 1254:1 1302:1 1314:1 1319:1 1330:1 1338:1 1361:1 1368:1 1370:1 1398:2
-1 288:1 623:1 631:1 1102:1 1319:1 1338:1 1361:1 1368:1 1398:1
-1 175:1 623:1 631:1 715:1 829:1 1102:1 1230:1 1254:1 1314:1 1319:1 1361:1 1368:1 1398:1
-1 457:1 1252:1 1398:3
-1 175:1 623:1 631:1 1102:1 1254:1 1319:1 1361:1 1368:1 1398:2 1400:2
-1 208:1 391:1 631:1 650:1 1123:1 1368:1 1398:3 1400:1
-1 528:1 631:1 951:1 1289:1 1368:1 1392:1 1398:1
-1 528:1 631:1 1289:1 1368:1 1398:1
-1 288:1 395:1 528:1 623:1 631:1 1289:1 1338:1 1361:1 1368:1 1398:1
-1 631:1 1102:1 1125:1 1319:1 1340:1 1368:1 1398:5 1400:1
-1 631:1 1368:1 1398:2
-1 146:1 336:1 373:1 382:1 415:1 503:1 528:1 632:1 729:1 789:1 852:1 938:1 940:1 949:1 1068:1 1084:1 1098:1 1128:1 1133:1 1134:1 1162:1 1222:1 1236:1 1273:1 1284:1 1289:1 1332:1 1344:1 1357:1 1358:1 1391:1 1396:1 1398:1
-1 457:1 1252:1 1398:3
-1 241:1 453:1 623:1 631:1 715:1 1080:1 1102:1 1230:1 1251:1 1295:1 1302:1 1319:1 1361:1 1368:1 1398:1
-1 146:1 274:1 354:1 415:1 503:1 528:1 541:1 729:1 826:1 852:1 988:1 1134:1 1154:1 1222:1 1223:1 1236:1 1273:1 1289:1 1309:1 1326:1 1332:1 1369:1 1398:1
-1 146:1 274:1 395:1 415:1 503:1 528:1 729:1 852:1 1059:1 1068:1 1134:1 1222:1 1236:1 1273:1 1284:1 1289:1 1326:1 1332:1 1398:2
-1 457:1 1252:1 1398:3
-1 457:1 1252:1 1398:2
-1 153:1 425:1 631:1 1136:1 1368:1 1398:2
-1 175:1 241:1 288:1 558:1 623:1 631:1 635:1 706:1 715:1 1102:1 1183:1 1221:1 1230:1 1254:1 1302:1 1319:1 1330:1 1338:1 1361:1 1368:1 1370:1 1381:1 1398:2
-1 288:1 528:1 623:1 631:1 1102:1 1289:1 1319:1 1338:1 1361:1 1368:1 1398:1
-1 205:1 241:1 288:1 344:1 397:1 528:1 623:1 631:1 704:1 713:1 715:1 804:1 829:1 911:1 956:1 1102:1 1125:1 1228:1 1230:1 1285:1 1289:1 1302:1 1314:1 1319:1 1338:1 1340:1 1361:1 1362:1 1363:1 1368:1 1398:1
-1 241:1 457:1 528:1 631:1 635:1 715:1 1057:1 1102:1 1230:1 1252:1 1274:1 1289:1 1302:1 1319:1 1368:1 1370:1 1398:4
-1 241:1 356:1 623:1 631:1 715:1 1102:1 1230:1 1302:1 1319:1 1361:1 1368:1 1398:3
-1 241:1 631:1 678:1 715:1 1230:1 1302:1 1368:1 1398:2
-1 241:1 495:1 528:1 623:1 624:1 631:1 715:1 804:1 832:1 956:1 1102:1 1230:1 1269:1 1285:1 1289:1 1302:1 1319:1 1320:1 1361:1 1364:1 1368:1 1398:2
-1 241:1 344:1 528:1 631:1 956:1 1102:1 1289:1 1302:1 1319:1 1363:1 1368:1 1398:2
-1 180:1 209:1 253:1 307:1 316:1 385:1 477:1 533:1 547:1 589:1 631:1 734:1 747:1 778:1 810:1 872:1 957:1 1024:1 1050:1 1114:1 1185:1 1368:1 1398:2 1400:427
-1 288:1 395:1 528:1 623:1 631:1 715:1 829:1 1102:1 1230:1 1289:1 1314:1 1319:1 1338:1 1361:1 1368:1 1398:1 1400:66
-1 239:1 290:1 448:1 528:1 623:1 631:1 956:1 1026:1 1289:1 1304:1 1361:1 1368:1 1398:3
-1 175:1 528:1 623:1 631:1 635:1 706:1 790:1 1102:1 1125:1 1221:1 1254:1 1275:1 1289:1 1319:1 1340:1 1361:1 1368:1 1370:1 1398:2
-1 175:1 288:1 623:1 631:1 635:1 1102:1 1136:1 1254:1 1319:1 1338:1 1361:1 1368:1 1370:1 1398:3
-1 186:1 241:1 288:1 528:1 595:1 623:1 631:1 715:1 1012:1 1067:1 1102:1 1230:1 1289:1 1302:1 1319:1 1338:1 1361:1 1368:1 1398:2
-1 631:1 827:1 1311:1 1368:1 1398:2
-1 241:1 457:1 562:1 596:1 623:1 631:1 715:1 1102:1 1230:1 1252:1 1302:1 1319:1 1361:1 1368:1 1398:1
-1 175:1 241:1 288:1 558:1 623:1 631:1 635:1 706:1 715:1 758:1 829:1 1102:1 1221:1 1230:1 1254:1 1261:1 1302:1 1314:1 1319:1 1330:1 1338:1 1361:1 1368:1 1370:1 1398:1
-1 125:1 160:1 431:1 513:1 631:1 681:1 761:1 805:1 918:1 1210:1 1264:1 1368:1 1398:1
-1 457:1 1252:1 1398:3
-1 175:1 241:1 288:1 623:1 631:1 635:1 1102:1 1125:1 1254:1 1302:1 1319:1 1338:1 1340:1 1361:1 1368:1 1370:1 1398:3
-1 241:1 288:1 494:1 528:1 631:1 635:1 715:1 829:1 1102:1 1230:1 1289:1 1302:1 1314:1 1319:1 1338:1 1368:1 1370:1 1398:3
-1 175:1 241:1 288:1 623:2 631:3 635:1 715:2 1102:2 1230:2 1254:1 1302:1 1319:2 1338:1 1361:2 1368:3 1370:1 1398:6
-1 175:1 241:1 256:1 288:1 528:1 623:1 631:1 635:1 706:1 829:1 1102:1 1221:1 1254:1 1289:1 1302:1 1314:1 1316:1 1319:1 1338:1 1361:1 1368:1 1370:1 1398:1
-1 457:1 1252:1 1398:2
-1 146:1 247:1 257:1 274:1 288:1 336:1 355:1 373:1 382:1 395:1 402:1 405:1 415:1 461:1 503:1 528:1 623:1 631:1 640:1 667:1 715:1 716:1 717:1 729:1 746:1 770:1 789:1 792:1 812:1 826:1 829:1 852:1 938:1 940:1 949:1 1031:1 1035:1 1068:1 1076:1 1084:1 1102:1 1134:1 1162:1 1168:1 1222:1 1230:1 1231:1 1236:1 1256:1 1257:1 1273:1 1276:1 1284:1 1289:1 1292:1 1310:1 1314:1 1319:1 1326:1 1332:1 1338:1 1357:1 1358:1 1361:1 1368:1 1373:1 1391:1 1396:1 1398:2
-1 175:1 241:1 288:1 324:1 528:1 623:1 631:1 715:1 1102:1 1230:1 1254:1 1289:1 1302:1 1319:1 1338:1 1361:1 1368:1 1398:2
-1 241:1 288:1 528:1 623:1 631:1 635:1 1289:1 1302:1 1338:1 1361:1 1368:1 1370:1 1398:1
-1 175:1 241:1 528:1 623:1 631:1 705:1 1102:1 1254:1 1289:1 1302:1 1319:1 1361:1 1368:1 1398:1
-1 241:1 288:1 528:1 623:1 631:1 635:1 715:1 829:1 1102:1 1230:1 1289:1 1302:1 1314:1 1319:1 1338:1 1361:1 1368:1 1370:1 1398:2
-1 146:1 175:1 241:1 288:1 395:1 402:1 415:1 484:1 495:1 503:1 528:1 623:1 631:1 635:1 713:1 715:1 729:1 770:1 829:1 852:1 864:1 1084:1 1102:1 1134:1 1162:1 1222:1 1228:1 1230:1 1236:1 1254:1 1262:1 1269:1 1273:1 1289:1 1302:1 1314:1 1319:1 1332:1 1338:1 1342:1 1357:1 1361:1 1368:1 1370:1 1398:2
-1 175:1 241:2 288:2 528:1 623:2 631:4 635:1 636:1 706:1 715:3 1102:2 1125:1 1221:1 1230:3 1254:1 1289:1 1302:2 1319:2 1338:2 1340:1 1361:2 1368:4 1370:1 1372:1 1398:5
-1 175:1 241:1 256:1 288:1 558:1 623:1 631:1 635:1 636:1 706:1 715:1 758:1 829:1 1057:1 1102:1 1175:1 1221:1 1230:1 1254:1 1261:1 1274:1 1302:1 1314:1 1316:1 1319:1 1330:1 1338:1 1361:1 1368:1 1370:1 1372:1 1374:1 1398:1
-1 175:1 241:1 288:1 623:2 631:5 635:1 636:1 706:1 715:2 886:1 1102:2 1125:1 1221:1 1230:2 1254:1 1302:1 1319:2 1338:1 1340:1 1361:2 1368:5 1370:1 1372:1 1398:6
-1 146:1 175:1 241:1 256:1 288:1 336:1 395:1 402:1 415:1 503:1 528:1 623:1 631:1 635:1 706:1 715:1 717:1 729:1 770:1 829:1 832:1 1102:1 1134:1 1168:1 1221:1 1222:1 1230:1 1236:1 1254:1 1273:1 1289:1 1302:1 1314:1 1316:1 1319:1 1320:1 1338:1 1358:1 1361:1 1368:1 1370:1 1398:2
-1 175:1 288:1 528:1 623:1 631:1 1102:1 1254:1 1289:1 1319:1 1338:1 1361:1 1368:1 1398:1
-1 146:1 175:1 241:1 247:1 274:1 288:1 336:1 355:1 373:1 382:1 395:1 415:1 461:1 503:1 528:1 729:1 826:1 852:1 938:1 940:1 949:1 1027:1 1031:1 1068:1 1084:1 1095:1 1102:1 1134:1 1222:1 1236:1 1254:1 1257:1 1273:1 1284:1 1289:1 1302:1 1310:1 1315:1 1319:1 1326:1 1332:1 1338:1 1358:1 1373:1 1391:1 1396:1 1398:2
-1 146:1 241:1 247:1 257:1 274:1 288:1 336:1 355:1 373:1 382:1 402:1 415:1 484:1 503:1 528:1 623:1 631:1 640:1 715:1 729:1 746:1 770:1 789:1 792:1 829:1 852:1 940:1 1006:1 1035:1 1064:1 1076:1 1102:1 1125:1 1128:1 1134:1 1162:1 1222:1 1230:1 1236:1 1243:1 1256:1 1262:1 1273:1 1276:1 1289:1 1302:1 1310:1 1314:1 1319:1 1326:1 1332:1 1338:1 1340:1 1357:1 1358:1 1361:1 1368:1 1373:1 1396:1 1398:2 1400:1
-1 241:1 288:1 528:1 623:1 631:1 1021:1 1102:1 1289:1 1302:1 1319:1 1338:1 1361:1 1368:1 1398:1
-1 457:1 1252:1 1398:3
-1 146:1 247:1 272:1 295:1 308:1 318:1 336:1 354:1 382:1 395:1 402:1 415:1 453:1 461:1 503:1 623:1 630:1 631:1 715:1 729:1 770:1 789:1 826:1 832:1 940:1 949:1 988:1 1084:1 1102:1 1134:1 1222:1 1223:1 1230:1 1236:1 1251:1 1273:1 1310:1 1319:1 1320:1 1325:1 1341:1 1352:1 1358:1 1361:1 1368:1 1369:1 1391:1 1396:1 1398:2
-1 432:1 528:2 631:1 720:1 1036:1 1289:2 1368:1 1398:2
-1 267:1 432:1 528:1 631:1 1036:1 1289:1 1368:1 1398:2
-1 267:1 432:1 528:1 631:1 720:1 1036:1 1289:1 1368:1 1398:2
-1 358:1 528:2 631:1 1120:1 1289:2 1368:1 1398:5
-1 175:1 241:1 256:1 528:1 623:1 631:1 635:1 1102:1 1254:1 1289:1 1302:1 1316:1 1319:1 1361:1 1368:1 1370:1 1398:1
-1 220:1 330:1 528:2 631:1 664:1 726:1 781:1 989:1 1159:1 1289:2 1368:1 1398:2 1400:347
-1 241:1 288:1 528:1 623:1 631:1 635:1 706:1 829:1 1102:1 1221:1 1289:1 1302:1 1314:1 1319:1 1338:1 1361:1 1368:1 1370:1 1398:1
-1 175:1 241:1 256:1 288:1 528:1 623:1 631:1 635:1 706:1 1102:1 1221:1 1254:1 1289:1 1302:1 1316:1 1319:1 1338:1 1361:1 1368:1 1370:1 1398:3
-1 623:2 631:2 635:1 715:1 1102:2 1230:1 1319:2 1361:2 1368:2 1370:1 1398:7
-1 175:1 528:1 631:1 1102:1 1254:1 1289:1 1319:1 1368:1 1398:2
-1 241:1 288:1 457:1 528:1 631:1 829:1 1102:1 1252:1 1289:1 1302:1 1314:1 1319:1 1338:1 1368:1 1398:2
-1 288:1 453:1 528:1 631:1 635:1 816:1 1251:1 1289:1 1301:1 1338:1 1368:1 1370:1 1398:2
-1 711:1 1227:1 1398:1
-1 175:1 241:1 288:1 623:1 631:1 635:1 706:1 715:1 1102:1 1125:1 1175:1 1221:1 1230:1 1254:1 1302:1 1319:1 1338:1 1340:1 1361:1 1368:1 1370:1 1374:1 1398:2
-1 142:1 262:1 528:1 631:1 1289:1 1318:1 1368:1 1398:2
-1 175:1 528:1 631:1 681:1 761:1 844:1 1041:1 1102:1 1254:1 1264:1 1289:1 1319:1 1368:1 1398:2
-1 175:1 241:1 288:1 324:1 336:1 528:1 623:1 631:1 635:1 715:1 829:1 864:1 1095:1 1102:1 1125:1 1230:1 1254:1 1289:1 1302:1 1314:1 1315:1 1319:1 1338:1 1340:1 1342:1 1358:1 1361:1 1368:1 1370:1 1398:2
-1 528:2 631:1 1289:2 1368:1 1398:2
-1 125:1 160:1 195:1 431:1 513:1 631:1 681:1 761:1 805:1 855:1 918:1 1210:1 1264:1 1368:1 1398:2
-1 631:1 1102:1 1319:1 1368:1 1398:2
-1 122:1 146:1 241:1 256:1 288:1 405:1 415:1 461:1 503:1 528:1 630:1 631:1 715:1 729:1 829:1 832:1 852:1 1076:1 1084:1 1102:1 1134:1 1162:1 1222:1 1230:1 1236:1 1273:1 1289:1 1302:1 1314:1 1316:1 1319:1 1320:1 1332:1 1338:1 1357:1 1368:1 1398:1
-1 175:1 241:1 631:1 635:1 715:1 1057:1 1102:1 1125:1 1230:1 1254:1 1274:1 1302:1 1319:1 1340:1 1368:1 1370:1 1398:2
-1 175:1 241:1 288:1 623:1 631:1 635:1 706:1 715:1 829:1 1057:1 1102:1 1221:1 1230:1 1254:1 1274:1 1302:1 1314:1 1319:1 1338:1 1361:1 1368:1 1370:1 1398:3
-1 146:1 247:1 274:1 336:1 355:1 382:1 415:1 461:1 503:1 528:1 716:1 729:1 746:1 770:1 789:1 792:1 852:1 940:1 1031:1 1068:1 1076:1 1084:1 1092:1 1134:1 1162:1 1222:1 1231:1 1236:1 1256:1 1257:1 1273:1 1276:1 1284:1 1289:1 1310:1 1326:1 1332:1 1357:1 1358:1 1373:1 1396:1 1398:2
-1 146:1 247:1 274:1 336:1 355:1 373:1 415:1 461:1 503:1 528:1 541:1 729:1 770:1 789:1 792:1 852:1 937:1 938:1 940:1 1027:1 1031:1 1068:1 1084:1 1092:1 1134:1 1144:1 1162:1 1222:1 1236:1 1257:1 1273:1 1276:1 1284:1 1289:1 1309:1 1310:1 1326:1 1332:1 1348:1 1357:1 1358:1 1373:1 1398:2
-1 175:1 241:1 288:1 623:1 631:1 635:1 706:1 1102:1 1125:1 1221:1 1254:1 1302:1 1319:1 1338:1 1340:1 1361:1 1368:1 1370:1 1398:2
-1 457:1 1252:1 1398:3
-1 457:1 1252:1 1398:3
-1 457:1 1252:1 1398:3
-1 175:1 631:1 1102:1 1254:1 1319:1 1368:1 1398:3
-1 175:1 288:1 631:1 1102:1 1254:1 1319:1 1338:1 1368:1 1398:2
-1 175:1 241:1 288:1 623:1 631:1 635:1 1102:1 1125:1 1254:1 1302:1 1319:1 1338:1 1340:1 1361:1 1368:1 1370:1 1398:2
-1 175:1 241:1 288:1 623:1 631:1 635:1 1102:1 1125:1 1254:1 1302:1 1319:1 1338:1 1340:1 1361:1 1368:1 1370:1 1398:3
-1 241:1 288:1 623:1 631:1 1102:1 1302:1 1319:1 1338:1 1361:1 1368:1 1398:3
-1 457:1 1252:1 1398:2
-1 623:1 631:1 1361:1 1368:1 1398:1
-1 175:1 623:1 631:1 635:1 1102:1 1125:1 1254:1 1319:1 1340:1 1361:1 1368:1 1370:1 1398:2
-1 175:1 623:1 631:1 635:1 1102:1 1125:1 1254:1 1319:1 1340:1 1361:1 1368:1 1370:1 1398:2
-1 175:1 241:1 288:1 623:1 631:1 635:1 715:1 832:1 1102:1 1125:1 1230:1 1254:1 1302:1 1319:1 1320:1 1338:1 1340:1 1361:1 1368:1 1370:1 1398:2
-1 175:1 241:1 288:1 623:1 631:1 635:1 1102:1 1125:1 1254:1 1302:1 1319:1 1338:1 1340:1 1361:1 1368:1 1370:1 1398:2
-1 175:1 241:1 495:1 623:1 631:1 715:1 1230:1 1254:1 1269:1 1302:1 1361:1 1368:1 1398:3
-1 528:2 551:1 631:1 1289:2 1322:1 1368:1 1398:3
-1 457:1 1252:1 1398:3
-1 457:1 1252:1 1398:3
-1 623:2 631:2 635:1 715:1 1102:2 1230:1 1319:2 1361:2 1368:2 1370:1 1398:7
-1 146:1 274:1 291:1 336:1 365:1 373:1 415:1 480:1 503:1 528:1 722:1 729:1 746:1 789:1 840:1 852:1 938:1 940:1 949:1 1079:1 1084:1 1098:1 1111:1 1134:1 1162:1 1222:1 1236:1 1239:1 1256:1 1273:1 1289:1 1294:1 1326:1 1332:1 1357:1 1358:1 1384:1 1391:1 1398:2
-1 241:1 288:1 623:1 631:1 635:1 715:1 1102:1 1230:1 1302:1 1319:1 1338:1 1361:1 1368:1 1370:1 1398:3
-1 175:1 288:1 551:1 623:2 631:4 635:1 715:2 1102:2 1125:1 1230:2 1254:1 1319:2 1322:1 1338:1 1340:1 1361:2 1368:4 1370:1 1398:6
-1 175:1 241:1 288:1 623:1 631:1 635:1 715:1 1102:1 1125:1 1230:1 1254:1 1302:1 1319:1 1338:1 1340:1 1361:1 1368:1 1370:1 1398:2
-1 241:1 288:1 336:1 478:1 528:1 623:1 631:1 715:1 829:1 849:1 1021:1 1079:1 1102:1 1175:1 1230:1 1260:1 1289:1 1294:1 1302:1 1314:1 1319:1 1329:1 1338:1 1358:1 1361:1 1368:1 1374:1 1398:1
-1 175:1 631:1 761:1 1102:1 1254:1 1264:1 1319:1 1368:1 1398:1
-1 175:1 241:1 288:2 623:2 631:4 635:1 706:1 715:2 1102:2 1125:1 1221:1 1230:2 1254:1 1302:1 1319:2 1338:2 1340:1 1361:2 1368:4 1370:1 1398:6
-1 175:1 623:2 631:4 635:1 706:1 715:2 1102:2 1125:1 1221:1 1230:2 1254:1 1319:2 1340:1 1361:2 1368:4 1370:1 1398:6
-1 175:1 241:1 288:1 623:1 631:1 635:1 1102:1 1125:1 1254:1 1302:1 1319:1 1338:1 1340:1 1361:1 1368:1 1370:1 1398:3
-1 631:1 1368:1 1398:1
-1 175:1 631:1 1102:1 1254:1 1319:1 1368:1 1398:3
-1 175:1 241:1 288:1 623:1 631:1 635:1 1102:1 1125:1 1254:1 1302:1 1319:1 1338:1 1340:1 1361:1 1368:1 1370:1 1398:3
-1 175:1 241:1 288:1 569:1 623:1 631:1 635:1 715:1 832:1 1102:1 1125:1 1230:1 1254:1 1302:1 1319:1 1320:1 1337:1 1338:1 1340:1 1361:1 1368:1 1370:1 1398:1
-1 631:1 715:1 1102:1 1230:1 1319:1 1368:1 1398:4
-1 146:1 373:1 415:1 503:1 528:1 570:1 620:1 729:1 789:1 852:1 938:1 1031:1 1035:1 1047:1 1068:1 1079:1 1084:1 1098:1 1104:1 1134:1 1144:1 1162:1 1222:1 1236:1 1257:1 1273:1 1284:1 1289:1 1294:1 1332:1 1339:1 1348:1 1357:1 1398:4
-1 175:1 288:1 528:1 631:1 829:1 1102:1 1254:1 1289:1 1314:1 1319:1 1338:1 1368:1 1398:3
-1 528:1 631:1 1289:1 1368:1 1398:2
-1 175:1 241:1 288:2 623:6 631:5 635:1 706:1 715:3 853:1 911:5 1102:2 1125:1 1221:1 1230:3 1254:1 1302:1 1319:2 1333:1 1338:2 1340:1 1361:6 1362:5 1368:5 1370:1 1398:6
-1 175:1 241:1 288:1 623:1 631:1 635:1 1102:1 1125:1 1254:1 1302:1 1319:1 1338:1 1340:1 1361:1 1368:1 1370:1 1398:5
-1 146:1 257:1 395:1 415:1 503:1 528:1 623:1 630:1 631:1 635:1 715:1 729:1 829:1 852:1 864:1 1076:1 1102:1 1134:1 1222:1 1230:1 1236:1 1273:1 1289:1 1314:1 1319:1 1332:1 1342:1 1361:1 1368:1 1370:1 1398:1
-1 175:1 241:1 623:2 631:4 635:1 706:1 715:1 1102:2 1125:1 1175:1 1221:1 1230:1 1254:1 1302:1 1319:2 1340:1 1361:2 1368:4 1370:1 1374:1 1398:6
-1 631:1 1136:1 1368:1 1398:2
-1 631:1 1136:1 1368:1 1398:2
-1 175:1 241:1 288:1 623:1 631:1 635:1 1102:1 1125:1 1254:1 1302:1 1319:1 1338:1 1340:1 1361:1 1368:1 1370:1 1398:4
-1 623:1 631:1 1102:1 1319:1 1361:1 1368:1 1398:3
-1 175:1 241:1 288:1 623:1 631:1 635:1 715:1 1102:1 1125:1 1230:1 1254:1 1302:1 1319:1 1338:1 1340:1 1361:1 1368:1 1370:1 1398:2
-1 175:1 241:1 288:1 623:1 631:1 635:1 706:1 1102:1 1221:1 1254:1 1302:1 1319:1 1338:1 1361:1 1368:1 1370:1 1398:4
-1 623:1 631:4 715:2 853:1 1102:2 1230:2 1319:2 1333:1 1361:1 1368:4 1398:6
-1 623:2 631:2 635:1 715:1 1102:2 1230:1 1319:2 1361:2 1368:2 1370:1 1398:7
-1 277:1 801:1 1398:2
-1 277:1 801:1 1398:2
-1 277:1 801:1 1398:2
-1 175:1 241:1 288:1 623:1 631:1 635:1 706:1 1079:1 1102:1 1137:1 1221:1 1254:1 1294:1 1302:1 1319:1 1338:1 1361:1 1368:1 1370:1 1398:4
-1 175:1 317:1 528:1 623:1 631:1 819:1 844:1 1041:1 1102:1 1175:1 1254:1 1289:1 1319:1 1354:1 1361:1 1368:1 1374:1 1398:2
-1 277:1 527:1 801:1 1398:2
-1 623:1 631:1 635:1 1102:1 1319:1 1361:1 1368:1 1370:1 1398:1
-1 528:1 623:1 631:1 1079:1 1102:1 1289:1 1294:1 1319:1 1361:1 1368:1 1398:4
-1 241:1 551:1 631:1 715:1 1102:1 1230:1 1302:1 1319:1 1322:1 1368:1 1398:1
-1 631:1 711:1 1227:1 1368:1 1398:4
-1 623:2 631:2 635:1 715:1 1102:2 1230:1 1319:2 1361:2 1368:2 1370:1 1398:7
-1 288:1 528:2 623:1 631:1 1102:1 1289:2 1319:1 1338:1 1361:1 1368:1 1398:4
-1 175:1 288:1 623:1 631:1 1102:1 1254:1 1319:1 1338:1 1361:1 1368:1 1398:1 1400:26
-1 623:2 631:2 635:1 715:1 1102:2 1230:1 1319:2 1361:2 1368:2 1370:1 1398:7
-1 241:1 623:1 631:1 715:1 805:1 829:1 1230:1 1302:1 1314:1 1361:1 1368:1 1398:1
-1 175:1 241:1 288:1 558:1 623:1 631:1 635:1 706:1 715:1 1102:1 1183:1 1221:1 1230:1 1254:1 1302:1 1319:1 1330:1 1338:1 1361:1 1368:1 1370:1 1381:1 1398:2
-1 241:1 288:1 623:1 631:6 715:3 829:1 1102:2 1230:3 1302:1 1314:1 1319:2 1338:1 1361:1 1368:6 1398:5
-1 175:1 241:1 288:1 336:1 528:1 623:1 631:1 635:1 715:1 758:1 795:1 829:1 844:1 864:1 871:1 1021:1 1102:1 1230:1 1254:1 1261:1 1289:1 1302:1 1314:1 1319:1 1338:1 1342:1 1345:1 1358:1 1361:1 1368:1 1370:1 1398:1
-1 457:1 1252:1 1398:3
-1 528:1 631:1 1289:1 1368:1 1398:3
-1 528:2 631:1 1289:2 1368:1 1398:4
-1 175:1 241:1 256:1 288:1 344:1 558:1 623:1 631:1 635:1 636:1 715:1 758:1 829:1 864:1 1057:1 1102:1 1175:1 1230:1 1254:1 1261:1 1274:1 1302:1 1314:1 1316:1 1319:1 1330:1 1338:1 1342:1 1361:1 1363:1 1368:1 1370:1 1372:1 1374:1 1398:2
-1 631:1 1368:1 1398:2
-1 175:1 241:1 288:1 623:1 631:1 635:1 636:1 706:1 715:1 758:1 829:1 1079:1 1102:1 1221:1 1230:1 1254:1 1261:1 1294:1 1302:1 1314:1 1319:1 1338:1 1361:1 1368:1 1370:1 1372:1 1398:1
-1 623:1 631:1 1361:1 1368:1 1398:3
-1 528:1 623:1 631:1 1289:1 1361:1 1368:1 1398:4
-1 175:1 241:1 366:1 623:1 631:1 1087:1 1102:1 1254:1 1302:1 1319:1 1361:1 1368:1 1398:3
-1 457:1 1252:1 1398:2
-1 623:1 631:1 1079:1 1294:1 1361:1 1368:1 1398:2
-1 610:1 623:1 631:1 1079:1 1294:1 1361:1 1368:1 1398:3
-1 175:1 241:1 288:1 631:1 635:1 706:1 1102:1 1175:1 1221:1 1254:1 1302:1 1319:1 1338:1 1368:1 1370:1 1374:1 1398:4
-1 457:1 1252:1 1398:4
-1 457:1 1252:1 1398:2
-1 711:1 1227:1 1398:1
-1 711:1 1227:1 1398:1
-1 457:1 1252:1 1398:4
-1 631:1 832:1 1320:1 1368:1 1398:2 1400:4
-1 711:1 1227:1 1398:1
-1 175:1 256:1 288:1 623:2 631:4 635:1 715:2 853:1 1102:2 1125:1 1230:2 1254:1 1316:1 1319:2 1333:1 1338:1 1340:1 1361:2 1368:4 1370:1 1398:6
-1 623:3 631:4 635:1 715:1 1102:2 1230:1 1319:2 1361:3 1368:4 1370:1 1398:4
-1 623:3 631:4 635:1 715:1 1102:2 1230:1 1319:2 1361:3 1368:4 1370:1 1398:4
-1 457:1 1252:1 1398:2
-1 288:1 474:1 528:1 631:1 714:1 767:1 890:1 1131:1 1289:1 1338:1 1368:1 1398:7
-1 631:1 750:1 1368:1 1398:3
-1 175:1 241:1 288:2 551:1 558:1 623:2 631:4 635:1 706:1 715:3 829:1 1102:2 1125:1 1175:1 1221:1 1230:3 1254:1 1302:1 1314:1 1319:2 1322:1 1330:1 1338:2 1340:1 1361:2 1368:4 1370:1 1374:1 1398:6
-1 175:1 241:1 288:1 558:1 623:1 631:1 635:1 706:1 715:1 1102:1 1221:1 1230:1 1254:1 1302:1 1319:1 1330:1 1338:1 1361:1 1368:1 1370:1 1398:2
-1 175:1 241:1 288:1 623:1 631:1 635:1 1102:1 1254:1 1302:1 1319:1 1338:1 1361:1 1368:1 1370:1 1398:2
-1 631:1 1368:1 1398:2
-1 175:1 288:1 623:1 631:1 635:1 706:1 715:1 829:1 1102:1 1221:1 1230:1 1254:1 1314:1 1319:1 1338:1 1361:1 1368:1 1370:1 1398:1
-1 631:1 1136:1 1368:1 1398:3
-1 288:1 623:1 631:4 715:2 1102:2 1230:2 1319:2 1338:1 1361:1 1368:4 1398:6
-1 129:1 146:1 336:1 373:1 415:1 421:1 503:1 528:1 623:1 631:1 729:1 789:1 852:1 938:1 1084:1 1098:1 1126:1 1134:1 1162:1 1222:1 1236:1 1273:1 1289:1 1332:1 1357:1 1358:1 1361:1 1368:1 1398:2
-1 175:1 631:1 1102:1 1254:1 1319:1 1368:1 1398:3 1400:2
-1 116:1 631:1 918:1 1102:1 1319:1 1368:1 1398:2 1400:35
-1 631:1 1368:1 1398:3
-1 711:1 1227:1 1398:1
-1 175:1 241:1 288:1 623:1 631:1 635:1 1102:1 1125:1 1254:1 1302:1 1319:1 1338:1 1340:1 1361:1 1368:1 1370:1 1398:3
-1 129:1 146:1 336:1 415:1 421:1 503:1 528:1 623:1 631:1 682:1 729:1 789:1 852:1 938:1 1084:1 1093:1 1098:1 1126:1 1134:1 1162:1 1222:1 1236:1 1273:1 1289:1 1313:1 1332:1 1357:1 1358:1 1361:1 1368:1 1398:1
-1 175:1 241:1 288:2 623:2 631:4 635:1 706:1 715:3 1102:2 1125:1 1175:1 1221:1 1230:3 1254:1 1302:1 1319:2 1338:2 1340:1 1361:2 1368:4 1370:1 1374:1 1398:6
-1 490:1 631:1 805:1 1368:1 1398:2
-1 336:1 395:1 528:1 623:1 631:1 858:1 1289:1 1334:1 1358:1 1361:1 1368:1 1398:1
-1 159:1 175:1 288:1 366:1 481:1 623:1 631:1 635:1 1019:1 1102:1 1175:1 1245:1 1254:1 1319:1 1338:1 1361:1 1368:1 1370:1 1374:1 1398:2
-1 288:1 528:1 631:1 1102:1 1175:1 1289:1 1319:1 1338:1 1368:1 1374:1 1398:2
-1 457:1 1252:1 1398:3
-1 175:1 631:1 1102:1 1254:1 1319:1 1368:1 1398:2
-1 314:1 336:1 528:1 631:1 933:1 1289:1 1358:1 1368:1 1398:2
-1 315:1 469:1 528:1 623:1 631:1 722:1 1079:1 1239:1 1289:1 1294:1 1361:1 1368:1 1398:2
-1 457:1 1252:1 1398:4
-1 631:1 1368:1 1398:4
-1 175:1 241:1 288:1 528:1 551:1 623:1 631:1 635:1 706:1 1102:1 1175:1 1221:1 1254:1 1289:1 1302:1 1319:1 1322:1 1338:1 1361:1 1368:1 1370:1 1374:1 1398:2
-1 146:1 257:1 395:1 415:1 437:1 461:1 503:1 528:1 539:1 715:1 729:1 852:1 938:1 1068:1 1084:1 1115:1 1134:1 1222:1 1230:1 1236:1 1241:1 1273:1 1284:1 1289:1 1307:1 1331:1 1332:1 1398:1
-1 457:1 1252:1 1398:3
-1 457:1 1252:1 1398:2
-1 241:1 288:1 623:1 631:1 715:1 829:1 1080:1 1083:1 1102:1 1125:1 1175:1 1230:1 1295:1 1298:1 1302:1 1314:1 1319:1 1338:1 1340:1 1361:1 1368:1 1374:1 1398:1 1400:2
-1 288:1 623:1 631:1 1102:1 1319:1 1338:1 1361:1 1368:1 1398:3
-1 711:1 1227:1 1398:1
-1 711:1 1227:1 1398:1
-1 146:1 288:1 373:1 395:1 415:1 503:1 528:1 729:1 852:1 1084:1 1134:1 1222:1 1236:1 1273:1 1289:1 1332:1 1338:1 1398:2
-1 146:1 288:1 336:1 395:1 415:1 437:1 503:1 528:1 623:1 631:1 715:1 729:1 852:1 956:1 970:1 1134:1 1215:1 1222:1 1230:1 1236:1 1241:1 1273:1 1289:1 1332:1 1338:1 1358:1 1361:1 1368:1 1398:1
-1 711:1 1227:1 1398:1
-1 175:1 241:1 288:2 551:1 623:2 631:7 635:1 706:1 715:3 722:1 1102:2 1125:1 1175:1 1221:1 1230:3 1239:1 1254:1 1302:1 1319:2 1322:1 1338:2 1340:1 1361:2 1368:7 1370:1 1374:1 1398:6 1400:1
-1 175:1 241:1 288:1 631:1 635:1 706:1 715:1 750:1 1102:1 1125:1 1221:1 1230:1 1254:1 1302:1 1319:1 1338:1 1340:1 1368:1 1370:1 1398:4
-1 457:1 1252:1 1398:3
-1 528:1 631:1 1102:1 1289:1 1319:1 1368:1 1398:5
-1 175:1 241:2 288:2 623:2 631:5 635:1 636:1 706:1 715:3 1102:2 1125:1 1221:1 1230:3 1254:1 1302:2 1319:2 1338:2 1340:1 1361:2 1368:5 1370:1 1372:1 1398:6
-1 528:2 631:1 1289:2 1368:1 1398:2
-1 175:1 241:1 288:1 558:1 623:1 631:1 635:1 706:1 715:1 1102:1 1175:1 1183:1 1221:1 1230:1 1254:1 1302:1 1319:1 1330:1 1338:1 1361:1 1368:1 1370:1 1374:1 1381:1 1398:2
-1 175:1 623:1 631:1 706:1 1102:1 1221:1 1254:1 1319:1 1361:1 1368:1 1398:1
-1 146:1 274:1 336:1 373:1 395:1 415:1 461:1 503:1 528:1 715:1 729:1 789:1 826:1 852:1 938:1 949:1 988:1 1031:1 1068:1 1076:1 1084:1 1134:1 1144:1 1154:1 1162:1 1222:1 1223:1 1230:1 1236:1 1257:1 1273:1 1284:1 1289:1 1326:1 1332:1 1348:1 1357:1 1358:1 1391:1 1398:2
-1 457:1 1252:1 1398:3
-1 545:1 623:1 631:1 654:1 720:1 761:1 779:1 1036:1 1264:1 1361:1 1368:1 1398:3
-1 175:1 288:1 344:1 623:1 631:1 867:1 1102:1 1254:1 1319:1 1338:1 1361:1 1363:1 1368:1 1398:1
-1 175:1 241:1 288:1 623:1 631:1 635:1 1102:1 1125:1 1254:1 1302:1 1319:1 1338:1 1340:1 1361:1 1368:1 1370:1 1398:3
-1 146:1 373:1 395:1 415:1 437:1 503:1 528:1 539:1 605:1 729:1 789:1 852:1 949:1 1013:1 1068:1 1076:1 1084:1 1134:1 1144:1 1211:1 1222:1 1236:1 1241:1 1273:1 1284:1 1289:1 1307:1 1332:1 1348:1 1391:1 1398:1
-1 146:1 157:1 257:1 274:1 373:1 395:1 415:1 480:1 484:1 503:1 528:1 570:1 580:1 717:1 729:1 789:1 852:1 901:1 938:1 949:1 1027:1 1031:1 1068:1 1076:1 1084:1 1134:1 1144:1 1162:1 1222:1 1236:1 1257:1 1262:1 1273:1 1284:1 1289:1 1326:1 1332:1 1339:1 1348:1 1357:1 1391:1 1398:2
-1 146:1 288:1 395:1 415:1 437:1 503:1 528:1 623:1 631:1 729:1 852:1 949:1 1095:1 1102:1 1115:1 1134:1 1222:1 1236:1 1241:1 1273:1 1289:1 1315:1 1319:1 1331:1 1332:1 1338:1 1361:1 1368:1 1391:1 1398:2
-1 241:1 262:1 288:1 617:1 623:1 631:1 1102:1 1150:1 1177:1 1302:1 1318:1 1319:1 1338:1 1350:1 1360:1 1361:1 1368:1 1375:1 1398:2
-1 528:2 551:1 631:1 1289:2 1322:1 1368:1 1398:3
-1 241:1 623:1 631:1 635:1 715:1 829:1 1102:1 1230:1 1302:1 1314:1 1319:1 1361:1 1368:1 1370:1 1398:1
-1 125:1 160:1 195:1 431:1 513:1 631:1 681:1 761:1 805:1 855:1 918:1 1210:1 1264:1 1368:1 1398:1
-1 241:1 288:1 623:1 631:1 829:1 1102:1 1302:1 1314:1 1319:1 1338:1 1361:1 1368:1 1398:2
-1 175:1 462:1 528:2 631:1 681:1 761:1 985:1 1102:1 1254:1 1264:1 1289:2 1319:1 1368:1 1398:2
-1 457:1 1252:1 1398:3
-1 175:1 623:1 631:1 706:1 1102:1 1125:1 1221:1 1254:1 1319:1 1340:1 1361:1 1368:1 1398:1
-1 175:1 241:1 288:1 344:1 616:1 623:1 631:1 635:1 636:1 715:1 722:1 758:1 829:1 832:1 1079:1 1102:1 1175:1 1230:1 1239:1 1254:1 1261:1 1294:1 1302:1 1314:1 1319:1 1320:1 1338:1 1359:1 1361:1 1363:1 1368:1 1370:1 1372:1 1374:1 1398:1
-1 457:1 1252:1 1398:3
-1 241:1 288:1 336:1 453:1 528:1 623:1 631:1 839:1 1102:1 1251:1 1289:1 1302:1 1319:1 1323:1 1338:1 1358:1 1361:1 1368:1 1398:3
-1 146:1 239:1 241:1 247:1 288:1 336:1 395:1 415:1 503:1 528:1 623:1 631:1 729:1 852:1 1027:1 1048:1 1102:1 1134:1 1211:1 1222:1 1236:1 1273:1 1289:1 1302:1 1304:1 1310:1 1319:1 1332:1 1338:1 1358:1 1361:1 1368:1 1398:1
-1 146:1 415:1 503:1 528:1 729:1 852:1 882:1 1107:1 1134:1 1222:1 1236:1 1273:1 1289:1 1332:1 1398:2
-1 146:1 177:1 247:1 257:1 355:1 395:1 415:1 461:1 503:1 528:1 539:1 729:1 807:1 852:1 938:1 1027:1 1068:1 1084:1 1115:1 1132:1 1134:1 1162:1 1222:1 1236:1 1273:1 1284:1 1287:1 1289:1 1307:1 1310:1 1331:1 1332:1 1357:1 1373:1 1398:1 1400:2
-1 146:1 156:1 175:1 247:1 256:1 274:1 336:1 355:1 382:1 392:1 395:1 415:1 437:1 461:1 503:1 528:1 539:1 614:1 623:1 631:1 715:1 716:1 729:1 793:1 812:1 850:1 852:1 938:1 949:1 1027:1 1068:1 1076:1 1095:1 1102:1 1115:1 1134:1 1144:1 1156:1 1162:1 1196:1 1222:1 1230:1 1231:1 1236:1 1241:1 1254:1 1273:1 1284:1 1289:1 1292:1 1307:1 1310:1 1315:1 1316:1 1319:1 1326:1 1331:1 1332:1 1348:1 1357:1 1358:1 1361:1 1368:1 1373:1 1391:1 1396:1 1397:1 1398:3
-1 146:1 175:1 274:1 336:1 395:1 415:1 437:1 503:1 528:1 539:1 614:1 631:1 694:1 729:1 812:1 852:1 1068:1 1076:1 1084:1 1095:1 1102:1 1115:1 1134:1 1220:1 1222:1 1236:1 1241:1 1254:1 1273:1 1284:1 1289:1 1292:1 1307:1 1315:1 1319:1 1326:1 1331:1 1332:1 1358:1 1368:1 1398:2
-1 146:1 247:1 274:1 373:1 415:1 503:1 528:1 563:1 729:1 789:1 852:1 938:1 940:1 949:1 1006:1 1010:1 1064:1 1068:1 1084:1 1098:1 1128:1 1134:1 1162:1 1222:1 1236:1 1243:1 1273:1 1284:1 1289:1 1310:1 1326:1 1332:1 1335:1 1357:1 1391:1 1398:2
-1 528:2 551:1 631:1 1289:2 1322:1 1368:1 1398:3
-1 241:1 344:1 528:1 551:1 623:1 631:1 715:1 1102:1 1230:1 1289:1 1302:1 1319:1 1322:1 1361:1 1363:1 1368:1 1398:1
-1 711:1 1227:1 1398:1
-1 457:1 1252:1 1398:3
-1 457:1 1252:1 1398:3
-1 175:1 241:2 288:1 623:2 631:5 635:1 715:3 1102:2 1125:1 1230:3 1254:1 1302:2 1319:2 1338:1 1340:1 1361:2 1368:5 1370:1 1398:6
-1 129:1 146:1 274:1 312:1 336:1 373:1 382:1 395:1 415:1 430:1 503:1 528:1 715:1 717:1 729:1 746:1 789:1 826:1 829:1 852:1 938:1 940:1 949:1 1068:1 1076:1 1084:1 1098:1 1133:1 1134:1 1162:1 1222:1 1230:1 1236:1 1256:1 1273:1 1284:1 1289:1 1314:1 1326:1 1332:1 1344:1 1357:1 1358:1 1391:1 1396:1 1398:2
-1 528:1 631:1 1102:1 1176:1 1289:1 1319:1 1368:1 1398:2
-1 146:1 395:1 415:1 503:1 528:1 729:1 852:1 949:1 1134:1 1222:1 1236:1 1273:1 1289:1 1332:1 1391:1 1398:2
-1 175:1 241:1 288:1 623:1 631:1 635:1 1102:1 1125:1 1254:1 1302:1 1319:1 1338:1 1340:1 1361:1 1368:1 1370:1 1398:3
-1 175:1 241:1 288:1 631:1 635:1 706:1 1102:1 1221:1 1254:1 1302:1 1319:1 1338:1 1368:1 1370:1 1398:2
-1 211:1 528:1 631:1 1289:1 1368:1 1398:3
-1 146:1 241:1 257:1 336:1 395:1 415:1 503:1 528:1 715:1 729:1 852:1 1068:1 1102:1 1134:1 1222:1 1230:1 1236:1 1273:1 1284:1 1289:1 1302:1 1319:1 1332:1 1358:1 1398:1
-1 146:1 175:1 241:1 288:1 336:1 395:1 415:1 461:1 503:1 528:1 623:1 631:1 635:1 683:1 715:1 729:1 770:1 829:1 949:1 1102:1 1134:1 1162:1 1222:1 1230:1 1236:1 1254:1 1273:1 1289:1 1302:1 1314:1 1319:1 1338:1 1357:1 1358:1 1361:1 1368:1 1370:1 1391:1 1398:2
-1 146:1 336:1 384:1 415:1 503:1 528:1 539:1 623:1 631:1 729:1 852:1 1134:1 1222:1 1236:1 1273:1 1289:1 1307:1 1332:1 1358:1 1361:1 1368:1 1398:1
-1 175:1 241:1 288:1 623:1 631:1 635:1 1102:1 1125:1 1254:1 1302:1 1319:1 1338:1 1340:1 1361:1 1368:1 1370:1 1398:3
-1 146:1 151:1 274:1 336:1 355:1 415:1 503:1 530:1 536:1 564:1 647:1 690:1 811:1 832:1 983:1 1031:1 1035:1 1068:1 1133:1 1192:1 1219:1 1222:1 1236:1 1240:1 1257:1 1273:1 1284:1 1290:1 1300:1 1320:1 1326:1 1336:1 1344:1 1358:1 1373:1 1377:1 1385:1 1398:3 1400:4
-1 631:1 1102:1 1319:1 1368:1 1398:1
-1 623:3 631:4 635:1 715:1 1102:2 1230:1 1319:2 1361:3 1368:4 1370:1 1398:4
-1 711:1 1227:1 1398:1
-1 528:1 835:1 1289:1 1398:2
-1 352:1 528:1 1289:1 1398:2
-1 528:1 835:1 1289:1 1398:2
-1 352:1 528:1 1289:1 1398:2
-1 528:1 631:1 1289:1 1368:1 1398:3
-1 175:1 241:1 288:1 623:1 631:1 1102:1 1254:1 1302:1 1319:1 1338:1 1361:1 1368:1 1398:2
-1 711:1 1227:1 1398:1
-1 528:1 623:1 631:1 1102:1 1289:1 1319:1 1361:1 1368:1 1398:3
-1 631:1 1368:1 1398:2
-1 631:1 1368:1 1398:3
-1 457:1 1252:1 1398:3
-1 631:1 1102:1 1319:1 1368:1 1398:3 1400:9
-1 175:1 288:1 478:1 631:1 1079:1 1102:1 1175:1 1254:1 1260:1 1294:1 1319:1 1338:1 1368:1 1374:1 1398:2
-1 175:1 241:1 288:1 336:1 528:1 623:1 631:1 635:1 694:1 698:1 715:1 758:1 829:1 1057:1 1095:1 1100:1 1102:1 1220:1 1230:1 1254:1 1261:1 1274:1 1289:1 1302:1 1314:1 1315:1 1319:1 1338:1 1358:1 1361:1 1368:1 1370:1 1398:2
-1 175:1 202:1 241:1 288:1 306:1 317:1 336:1 528:1 623:1 631:1 635:1 715:1 758:1 795:1 815:1 829:1 849:1 1057:1 1083:1 1102:1 1175:1 1230:1 1254:1 1261:1 1274:1 1289:1 1297:1 1298:1 1302:1 1314:1 1319:1 1329:1 1338:1 1347:1 1354:1 1358:1 1361:1 1368:1 1370:1 1374:1 1398:2
-1 528:2 631:1 1289:2 1368:1 1398:3
-1 241:1 495:1 623:1 631:1 713:1 829:1 832:1 1102:1 1125:1 1228:1 1269:1 1302:1 1314:1 1319:1 1320:1 1340:1 1361:1 1368:1 1398:2
-1 214:1 484:1 528:1 631:1 830:1 1102:1 1262:1 1289:1 1319:1 1368:1 1398:1
-1 528:2 623:1 631:1 1102:1 1289:2 1319:1 1361:1 1368:1 1398:3
-1 631:1 1368:1 1398:3
-1 175:1 288:1 528:1 573:1 623:1 631:1 706:1 912:1 1102:1 1221:1 1254:1 1289:1 1319:1 1338:1 1361:1 1368:1 1398:2
-1 175:1 631:1 1102:1 1125:1 1254:1 1319:1 1340:1 1368:1 1398:2
-1 241:1 347:1 402:1 528:1 623:1 631:1 715:1 717:1 852:1 923:1 1162:1 1230:1 1289:1 1302:1 1332:1 1357:1 1361:1 1367:1 1368:1 1398:2
-1 457:1 1252:1 1398:3
-1 175:1 241:1 288:1 623:2 631:5 635:1 706:1 715:3 1102:2 1125:1 1221:1 1230:3 1254:1 1302:1 1319:2 1338:1 1340:1 1361:2 1368:5 1370:1 1398:6
-1 175:1 241:1 623:2 631:4 635:1 715:3 1102:2 1125:1 1230:3 1254:1 1302:1 1319:2 1340:1 1361:2 1368:4 1370:1 1398:6
-1 528:2 551:1 631:1 918:1 1289:2 1322:1 1368:1 1398:2
-1 457:1 1252:1 1398:3
-1 175:1 241:1 288:1 623:1 631:1 635:1 636:1 706:1 715:1 829:1 911:1 1102:1 1125:1 1150:1 1221:1 1230:1 1254:1 1302:1 1314:1 1319:1 1338:1 1340:1 1350:1 1361:1 1362:1 1368:1 1370:1 1372:1 1398:2
-1 175:1 631:1 1052:1 1102:1 1254:1 1319:1 1368:1 1398:1
-1 175:1 241:1 256:1 288:1 558:1 623:1 631:1 635:1 636:1 706:1 715:1 758:1 761:1 829:1 1057:1 1102:1 1175:1 1221:1 1230:1 1254:1 1261:1 1264:1 1274:1 1302:1 1314:1 1316:1 1319:1 1330:1 1338:1 1361:1 1368:1 1370:1 1372:1 1374:1 1398:1 1400:973
-1 175:1 241:1 256:1 288:1 558:1 623:1 631:1 635:1 636:1 706:1 715:1 758:1 761:1 829:1 1057:1 1102:1 1175:1 1221:1 1230:1 1254:1 1261:1 1264:1 1274:1 1302:1 1314:1 1316:1 1319:1 1330:1 1338:1 1361:1 1368:1 1370:1 1372:1 1374:1 1398:1 1400:973
-1 457:1 1252:1 1398:4
-1 119:1 241:1 336:1 495:1 528:1 623:1 631:1 713:1 715:1 770:1 829:1 839:1 999:1 1228:1 1230:1 1269:1 1289:1 1302:1 1314:1 1323:1 1358:1 1361:1 1368:1 1398:1
-1 146:1 168:1 175:1 241:1 247:1 257:1 274:1 288:1 294:1 336:1 373:1 395:1 415:1 461:1 503:1 528:1 630:1 631:1 635:1 694:1 710:1 715:1 729:1 758:1 826:1 829:1 832:1 849:1 852:1 864:1 938:1 949:1 988:1 1068:1 1076:1 1084:1 1102:1 1134:1 1175:1 1196:1 1220:1 1222:1 1223:1 1226:1 1230:1 1236:1 1254:1 1261:1 1273:1 1284:1 1289:1 1302:1 1310:1 1314:1 1319:1 1320:1 1326:1 1329:1 1332:1 1338:1 1342:1 1358:1 1368:1 1370:1 1374:1 1391:1 1398:1
-1 457:1 1252:1 1398:3
-1 631:1 1368:1 1398:3
-1 336:1 421:1 623:1 631:1 653:1 1358:1 1361:1 1368:1 1398:1
-1 175:1 623:1 631:1 635:1 1102:1 1125:1 1254:1 1319:1 1340:1 1361:1 1368:1 1370:1 1398:2
-1 623:2 631:2 635:1 715:1 1102:2 1230:1 1319:2 1361:2 1368:2 1370:1 1398:7
-1 528:2 631:1 1289:2 1368:1 1398:4
-1 175:1 241:1 288:1 623:1 631:1 635:1 715:1 1102:1 1125:1 1175:1 1230:1 1254:1 1302:1 1319:1 1338:1 1340:1 1361:1 1368:1 1370:1 1374:1 1398:5
-1 146:1 148:1 247:1 274:1 297:1 373:1 415:1 461:1 503:1 528:1 729:1 746:1 751:1 789:1 852:1 938:1 970:1 988:1 1006:1 1027:1 1031:1 1068:1 1084:1 1134:1 1162:1 1215:1 1222:1 1223:1 1236:1 1238:1 1243:1 1256:1 1257:1 1273:1 1284:1 1289:1 1310:1 1326:1 1332:1 1357:1 1398:1
-1 175:1 288:1 528:1 631:1 635:1 1041:1 1102:1 1254:1 1289:1 1319:1 1338:1 1368:1 1370:1 1398:2
-1 146:1 395:1 415:1 437:1 503:1 528:1 539:1 623:1 631:1 715:1 729:1 852:1 949:1 1134:1 1211:1 1222:1 1230:1 1236:1 1241:1 1273:1 1289:1 1307:1 1332:1 1361:1 1368:1 1391:1 1398:1
-1 241:1 288:1 528:1 623:1 631:1 644:1 713:1 715:1 832:1 849:1 870:1 1080:1 1177:1 1211:1 1228:1 1230:1 1289:1 1295:1 1302:1 1320:1 1329:1 1338:1 1361:1 1368:1 1375:1 1398:1
-1 146:1 415:1 503:1 528:1 729:1 852:1 977:1 1134:1 1222:1 1236:1 1273:1 1289:1 1332:1 1398:1
-1 528:2 631:1 918:1 1289:2 1368:1 1398:2
-1 241:1 288:1 528:1 623:1 631:1 635:1 715:1 1102:1 1230:1 1289:1 1302:1 1319:1 1338:1 1361:1 1368:1 1370:1 1398:3
-1 528:1 623:1 631:1 635:1 924:1 1102:1 1289:1 1319:1 1361:1 1368:1 1370:1 1398:3
-1 457:1 1252:1 1398:3
-1 457:1 1252:1 1398:3
-1 457:1 1252:1 1398:2
-1 457:1 1252:1 1398:2
-1 288:1 631:1 1338:1 1368:1 1398:1
-1 175:1 241:1 288:1 344:1 631:1 713:1 1083:1 1102:1 1177:1 1228:1 1254:1 1298:1 1302:1 1319:1 1338:1 1363:1 1368:1 1375:1 1398:1 1400:2
-1 175:1 459:1 623:2 631:4 635:1 706:1 715:2 1102:2 1221:1 1230:2 1254:1 1319:2 1361:2 1368:4 1370:1 1398:6
-1 457:1 1252:1 1398:4
-1 457:1 1252:1 1398:2
-1 457:1 1252:1 1398:2
-1 175:1 241:1 288:1 623:1 631:1 635:1 1102:1 1125:1 1254:1 1302:1 1319:1 1338:1 1340:1 1361:1 1368:1 1370:1 1398:2
-1 457:1 1252:1 1398:3
-1 175:1 288:1 623:1 631:1 635:1 706:1 1102:1 1221:1 1254:1 1319:1 1338:1 1361:1 1368:1 1370:1 1398:1
-1 1398:1
-1 241:1 528:2 623:1 631:1 1079:1 1175:1 1289:2 1294:1 1302:1 1361:1 1368:1 1374:1 1398:3
-1 457:1 1252:1 1398:3
-1 631:1 1136:1 1368:1 1398:2
-1 358:1 631:1 1368:1 1398:1
-1 267:1 432:1 528:2 631:1 720:1 1036:1 1289:2 1368:1 1398:2
-1 528:1 1289:1 1398:3
-1 146:1 373:1 395:1 415:1 437:1 461:1 503:1 528:1 539:1 729:1 833:1 852:1 988:1 1009:1 1015:1 1031:1 1068:1 1084:1 1134:1 1144:1 1222:1 1223:1 1236:1 1241:1 1246:1 1257:1 1273:1 1284:1 1289:1 1307:1 1332:1 1348:1 1398:3
-1 175:1 551:1 623:1 631:1 635:1 706:1 715:1 1102:1 1175:1 1221:1 1230:1 1254:1 1319:1 1322:1 1361:1 1368:1 1370:1 1374:1 1398:5
-1 175:1 241:1 288:1 623:1 631:1 635:1 1102:1 1125:1 1254:1 1302:1 1319:1 1338:1 1340:1 1361:1 1368:1 1370:1 1398:2
-1 175:1 241:1 288:1 623:1 631:1 635:1 715:1 1102:1 1125:1 1175:1 1230:1 1254:1 1302:1 1319:1 1338:1 1340:1 1361:1 1368:1 1370:1 1374:1 1398:5
-1 146:1 177:1 257:1 336:1 395:1 415:1 503:1 528:1 539:1 645:1 729:1 807:1 852:1 1115:1 1134:1 1222:1 1236:1 1273:1 1287:1 1289:1 1307:1 1331:1 1332:1 1358:1 1398:1 1400:3
-1 336:1 495:1 528:1 605:1 623:1 631:1 956:1 1026:1 1152:1 1269:1 1289:1 1358:1 1361:1 1368:1 1398:3
-1 177:1 241:1 437:1 528:1 539:1 623:1 631:1 807:1 1115:1 1152:1 1241:1 1287:1 1289:1 1302:1 1307:1 1331:1 1361:1 1368:1 1398:2
-1 241:1 288:1 528:1 623:1 631:1 825:1 1289:1 1302:1 1338:1 1361:1 1368:1 1398:1
-1 457:1 1252:1 1398:2
-1 457:1 1252:1 1398:2
-1 528:2 631:1 1289:2 1368:1 1398:2
-1 528:2 631:1 1289:2 1368:1 1398:3
-1 631:1 1102:1 1319:1 1368:1 1398:5
-1 457:1 1252:1 1398:3
-1 528:2 631:1 1289:2 1368:1 1398:2
-1 528:2 631:1 1289:2 1368:1 1398:2
-1 528:2 631:1 1289:2 1368:1 1398:2
-1 631:1 760:1 1079:1 1175:1 1294:1 1368:1 1374:1 1398:2
-1 623:2 631:2 635:1 715:1 1102:2 1230:1 1319:2 1361:2 1368:2 1370:1 1398:7
-1 711:1 1175:1 1227:1 1374:1 1398:1
-1 528:2 631:1 1289:2 1368:1 1398:2
-1 175:1 241:1 288:1 623:1 631:1 635:1 706:1 715:1 817:1 829:1 1102:1 1175:1 1221:1 1230:1 1254:1 1302:1 1314:1 1319:1 1338:1 1361:1 1368:1 1370:1 1374:1 1398:4
-1 175:1 528:1 631:1 706:1 1102:1 1175:1 1221:1 1254:1 1289:1 1319:1 1368:1 1374:1 1398:4 1400:112
-1 528:2 631:1 1289:2 1368:1 1398:2
-1 175:1 241:1 262:1 288:1 617:1 623:1 631:1 635:1 706:1 1102:1 1221:1 1254:1 1302:1 1318:1 1319:1 1338:1 1360:1 1361:1 1368:1 1370:1 1398:1
-1 528:2 631:1 1289:2 1368:1 1398:2
-1 711:1 1227:1 1398:2
-1 457:1 1252:1 1398:3
-1 457:1 1252:1 1398:2
-1 175:1 241:1 288:1 306:1 623:1 631:1 635:1 715:1 829:1 1102:1 1175:1 1230:1 1254:1 1302:1 1314:1 1319:1 1338:1 1347:1 1361:1 1368:1 1370:1 1374:1 1398:2
-1 528:2 631:1 1289:2 1368:1 1398:2
-1 528:2 631:1 1289:2 1368:1 1398:2
-1 528:2 631:1 1289:2 1368:1 1398:2
-1 528:2 631:1 1289:2 1368:1 1398:2
-1 241:1 288:1 528:1 623:1 631:1 832:1 1080:1 1289:1 1295:1 1302:1 1320:1 1338:1 1361:1 1368:1 1398:1
-1 241:1 288:1 528:1 534:1 623:1 631:1 829:1 1102:1 1289:1 1302:1 1314:1 1319:1 1338:1 1361:1 1368:1 1398:1
-1 283:1 528:1 623:1 631:1 1289:1 1361:1 1368:1 1398:2
-1 336:1 528:1 623:1 631:1 635:1 1102:1 1289:1 1319:1 1358:1 1361:1 1368:1 1370:1 1398:2
-1 273:1 288:1 528:1 534:1 623:1 631:1 635:1 758:1 878:1 1021:1 1102:1 1261:1 1289:1 1319:1 1338:1 1361:1 1368:1 1370:1 1398:2 1400:62
-1 623:3 631:4 635:1 715:1 1102:2 1230:1 1319:2 1361:3 1368:4 1370:1 1398:5
-1 175:1 202:1 241:1 288:1 306:1 317:1 336:1 528:1 623:1 631:1 635:1 715:1 758:1 795:1 815:1 829:1 849:1 1057:1 1083:1 1102:1 1175:1 1230:1 1254:1 1261:1 1274:1 1289:1 1297:1 1298:1 1302:1 1314:1 1319:1 1329:1 1338:1 1347:1 1354:1 1358:1 1361:1 1368:1 1370:1 1374:1 1398:2
-1 528:2 631:1 1102:1 1289:2 1319:1 1368:1 1398:2
-1 528:2 631:1 1102:1 1289:2 1319:1 1368:1 1398:2
-1 250:1 528:2 623:1 631:1 1102:1 1289:2 1319:1 1361:1 1368:1 1398:4
-1 711:1 1227:1 1398:1
-1 457:1 1252:1 1398:3
-1 288:1 623:1 631:1 1102:1 1319:1 1338:1 1361:1 1368:1 1398:2
-1 175:1 288:1 528:1 631:1 635:1 702:1 1041:1 1102:1 1254:1 1289:1 1319:1 1338:1 1368:1 1370:1 1398:2
-1 175:1 241:1 288:1 623:1 631:1 635:1 1102:1 1125:1 1254:1 1302:1 1319:1 1338:1 1340:1 1361:1 1368:1 1370:1 1398:3
-1 528:2 551:1 631:1 1289:2 1322:1 1368:1 1398:3
-1 711:1 1227:1 1398:1
-1 711:1 1227:1 1398:1
-1 457:1 1252:1 1398:2
-1 175:1 241:1 288:1 336:1 528:1 623:1 631:1 635:1 636:1 694:1 715:1 758:1 864:1 1057:1 1102:1 1125:1 1220:1 1230:1 1254:1 1261:1 1274:1 1289:1 1302:1 1319:1 1338:1 1340:1 1342:1 1358:1 1361:1 1368:1 1370:1 1372:1 1398:1 1400:1
-1 146:1 415:1 437:1 461:1 503:1 528:1 539:1 729:1 826:1 852:1 1134:1 1222:1 1236:1 1241:1 1273:1 1289:1 1307:1 1332:1 1398:3
-1 175:1 241:1 288:1 623:1 631:1 635:1 1102:1 1254:1 1302:1 1319:1 1338:1 1361:1 1368:1 1370:1 1398:3
-1 175:1 241:1 288:1 623:1 631:1 635:1 1102:1 1254:1 1302:1 1319:1 1338:1 1361:1 1368:1 1370:1 1398:2
-1 1398:1
-1 175:1 241:1 288:1 528:1 623:1 631:1 635:1 706:1 1102:1 1221:1 1254:1 1289:1 1302:1 1319:1 1338:1 1361:1 1368:1 1370:1 1398:2
-1 175:1 241:1 288:1 623:1 631:1 635:1 1102:1 1125:1 1254:1 1302:1 1319:1 1338:1 1340:1 1361:1 1368:1 1370:1 1398:2
-1 528:2 631:1 1289:2 1368:1 1398:2
-1 631:1 1136:1 1368:1 1398:2
-1 457:1 1252:1 1398:4
-1 631:1 1368:1 1398:2
-1 153:1 337:1 349:15 528:2 631:1 832:1 1043:227 1289:2 1320:1 1368:1 1398:2
-1 337:1 528:2 631:1 1289:2 1368:1 1398:2
-1 175:1 241:1 288:1 623:1 631:1 635:1 1102:1 1125:1 1254:1 1302:1 1319:1 1338:1 1340:1 1361:1 1368:1 1370:1 1398:3
-1 175:1 241:1 288:1 623:1 631:1 635:1 1102:1 1125:1 1254:1 1302:1 1319:1 1338:1 1340:1 1361:1 1368:1 1370:1 1398:3
-1 175:1 241:1 274:1 336:1 528:1 614:1 631:1 656:1 829:1 864:1 1021:1 1102:1 1254:1 1289:1 1302:1 1314:1 1319:1 1326:1 1342:1 1358:1 1368:1 1398:1
-1 175:1 241:1 391:1 631:1 1102:1 1254:1 1302:1 1319:1 1368:1 1398:1
-1 631:1 1136:1 1368:1 1398:2
-1 146:1 274:1 288:1 395:1 415:1 461:1 503:1 528:1 623:1 631:1 729:1 852:1 938:1 1068:1 1084:1 1102:1 1134:1 1222:1 1236:1 1273:1 1284:1 1289:1 1319:1 1326:1 1332:1 1338:1 1361:1 1368:1 1398:4
-1 631:1 715:1 1102:1 1230:1 1319:1 1368:1 1398:4
-1 146:1 373:1 395:1 415:1 503:1 528:1 699:1 717:1 729:1 789:1 852:1 938:1 988:1 1084:1 1098:1 1134:1 1162:1 1222:1 1223:1 1236:1 1273:1 1289:1 1332:1 1357:1 1398:2
-1 275:1 366:1 631:1 1019:1 1368:1 1398:2
-1 457:1 1252:1 1398:5
-1 288:1 528:1 623:1 631:1 706:1 1079:1 1102:1 1221:1 1289:1 1294:1 1319:1 1338:1 1361:1 1368:1 1398:4
-1 457:1 1252:1 1398:3
-1 528:1 631:1 1289:1 1368:1 1398:6
-1 459:1 631:1 1368:1 1398:4 1400:3
-1 623:2 631:2 635:1 715:1 1102:2 1230:1 1319:2 1361:2 1368:2 1370:1 1398:7
-1 175:1 241:1 288:1 623:1 631:1 635:1 706:1 715:1 1057:1 1102:1 1175:1 1221:1 1230:1 1254:1 1274:1 1302:1 1319:1 1338:1 1361:1 1368:1 1370:1 1374:1 1398:2
-1 241:1 623:1 631:1 1102:1 1175:1 1302:1 1319:1 1361:1 1368:1 1374:1 1398:2
-1 631:1 1368:1 1398:1
-1 175:1 288:1 623:1 631:1 1102:1 1254:1 1319:1 1338:1 1361:1 1368:1 1398:2
-1 175:1 288:1 623:1 631:1 1102:1 1254:1 1319:1 1338:1 1361:1 1368:1 1398:2
-1 175:1 241:1 288:1 623:1 631:1 635:1 1102:1 1125:1 1254:1 1302:1 1319:1 1338:1 1340:1 1361:1 1368:1 1370:1 1398:3
-1 175:1 241:2 288:1 623:2 631:4 635:1 706:1 715:3 758:1 1102:2 1125:1 1175:1 1221:1 1230:3 1254:1 1261:1 1302:2 1319:2 1338:1 1340:1 1361:2 1368:4 1370:1 1374:1 1398:6
-1 146:1 336:1 373:1 415:1 503:1 528:1 729:1 789:1 852:1 938:1 949:1 1006:1 1027:1 1035:1 1068:1 1084:1 1098:1 1134:1 1162:1 1222:1 1236:1 1243:1 1273:1 1284:1 1289:1 1332:1 1357:1 1358:1 1391:1 1398:2
-1 711:1 1227:1 1398:1
-1 175:1 623:1 631:1 706:1 1102:1 1125:1 1221:1 1254:1 1319:1 1340:1 1361:1 1368:1 1398:1
-1 125:1 160:1 195:1 431:1 513:1 631:1 681:1 761:1 805:1 855:1 918:1 1210:1 1264:1 1368:1 1398:2
-1 431:1 528:2 631:1 681:1 761:1 918:1 1264:1 1289:2 1368:1 1398:2
-1 288:1 528:1 623:1 631:1 1102:1 1289:1 1319:1 1338:1 1361:1 1368:1 1398:3
-1 175:1 623:2 631:5 635:1 715:2 1102:2 1125:1 1230:2 1254:1 1319:2 1340:1 1361:2 1368:5 1370:1 1398:6
-1 175:1 623:2 631:4 635:1 706:1 715:2 1102:2 1175:1 1221:1 1230:2 1254:1 1319:2 1361:2 1368:4 1370:1 1374:1 1398:6
-1 631:1 1368:1 1398:2
-1 175:1 241:1 288:1 623:1 631:1 635:1 1102:1 1125:1 1254:1 1302:1 1319:1 1338:1 1340:1 1361:1 1368:1 1370:1 1398:3
-1 631:1 635:1 1102:1 1319:1 1368:1 1370:1 1398:3
-1 175:1 241:1 288:1 623:1 631:1 635:1 1102:1 1125:1 1254:1 1302:1 1319:1 1338:1 1340:1 1361:1 1368:1 1370:1 1398:3
-1 175:1 241:1 288:1 623:1 631:1 635:1 1102:1 1125:1 1254:1 1302:1 1319:1 1338:1 1340:1 1361:1 1368:1 1370:1 1398:3
-1 623:2 631:2 635:1 715:1 1102:2 1230:1 1319:2 1361:2 1368:2 1370:1 1398:7
-1 174:1 631:1 1368:1 1398:2
-1 175:1 241:1 288:1 623:1 631:1 635:1 1102:1 1125:1 1254:1 1302:1 1319:1 1338:1 1340:1 1361:1 1368:1 1370:1 1398:3
-1 175:1 241:1 623:2 631:5 635:1 706:1 715:3 1102:2 1221:1 1230:3 1254:1 1302:1 1319:2 1361:2 1368:5 1370:1 1398:6
-1 175:1 241:1 623:2 631:3 635:1 706:1 715:1 1102:2 1125:1 1221:1 1230:1 1254:1 1302:1 1319:2 1340:1 1361:2 1368:3 1370:1 1398:6
-1 457:1 1252:1 1398:3
-1 175:1 241:1 288:1 623:1 631:1 635:1 1102:1 1125:1 1254:1 1302:1 1319:1 1338:1 1340:1 1361:1 1368:1 1370:1 1398:3
-1 241:1 288:1 528:1 631:1 1041:1 1102:1 1183:1 1289:1 1302:1 1319:1 1338:1 1368:1 1381:1 1398:2
-1 175:1 241:1 288:1 344:1 631:1 713:1 1083:1 1102:1 1177:1 1228:1 1254:1 1298:1 1302:1 1319:1 1338:1 1363:1 1368:1 1375:1 1398:3 1400:2
-1 711:1 1227:1 1398:1
-1 457:1 1252:1 1398:3
-1 457:1 1252:1 1398:3
-1 528:2 631:1 1289:2 1368:1 1398:2
-1 175:1 241:1 288:1 631:1 635:1 706:1 829:1 1102:1 1221:1 1254:1 1302:1 1314:1 1319:1 1338:1 1368:1 1370:1 1398:2
-1 528:1 631:1 1289:1 1368:1 1398:2
-1 528:1 631:1 1175:1 1289:1 1368:1 1374:1 1398:2
-1 159:1 175:1 241:1 288:1 367:1 404:1 623:2 631:5 635:1 706:1 715:3 853:1 1102:2 1125:1 1175:1 1221:1 1230:3 1245:1 1254:1 1302:1 1319:2 1333:1 1338:1 1340:1 1361:2 1368:5 1370:1 1374:1 1398:6
-1 262:1 631:1 1102:1 1318:1 1319:1 1368:1 1398:2
-1 129:1 146:1 241:1 415:1 495:1 503:1 528:1 623:1 631:1 713:1 715:1 717:1 729:1 832:1 1134:1 1202:1 1222:1 1228:1 1230:1 1236:1 1269:1 1273:1 1289:1 1302:1 1320:1 1361:1 1368:1 1398:2
-1 528:2 631:1 1289:2 1368:1 1398:2
-1 175:1 241:1 623:1 631:1 635:1 706:1 1102:1 1175:1 1183:1 1221:1 1254:1 1302:1 1319:1 1361:1 1368:1 1370:1 1374:1 1381:1 1398:2
-1 623:2 631:2 635:1 715:1 1102:2 1230:1 1319:2 1361:2 1368:2 1370:1 1398:7
-1 631:1 1136:1 1368:1 1398:3
-1 457:1 1252:1 1398:4
-1 159:1 175:1 241:1 288:1 306:1 344:1 558:1 623:1 631:1 706:1 715:1 829:1 1079:1 1102:1 1125:1 1175:1 1221:1 1230:1 1245:1 1254:1 1294:1 1302:1 1314:1 1319:1 1330:1 1338:1 1340:1 1347:1 1361:1 1363:1 1368:1 1374:1 1398:1
-1 623:2 631:2 635:1 715:1 1102:2 1230:1 1319:2 1361:2 1368:2 1370:1 1398:7
-1 175:1 241:1 288:1 528:2 623:1 631:1 761:1 1079:1 1102:1 1175:1 1254:1 1264:1 1289:2 1294:1 1302:1 1319:1 1338:1 1361:1 1368:1 1374:1 1398:3
-1 175:1 288:1 623:1 631:1 635:1 706:1 1102:1 1221:1 1254:1 1319:1 1338:1 1361:1 1368:1 1370:1 1398:2
-1 711:1 1227:1 1398:1
-1 445:1 631:1 1368:1 1398:2
-1 146:1 336:1 415:1 503:1 528:1 623:1 631:1 729:1 832:1 852:1 1134:1 1222:1 1236:1 1273:1 1289:1 1320:1 1332:1 1358:1 1361:1 1368:1 1398:3
-1 146:1 241:1 336:1 415:1 437:1 503:1 528:1 539:1 623:1 631:1 717:1 729:1 852:1 1115:1 1134:1 1202:1 1222:1 1236:1 1241:1 1273:1 1289:1 1302:1 1307:1 1331:1 1332:1 1358:1 1361:1 1368:1 1398:2
-1 175:1 241:1 288:1 623:2 631:4 635:1 706:1 715:3 1102:2 1125:1 1221:1 1230:3 1254:1 1302:1 1319:2 1338:1 1340:1 1361:2 1368:4 1370:1 1398:6
-1 528:2 631:1 1102:1 1148:1 1175:1 1289:2 1319:1 1368:1 1374:1 1398:2
-1 146:1 336:1 373:1 415:1 503:1 528:1 729:1 789:1 852:1 938:1 949:1 1079:1 1084:1 1098:1 1134:1 1162:1 1222:1 1236:1 1273:1 1289:1 1294:1 1332:1 1357:1 1358:1 1391:1 1398:2
-1 175:1 623:1 631:1 635:1 1102:1 1125:1 1254:1 1319:1 1340:1 1361:1 1368:1 1370:1 1398:3
-1 175:1 241:1 528:1 591:1 631:1 635:1 706:1 715:1 1057:1 1102:1 1221:1 1230:1 1254:1 1274:1 1289:1 1302:1 1319:1 1368:1 1370:1 1398:2
-1 175:1 262:1 288:1 302:1 617:1 631:1 636:1 987:1 1102:1 1177:1 1254:1 1318:1 1319:1 1338:1 1360:1 1368:1 1372:1 1375:1 1398:2 1400:69
-1 146:1 175:1 241:1 257:1 288:1 336:1 344:1 415:1 461:1 495:1 503:1 528:1 623:1 630:1 631:1 635:1 706:1 713:1 715:1 729:1 758:1 829:1 849:1 852:1 1076:1 1080:1 1084:1 1102:1 1125:1 1134:1 1202:1 1221:1 1222:1 1228:1 1230:1 1236:1 1254:1 1261:1 1269:1 1273:1 1289:1 1295:1 1302:1 1314:1 1319:1 1329:1 1332:1 1338:1 1340:1 1358:1 1361:1 1363:1 1368:1 1370:1 1398:1
-1 146:1 175:1 241:1 257:1 288:1 336:1 415:1 461:1 495:1 503:1 528:1 623:1 630:1 631:1 713:1 715:1 717:1 729:1 758:1 829:1 849:1 852:1 1076:1 1080:1 1084:1 1102:1 1134:1 1168:1 1202:1 1222:1 1228:1 1230:1 1236:1 1254:1 1261:1 1269:1 1273:1 1289:1 1295:1 1302:1 1314:1 1319:1 1329:1 1332:1 1338:1 1358:1 1361:1 1368:1 1398:1
-1 457:1 1252:1 1398:2
-1 528:1 631:1 633:1 1289:1 1368:1 1398:3
-1 175:1 288:1 336:1 395:1 528:1 623:1 631:1 715:1 829:1 871:1 924:1 1021:1 1102:1 1125:1 1230:1 1254:1 1289:1 1314:1 1319:1 1338:1 1340:1 1345:1 1358:1 1361:1 1368:1 1398:2 1400:10
-1 631:1 1102:1 1186:1 1319:1 1368:1 1398:2
-1 241:1 457:1 562:1 623:1 631:1 715:1 1102:1 1230:1 1252:1 1302:1 1319:1 1361:1 1368:1 1398:1
-1 175:1 631:1 1102:1 1186:1 1254:1 1319:1 1368:1 1398:2
-1 146:1 228:1 274:1 336:1 373:1 395:1 415:1 461:1 503:1 528:1 621:1 631:1 717:1 729:1 789:1 852:1 938:1 940:1 949:1 1031:1 1068:1 1134:1 1162:1 1222:1 1236:1 1257:1 1273:1 1284:1 1286:1 1289:1 1326:1 1332:1 1357:1 1358:1 1368:1 1391:1 1398:2
-1 241:1 288:1 324:1 336:1 484:1 495:1 528:1 614:1 623:1 631:1 635:1 706:1 713:1 715:1 829:1 832:1 864:1 871:1 951:1 1083:1 1095:1 1102:1 1221:1 1228:1 1230:1 1262:1 1269:1 1289:1 1298:1 1302:1 1314:1 1315:1 1319:1 1320:1 1338:1 1342:1 1345:1 1358:1 1361:1 1368:1 1370:1 1392:1 1398:1
-1 631:1 1102:1 1186:1 1319:1 1368:1 1398:2
-1 395:1 528:1 631:1 1289:1 1368:1 1398:2
-1 241:1 631:1 635:1 706:1 1102:1 1221:1 1302:1 1319:1 1368:1 1370:1 1398:3
-1 180:1 528:1 631:1 1289:1 1368:1 1398:4
-1 631:1 1102:1 1319:1 1368:1 1398:2
-1 571:1 631:1 691:5 873:21 1136:1 1368:1 1398:3
-1 571:1 631:1 691:5 873:6 1136:1 1368:1 1398:3
-1 528:1 631:1 1102:1 1176:1 1289:1 1319:1 1368:1 1398:1
-1 528:1 631:1 662:1 1289:1 1368:1 1398:2
-1 528:1 631:1 662:1 1289:1 1368:1 1398:2
-1 175:1 241:1 288:1 623:1 631:1 635:1 1102:1 1125:1 1254:1 1302:1 1319:1 1338:1 1340:1 1361:1 1368:1 1370:1 1398:2
-1 241:1 336:1 528:1 623:1 631:1 1102:1 1289:1 1302:1 1319:1 1358:1 1361:1 1368:1 1398:3
-1 175:1 241:1 288:1 336:1 453:1 528:1 623:1 631:1 635:1 706:1 710:1 715:1 795:1 829:1 871:1 1021:1 1102:1 1221:1 1226:1 1230:1 1251:1 1254:1 1289:1 1302:1 1314:1 1319:1 1338:1 1345:1 1358:1 1361:1 1368:1 1370:1 1398:2
-1 146:1 336:1 415:1 495:1 503:1 528:1 623:1 631:1 713:1 717:1 729:1 852:1 1134:1 1222:1 1228:1 1236:1 1269:1 1273:1 1289:1 1332:1 1358:1 1361:1 1368:1 1398:1
-1 1398:5
-1 1398:1
-1 146:1 247:1 274:1 288:1 336:1 355:1 382:1 395:1 415:1 455:1 503:1 510:1 514:1 528:1 623:1 631:1 635:1 713:1 715:1 729:1 789:1 812:1 829:1 852:1 938:1 949:1 1068:1 1102:1 1134:1 1162:1 1222:1 1228:1 1230:1 1236:1 1273:1 1279:1 1284:1 1289:1 1292:1 1310:1 1314:1 1319:1 1326:1 1332:1 1338:1 1357:1 1358:1 1361:1 1368:1 1370:1 1373:1 1391:1 1396:1 1398:1
-1 175:1 241:1 262:1 288:1 623:1 631:1 715:1 829:1 832:1 864:1 1083:1 1102:1 1125:1 1230:1 1254:1 1298:1 1302:1 1314:1 1318:1 1319:1 1320:1 1338:1 1340:1 1342:1 1361:1 1368:1 1398:2 1400:1
-1 1398:1
-1 146:1 175:1 241:1 247:1 274:1 288:1 336:1 373:1 395:1 415:1 437:1 461:1 503:1 514:1 528:1 539:1 568:1 623:1 631:1 635:1 706:1 715:1 729:1 746:1 789:1 829:1 832:1 852:1 1021:1 1102:1 1115:1 1134:1 1162:1 1175:1 1221:1 1222:1 1230:1 1236:1 1241:1 1254:1 1256:1 1273:1 1279:1 1289:1 1302:1 1307:1 1310:1 1314:1 1319:1 1320:1 1326:1 1331:1 1332:1 1338:1 1357:1 1358:1 1361:1 1368:1 1370:1 1374:1 1398:1
-1 175:1 241:1 288:3 623:2 631:3 635:1 636:4 706:2 715:1 1072:1 1102:4 1125:1 1221:2 1230:1 1254:1 1302:1 1319:4 1338:3 1340:1 1361:2 1368:3 1370:1 1372:4 1398:6
-1 175:1 241:1 262:1 623:1 631:1 636:1 715:1 832:1 1057:1 1102:1 1230:1 1254:1 1274:1 1302:1 1318:1 1319:1 1320:1 1361:1 1368:1 1372:1 1398:1
-1 129:1 170:1 175:1 241:1 288:1 336:1 528:1 623:1 631:1 635:1 706:1 713:1 715:1 829:1 832:1 864:1 1079:1 1080:1 1102:1 1221:1 1228:1 1230:1 1254:1 1289:1 1294:1 1295:1 1302:1 1314:1 1319:1 1320:1 1338:1 1342:1 1358:1 1361:1 1368:1 1370:1 1398:1
-1 146:1 241:1 272:1 288:1 295:1 318:1 336:1 365:1 415:1 417:1 437:1 461:1 484:1 491:1 495:1 503:1 514:1 539:1 623:1 630:1 631:1 649:1 713:1 715:1 722:1 729:1 829:1 832:1 849:1 852:1 1038:1 1079:1 1080:1 1125:1 1134:1 1222:1 1228:1 1230:1 1236:1 1239:1 1241:1 1262:1 1269:1 1273:1 1279:1 1294:1 1295:1 1302:1 1307:1 1314:1 1320:1 1325:1 1329:1 1332:1 1338:1 1340:1 1341:1 1352:1 1358:1 1361:1 1368:1 1382:1 1384:1 1398:1
-1 241:1 288:1 528:1 623:1 631:1 715:1 829:1 832:1 1102:1 1230:1 1289:1 1302:1 1314:1 1319:1 1320:1 1338:1 1361:1 1368:1 1398:2
-1 146:1 247:1 274:1 373:1 395:1 415:1 461:1 503:1 528:1 715:1 729:1 852:1 940:1 1006:1 1027:1 1068:1 1076:1 1102:1 1134:1 1162:1 1222:1 1230:1 1236:1 1243:1 1273:1 1284:1 1289:1 1310:1 1319:1 1326:1 1332:1 1357:1 1398:1
-1 119:1 175:1 241:1 288:1 311:1 336:1 340:1 344:1 528:1 623:1 631:1 635:1 706:1 713:1 715:1 722:1 829:1 832:1 858:1 911:1 951:1 1079:1 1083:1 1102:1 1175:1 1221:1 1228:1 1230:1 1239:1 1254:1 1289:1 1294:1 1298:1 1302:1 1314:1 1319:1 1320:1 1334:1 1338:1 1349:1 1358:1 1361:1 1362:1 1363:1 1368:1 1370:1 1374:1 1392:1 1398:2
-1 623:1 631:1 1102:1 1319:1 1361:1 1368:1 1398:1
-1 217:1 278:1 292:1 528:2 631:1 712:1 1173:1 1289:2 1368:1 1398:2
-1 129:1 146:1 148:1 198:1 274:1 336:1 373:1 382:1 395:1 415:1 461:1 503:1 528:1 623:1 631:1 715:1 717:1 729:1 789:1 852:1 938:1 940:1 949:1 1034:1 1102:1 1134:1 1162:1 1222:1 1230:1 1236:1 1238:1 1273:1 1289:1 1319:1 1326:1 1332:1 1357:1 1358:1 1361:1 1368:1 1391:1 1396:1 1398:2 1400:1
-1 175:1 241:1 288:1 623:1 631:1 635:1 1102:1 1125:1 1254:1 1302:1 1319:1 1338:1 1340:1 1361:1 1368:1 1370:1 1398:2
-1 129:1 146:1 274:1 331:1 336:1 373:1 415:1 503:1 528:1 632:1 729:1 789:1 826:1 852:1 938:1 940:1 995:1 1031:1 1064:1 1068:1 1076:1 1084:1 1134:1 1162:1 1222:1 1233:1 1236:1 1257:1 1273:1 1284:1 1289:1 1326:1 1332:1 1357:1 1358:1 1398:3
-1 146:1 175:1 192:1 256:1 274:1 336:1 373:1 395:1 415:1 503:1 528:1 570:1 729:1 792:1 852:1 949:1 1006:1 1027:1 1031:1 1084:1 1102:1 1134:1 1222:1 1236:1 1243:1 1254:1 1257:1 1273:1 1276:1 1289:1 1316:1 1319:1 1326:1 1332:1 1339:1 1358:1 1391:1 1398:3
-1 175:1 241:1 288:1 623:1 631:1 635:1 1102:1 1125:1 1254:1 1302:1 1319:1 1338:1 1340:1 1361:1 1368:1 1370:1 1398:2
-1 262:1 631:1 960:1 1318:1 1368:1 1398:2 1400:2
-1 623:1 631:1 706:1 1079:1 1102:1 1221:1 1294:1 1319:1 1361:1 1368:1 1398:2
-1 175:1 241:1 288:1 623:1 631:1 635:1 1102:1 1254:1 1302:1 1319:1 1338:1 1361:1 1368:1 1370:1 1398:2
-1 457:1 1252:1 1398:3
-1 631:1 1078:1 1368:1 1398:2
-1 431:1 528:2 631:1 681:1 761:1 918:1 1011:1 1264:1 1289:2 1368:1 1398:2
-1 175:1 241:1 288:2 623:2 631:3 635:1 715:1 1102:2 1175:1 1230:1 1254:1 1302:1 1319:2 1338:2 1361:2 1368:3 1370:1 1374:1 1398:6
-1 175:1 241:1 288:1 528:2 623:1 631:1 635:1 706:1 715:1 1102:1 1221:1 1230:1 1254:1 1289:2 1302:1 1319:1 1338:1 1361:1 1368:1 1370:1 1398:2
-1 175:1 241:1 288:1 623:1 631:1 635:1 1102:1 1125:1 1254:1 1302:1 1319:1 1338:1 1340:1 1361:1 1368:1 1370:1 1398:3
-1 288:1 528:1 623:1 631:1 1102:1 1289:1 1319:1 1338:1 1361:1 1368:1 1398:4
-1 153:1 175:1 241:1 288:1 587:1 623:1 631:1 635:1 706:1 860:1 1102:1 1136:2 1175:1 1221:1 1254:1 1302:1 1319:1 1338:1 1361:1 1368:1 1370:1 1374:1 1398:2
-1 146:1 199:1 247:1 274:1 336:1 373:1 395:1 415:1 461:1 503:1 528:1 570:1 646:1 658:1 715:1 729:1 746:1 770:1 789:1 792:1 852:1 938:1 940:1 970:1 1027:1 1031:1 1068:1 1080:1 1084:1 1133:1 1134:1 1144:1 1211:1 1215:1 1222:1 1230:1 1236:1 1256:1 1257:1 1273:1 1276:1 1284:1 1289:1 1295:1 1310:1 1326:1 1332:1 1339:1 1344:1 1348:1 1358:1 1398:2
-1 146:1 199:1 247:1 274:1 373:1 395:1 415:1 437:1 461:1 503:1 528:1 539:1 570:1 646:1 729:1 746:1 770:1 789:1 792:1 852:1 938:1 949:1 970:1 1027:1 1031:1 1068:1 1084:1 1134:1 1211:1 1215:1 1222:1 1236:1 1241:1 1256:1 1257:1 1273:1 1276:1 1284:1 1289:1 1307:1 1310:1 1326:1 1332:1 1339:1 1391:1 1398:3
-1 631:1 1368:1 1398:1
-1 528:2 631:1 1289:2 1368:1 1398:2
-1 623:2 631:2 635:1 715:1 1102:2 1230:1 1319:2 1361:2 1368:2 1370:1 1398:7
-1 175:1 288:1 528:1 623:1 631:1 635:1 1041:1 1102:1 1175:1 1254:1 1289:1 1319:1 1338:1 1361:1 1368:1 1370:1 1374:1 1398:2
-1 336:1 623:1 631:1 1358:1 1361:1 1368:1 1398:1
-1 241:1 528:1 631:1 1041:1 1102:1 1175:1 1289:1 1302:1 1319:1 1368:1 1374:1 1398:2
-1 175:1 241:1 288:1 631:1 635:1 706:1 715:1 1079:1 1102:1 1125:1 1221:1 1230:1 1254:1 1294:1 1302:1 1319:1 1338:1 1340:1 1368:1 1370:1 1398:5
-1 144:1 232:1 241:1 288:1 528:1 631:1 715:1 749:1 844:1 972:1 1049:1 1102:1 1230:1 1289:1 1302:1 1319:1 1338:1 1368:1 1398:2
-1 175:1 623:1 631:1 635:1 1102:1 1254:1 1319:1 1361:1 1368:1 1370:1 1398:2
-1 457:1 1252:1 1398:3
-1 551:1 623:1 631:1 1322:1 1361:1 1368:1 1398:1
-1 288:1 528:2 623:1 631:1 1102:1 1289:2 1319:1 1338:1 1361:1 1368:1 1398:4 1400:7
-1 262:1 631:1 855:1 918:1 1079:1 1102:1 1175:1 1294:1 1318:1 1319:1 1368:1 1374:1 1398:1 1400:771
-1 175:1 288:1 528:1 551:1 623:1 631:1 635:1 702:1 996:1 1041:1 1058:1 1102:1 1151:1 1234:1 1254:1 1289:1 1319:1 1322:1 1338:1 1361:1 1368:1 1370:1 1398:4
-1 623:2 631:2 635:1 715:1 1102:2 1230:1 1319:2 1361:2 1368:2 1370:1 1398:7
-1 551:1 623:1 631:1 1102:1 1319:1 1322:1 1361:1 1368:1 1398:1
-1 551:1 623:1 631:1 1102:1 1319:1 1322:1 1361:1 1368:1 1398:3
-1 551:1 623:1 631:1 1322:1 1361:1 1368:1 1398:1
-1 551:1 623:1 631:1 1322:1 1361:1 1368:1 1398:1
-1 551:1 623:1 631:1 1322:1 1361:1 1368:1 1398:1
-1 175:1 241:1 256:1 288:1 623:1 631:1 635:1 636:1 706:1 715:1 758:1 829:1 1057:1 1102:1 1125:1 1175:1 1221:1 1230:1 1254:1 1261:1 1274:1 1302:1 1314:1 1316:1 1319:1 1338:1 1340:1 1361:1 1368:1 1370:1 1372:1 1374:1 1398:1
-1 175:1 241:1 288:1 623:1 631:1 635:1 1102:1 1125:1 1254:1 1302:1 1319:1 1338:1 1340:1 1361:1 1368:1 1370:1 1398:2
-1 175:1 288:1 528:2 631:1 635:1 706:1 1102:1 1175:1 1221:1 1254:1 1289:2 1319:1 1338:1 1368:1 1370:1 1374:1 1398:3
-1 241:1 262:1 623:1 631:1 715:1 1102:1 1230:1 1302:1 1318:1 1319:1 1361:1 1368:1 1398:1
-1 175:1 241:1 259:1 271:1 288:1 588:1 623:1 631:1 635:1 706:1 996:1 1102:1 1106:1 1151:1 1175:1 1221:1 1234:1 1254:1 1302:1 1317:1 1319:1 1324:1 1338:1 1361:1 1368:1 1370:1 1374:1 1398:2 1400:2
-1 457:1 1252:1 1398:3
-1 175:1 336:1 528:1 564:1 631:1 635:1 758:1 1102:1 1254:1 1261:1 1289:1 1319:1 1336:1 1358:1 1368:1 1370:1 1398:1
-1 175:1 288:1 295:1 318:1 336:1 395:1 623:1 631:1 649:1 715:1 829:1 1057:1 1095:1 1100:1 1102:1 1175:1 1230:1 1254:1 1274:1 1314:1 1315:1 1319:1 1338:1 1341:1 1352:1 1358:1 1361:1 1368:1 1374:1 1382:1 1398:2
-1 175:1 288:1 631:1 635:1 1102:1 1254:1 1319:1 1338:1 1368:1 1370:1 1398:3
-1 227:1 267:1 528:1 575:1 631:1 720:1 943:1 1036:1 1289:1 1368:1 1398:4
-1 528:1 623:1 631:1 1102:1 1289:1 1319:1 1361:1 1368:1 1398:5
-1 336:1 478:1 528:1 623:1 631:1 722:1 1079:1 1102:1 1239:1 1260:1 1289:1 1294:1 1319:1 1358:1 1361:1 1368:1 1398:2
-1 457:1 1252:1 1398:3
-1 288:1 336:1 528:1 623:1 631:1 1289:1 1338:1 1358:1 1361:1 1368:1 1398:2
-1 196:1 528:2 631:1 720:1 775:1 890:1 943:1 1036:1 1289:2 1368:1 1398:3
-1 288:1 528:1 623:1 631:1 1102:1 1289:1 1319:1 1338:1 1361:1 1368:1 1398:3
-1 288:1 631:1 715:1 1102:1 1230:1 1319:1 1338:1 1368:1 1398:2
-1 124:1 241:1 288:1 453:1 623:1 631:1 678:1 715:1 829:1 1102:1 1175:1 1230:1 1251:1 1302:1 1314:1 1319:1 1338:1 1361:1 1368:1 1374:1 1398:1
-1 124:1 175:1 241:1 288:1 623:1 631:1 635:1 678:1 715:1 722:1 758:1 806:1 828:1 829:1 832:1 1079:1 1102:1 1125:1 1230:1 1239:1 1254:1 1261:1 1294:1 1302:1 1312:1 1314:1 1319:1 1320:1 1338:1 1340:1 1361:1 1368:1 1370:1 1398:1 1400:20
-1 124:1 241:1 623:1 631:1 678:1 1102:1 1302:1 1319:1 1361:1 1368:1 1398:1
-1 124:1 241:1 288:1 631:1 635:1 678:1 715:1 806:1 1102:1 1230:1 1302:1 1319:1 1338:1 1368:1 1370:1 1398:2
-1 118:1 124:1 175:1 241:1 288:1 344:1 623:1 631:1 635:1 678:1 715:1 758:1 829:1 1079:1 1102:1 1125:1 1230:1 1254:1 1261:1 1294:1 1302:1 1314:1 1319:1 1338:1 1340:1 1361:1 1363:1 1368:1 1370:1 1398:1 1400:326
-1 124:1 135:1 175:1 187:1 241:1 288:1 470:1 623:1 631:1 635:1 678:1 710:1 715:1 744:1 758:1 842:1 941:1 1033:1 1102:1 1138:1 1226:1 1230:1 1254:1 1261:1 1302:1 1319:1 1338:1 1361:1 1368:1 1370:1 1398:1
-1 457:1 1252:1 1398:3
-1 457:1 1252:1 1398:3
-1 137:1 146:1 274:1 336:1 373:1 415:1 421:1 430:1 466:1 480:1 503:1 528:1 653:1 682:1 729:1 746:1 789:1 818:1 847:1 852:1 893:1 938:1 940:1 949:1 1031:1 1077:1 1084:1 1098:1 1107:1 1126:1 1134:1 1144:1 1158:1 1162:1 1190:1 1222:1 1236:1 1256:1 1257:1 1273:1 1289:1 1326:1 1332:1 1348:1 1357:1 1358:1 1391:1 1398:1
-1 528:1 631:1 635:1 853:1 911:1 1041:1 1079:1 1102:1 1289:1 1294:1 1319:1 1333:1 1362:1 1368:1 1370:1 1398:2
-1 336:1 528:1 623:1 631:1 722:1 1239:1 1289:1 1358:1 1361:1 1368:1 1398:2
-1 241:1 453:1 528:1 623:1 631:1 1251:1 1289:1 1302:1 1361:1 1368:1 1398:2
-1 146:1 247:1 336:1 395:1 415:1 503:1 528:1 631:1 729:1 832:1 852:1 1134:1 1222:1 1236:1 1273:1 1289:1 1310:1 1320:1 1332:1 1358:1 1368:1 1398:1
-1 175:1 241:1 551:1 623:2 631:3 635:1 715:1 1102:2 1230:1 1254:1 1302:1 1319:2 1322:1 1361:2 1368:3 1370:1 1398:6
-1 146:1 336:1 355:1 395:1 410:1 415:1 503:1 528:1 646:1 715:1 729:1 832:1 852:1 940:1 988:1 1068:1 1084:1 1134:1 1222:1 1223:1 1230:1 1236:1 1273:1 1284:1 1289:1 1320:1 1332:1 1358:1 1373:1 1398:1
-1 146:1 274:1 336:1 373:1 415:1 421:1 430:1 503:1 528:1 653:1 682:1 722:1 729:1 789:1 852:1 853:1 938:1 949:1 1031:1 1064:1 1068:1 1084:1 1098:1 1134:1 1144:1 1162:1 1190:1 1222:1 1236:1 1239:1 1257:1 1273:1 1284:1 1289:1 1326:1 1332:1 1333:1 1348:1 1357:1 1358:1 1391:1 1398:2
-1 146:1 415:1 503:1 528:1 729:1 852:1 1031:1 1134:1 1222:1 1236:1 1257:1 1273:1 1289:1 1332:1 1398:3
-1 146:1 274:1 291:1 336:1 373:1 415:1 503:1 528:1 722:1 729:1 789:1 852:1 882:1 1077:1 1084:1 1111:1 1134:1 1162:1 1222:1 1236:1 1239:1 1273:1 1289:1 1326:1 1332:1 1357:1 1358:1 1398:2
-1 623:2 631:2 635:1 715:1 1102:2 1230:1 1319:2 1361:2 1368:2 1370:1 1398:7
-1 146:1 175:1 415:1 503:1 528:1 631:1 729:1 829:1 852:1 929:1 1102:1 1134:1 1222:1 1236:1 1254:1 1273:1 1289:1 1314:1 1319:1 1332:1 1368:1 1398:2
-1 288:1 528:1 623:1 631:1 1109:1 1289:1 1338:1 1361:1 1368:1 1398:3
-1 146:1 274:1 336:1 373:1 395:1 415:1 430:1 503:1 528:1 715:1 729:1 789:1 852:1 938:1 940:1 949:1 1006:1 1031:1 1068:1 1084:1 1098:1 1134:1 1162:1 1222:1 1230:1 1236:1 1243:1 1257:1 1273:1 1284:1 1289:1 1326:1 1332:1 1357:1 1358:1 1391:1 1398:3 1400:23
-1 146:1 228:1 373:1 415:1 503:1 528:1 722:1 729:1 789:1 852:1 938:1 940:1 949:1 1058:1 1068:1 1079:1 1084:1 1098:1 1111:1 1134:1 1162:1 1222:1 1236:1 1239:1 1273:1 1284:1 1286:1 1289:1 1294:1 1332:1 1357:1 1391:1 1398:2
-1 175:1 288:1 623:1 631:1 635:1 706:1 1102:1 1221:1 1254:1 1319:1 1338:1 1361:1 1368:1 1370:1 1398:2
-1 457:1 1252:1 1398:4
-1 146:1 288:1 336:1 373:1 395:1 415:1 503:1 528:1 631:1 729:1 826:1 852:1 940:1 1068:1 1084:1 1102:1 1134:1 1222:1 1236:1 1273:1 1284:1 1289:1 1319:1 1332:1 1338:1 1358:1 1368:1 1398:2
-1 457:1 1252:1 1398:3
-1 631:1 1368:1 1398:3
-1 175:1 241:1 271:1 288:1 623:1 631:1 635:1 706:1 715:1 829:1 1079:1 1102:1 1221:1 1230:1 1254:1 1294:1 1302:1 1314:1 1319:1 1324:1 1338:1 1361:1 1368:1 1370:1 1398:3
-1 457:1 1252:1 1398:2
-1 528:2 631:1 1079:1 1289:2 1294:1 1368:1 1398:2
-1 528:2 631:1 1079:1 1289:2 1294:1 1368:1 1398:2
-1 623:1 631:1 1079:1 1102:1 1294:1 1319:1 1361:1 1368:1 1398:2
-1 457:1 1252:1 1398:3
-1 218:1 318:1 336:1 535:1 631:1 709:1 1180:1 1182:1 1225:1 1277:1 1299:1 1352:1 1358:1 1368:1 1376:1 1379:1 1398:4
-1 175:1 631:1 1102:1 1254:1 1319:1 1368:1 1398:3
-1 631:1 1102:1 1319:1 1368:1 1398:1
-1 146:1 241:1 274:1 415:1 461:1 495:1 503:1 528:1 623:1 631:1 713:1 715:1 717:1 729:1 789:1 826:1 852:1 883:1 1068:1 1076:1 1084:1 1102:1 1107:1 1134:1 1202:1 1222:1 1228:1 1230:1 1236:1 1269:1 1273:1 1284:1 1289:1 1302:1 1319:1 1326:1 1332:1 1361:1 1368:1 1398:1 1400:9
-1 223:1 336:1 421:1 528:1 623:1 631:1 832:1 1079:1 1102:1 1126:1 1282:1 1289:1 1294:1 1319:1 1320:1 1358:1 1361:1 1368:1 1398:1
-1 124:1 175:1 241:1 288:1 623:1 631:1 635:1 678:1 715:1 806:1 828:1 829:1 1102:1 1125:1 1230:1 1254:1 1302:1 1312:1 1314:1 1319:1 1338:1 1340:1 1361:1 1368:1 1370:1 1398:1
-1 175:1 241:1 288:1 569:1 623:1 631:1 635:1 706:1 715:1 853:1 1102:1 1125:1 1175:1 1221:1 1230:1 1254:1 1302:1 1319:1 1333:1 1337:1 1338:1 1340:1 1361:1 1368:1 1370:1 1374:1 1398:5
-1 447:1 600:1 631:1 754:1 759:1 906:1 1102:1 1175:1 1319:1 1368:1 1374:1 1398:2
-1 175:1 241:1 288:1 623:1 631:1 635:1 1102:1 1125:1 1254:1 1302:1 1319:1 1338:1 1340:1 1361:1 1368:1 1370:1 1398:3
-1 220:1 288:1 330:1 413:1 511:1 623:1 631:1 664:1 781:1 841:1 989:1 998:1 1102:1 1159:1 1319:1 1338:1 1361:1 1368:1 1398:4
-1 175:1 241:1 288:1 336:1 528:1 623:1 631:1 635:1 706:1 715:1 829:1 1102:1 1125:1 1221:1 1230:1 1254:1 1289:1 1302:1 1314:1 1319:1 1338:1 1340:1 1358:1 1361:1 1368:1 1370:1 1398:3
-1 175:1 241:1 288:1 495:1 623:1 631:1 635:1 701:1 706:1 713:1 829:1 1102:1 1150:1 1221:1 1228:1 1254:1 1269:1 1302:1 1314:1 1319:1 1338:1 1350:1 1361:1 1368:1 1370:1 1398:1
-1 146:1 175:1 288:1 336:1 395:1 415:1 437:1 461:1 503:1 514:1 528:1 539:1 568:1 623:1 631:1 635:1 706:1 715:1 729:1 804:1 829:1 852:1 1084:1 1102:1 1115:1 1134:1 1162:1 1221:1 1222:1 1230:1 1236:1 1241:1 1254:1 1273:1 1279:1 1285:1 1289:1 1307:1 1314:1 1319:1 1331:1 1332:1 1338:1 1357:1 1358:1 1361:1 1368:1 1370:1 1398:2
-1 175:1 623:1 631:1 706:1 1102:1 1125:1 1221:1 1254:1 1319:1 1340:1 1361:1 1368:1 1398:2
-1 175:1 288:1 623:1 631:1 635:1 706:1 829:1 1102:1 1221:1 1254:1 1314:1 1319:1 1338:1 1361:1 1368:1 1370:1 1398:2
-1 175:1 615:1 623:2 631:4 635:1 715:2 1102:2 1125:1 1230:2 1254:1 1319:2 1340:1 1361:2 1368:4 1370:1 1398:6
-1 175:1 241:1 288:1 623:1 631:1 635:1 1102:1 1254:1 1302:1 1319:1 1338:1 1361:1 1368:1 1370:1 1398:2
-1 325:1 528:1 631:1 1289:1 1368:1 1398:3
-1 175:1 241:1 288:1 623:1 631:1 635:1 1102:1 1125:1 1254:1 1302:1 1319:1 1338:1 1340:1 1361:1 1368:1 1370:1 1398:2
-1 146:1 274:1 336:1 365:1 373:1 415:1 478:1 503:1 528:1 729:1 852:1 938:1 949:1 1031:1 1079:1 1084:1 1134:1 1144:1 1222:1 1236:1 1257:1 1260:1 1273:1 1289:1 1294:1 1326:1 1332:1 1348:1 1358:1 1384:1 1391:1 1398:3
-1 457:1 1252:1 1398:3
-1 711:1 1227:1 1398:1
-1 175:1 528:1 631:1 1102:1 1254:1 1289:1 1319:1 1368:1 1398:2
-1 457:1 1252:1 1398:3
-1 457:1 1252:1 1398:3
-1 457:1 1252:1 1398:3
-1 457:1 1252:1 1398:3
-1 457:1 1252:1 1398:3
-1 457:1 1252:1 1398:3
-1 457:1 1252:1 1398:3
-1 528:2 552:1 631:1 1289:2 1368:1 1398:2
-1 623:1 631:1 635:1 829:1 1102:1 1177:1 1314:1 1319:1 1361:1 1368:1 1370:1 1375:1 1398:1
-1 528:1 631:1 1102:1 1289:1 1319:1 1368:1 1398:5
-1 457:1 1252:1 1398:3
-1 175:1 241:1 288:1 528:1 551:1 623:1 631:1 635:1 706:1 715:1 1079:1 1102:1 1221:1 1230:1 1254:1 1289:1 1294:1 1302:1 1319:1 1322:1 1338:1 1361:1 1368:1 1370:1 1398:4
-1 528:1 631:1 1102:1 1289:1 1319:1 1368:1 1398:3
-1 528:1 623:1 631:1 1102:1 1289:1 1319:1 1361:1 1368:1 1398:2
-1 241:1 288:1 623:1 631:1 1083:1 1125:1 1150:1 1177:1 1298:1 1302:1 1338:1 1340:1 1350:1 1361:1 1368:1 1375:1 1398:1
-1 218:1 318:1 535:1 631:1 709:1 1180:1 1182:1 1225:1 1277:1 1299:1 1352:1 1368:1 1376:1 1379:1 1398:2
-1 457:1 1252:1 1398:4
-1 457:1 1252:1 1398:2
-1 631:1 1368:1 1398:4
-1 631:1 1368:1 1398:2
-1 259:1 588:1 631:1 981:1 1102:1 1106:1 1175:1 1317:1 1319:1 1368:1 1374:1 1398:2
-1 1398:1
-1 218:1 231:1 241:1 318:1 535:1 623:1 631:1 649:1 709:1 945:1 948:1 1090:1 1180:1 1182:1 1225:1 1277:1 1288:1 1299:1 1302:1 1308:1 1352:1 1361:1 1368:1 1376:1 1379:1 1382:1 1388:1 1398:3
-1 146:1 228:1 247:1 274:1 336:1 355:1 373:1 395:1 401:1 402:1 405:1 415:1 461:1 503:1 528:1 541:1 644:1 658:1 674:1 713:1 715:1 729:1 746:1 789:1 793:1 826:1 852:1 870:1 938:1 949:1 1027:1 1031:1 1068:1 1084:1 1133:1 1134:1 1166:1 1211:1 1222:1 1228:1 1230:1 1236:1 1256:1 1257:1 1273:1 1284:1 1286:1 1289:1 1309:1 1310:1 1326:1 1332:1 1344:1 1358:1 1373:1 1391:1 1398:2
-1 146:1 247:1 274:1 313:1 395:1 401:1 415:1 461:1 503:1 528:1 729:1 746:1 792:1 852:1 870:1 938:1 949:1 1027:1 1068:1 1084:1 1134:1 1222:1 1236:1 1256:1 1273:1 1276:1 1284:1 1289:1 1310:1 1326:1 1332:1 1391:1 1398:1
-1 175:1 288:1 623:1 631:1 635:1 706:1 1102:1 1125:1 1175:1 1221:1 1254:1 1319:1 1338:1 1340:1 1361:1 1368:1 1370:1 1374:1 1398:2
-1 175:1 288:1 623:1 631:1 635:1 706:1 1102:1 1125:1 1175:1 1221:1 1254:1 1319:1 1338:1 1340:1 1361:1 1368:1 1370:1 1374:1 1398:2
-1 396:1 556:1 801:1 1398:2
-1 396:1 556:1 801:1 1398:2
-1 241:1 288:1 344:1 623:1 631:1 715:1 829:1 1230:1 1302:1 1314:1 1338:1 1361:1 1363:1 1368:1 1398:2
-1 175:1 241:1 288:1 324:1 336:1 484:1 495:1 623:1 631:1 635:1 713:1 715:1 758:1 829:1 951:1 1079:1 1083:1 1102:1 1125:1 1228:1 1230:1 1254:1 1261:1 1262:1 1269:1 1294:1 1298:1 1302:1 1314:1 1319:1 1338:1 1340:1 1358:1 1361:1 1368:1 1370:1 1392:1 1398:2
-1 150:1 175:1 241:1 262:1 623:1 631:1 829:1 1102:1 1254:1 1302:1 1314:1 1318:1 1319:1 1361:1 1368:1 1398:1
-1 262:1 631:1 1102:1 1318:1 1319:1 1368:1 1398:1
-1 623:2 631:2 635:1 715:1 1102:2 1230:1 1319:2 1361:2 1368:2 1370:1 1398:7
-1 146:1 247:1 274:1 286:1 336:1 373:1 395:1 415:1 503:1 528:1 570:1 640:1 715:1 729:1 789:1 826:1 852:1 896:1 949:1 988:1 1027:1 1068:1 1084:1 1134:1 1158:1 1162:1 1222:1 1223:1 1230:1 1236:1 1273:1 1284:1 1289:1 1310:1 1326:1 1332:1 1339:1 1357:1 1358:1 1391:1 1398:2
-1 241:1 288:1 495:1 528:1 623:1 631:1 713:1 829:1 1228:1 1269:1 1289:1 1302:1 1314:1 1338:1 1361:1 1368:1 1398:2
-1 528:1 631:1 1289:1 1368:1 1398:6
-1 242:1 288:1 413:1 474:1 486:1 528:1 631:1 781:1 989:1 1119:1 1289:1 1338:1 1368:1 1398:5 1400:150
-1 474:1 528:1 631:1 890:1 1289:1 1368:1 1398:6
-1 528:1 631:1 1121:1 1289:1 1368:1 1398:6
-1 242:1 413:1 474:1 486:1 528:1 631:1 781:1 989:1 1119:1 1121:1 1159:1 1289:1 1368:1 1398:5 1400:52
-1 175:1 241:1 288:1 623:1 631:1 635:1 1102:1 1125:1 1254:1 1302:1 1319:1 1338:1 1340:1 1361:1 1368:1 1370:1 1398:3
-1 528:2 551:1 631:1 1289:2 1322:1 1368:1 1398:3
-1 125:1 160:1 195:1 363:1 380:1 431:1 513:1 631:1 655:1 681:1 761:1 805:1 855:1 918:1 1210:1 1264:1 1368:1 1398:1
-1 189:1 309:1 499:1 528:2 631:1 681:1 761:1 781:1 877:1 953:1 955:1 993:1 1135:2 1163:1 1205:1 1264:1 1289:2 1368:1 1398:2
-1 175:1 241:1 288:1 623:1 631:1 635:1 1102:1 1125:1 1254:1 1302:1 1319:1 1338:1 1340:1 1361:1 1368:1 1370:1 1398:3
-1 129:1 336:1 338:1 421:1 528:1 623:1 631:1 682:1 829:1 853:1 1079:1 1102:1 1125:1 1289:1 1294:1 1314:1 1319:1 1333:1 1340:1 1358:1 1361:1 1368:1 1398:2
-1 160:1 175:1 326:1 449:1 528:1 631:1 985:1 1102:1 1175:1 1254:1 1289:1 1319:1 1368:1 1374:1 1398:2
-1 623:1 631:4 715:2 761:1 918:1 1102:2 1230:2 1264:1 1319:2 1361:1 1368:4 1398:5
-1 175:1 241:1 623:2 631:3 635:1 715:1 761:2 1102:2 1230:1 1254:1 1264:2 1302:1 1319:2 1361:2 1368:3 1370:1 1398:6
-1 457:1 1252:1 1398:4
-1 457:1 1252:1 1398:3
-1 353:1 528:2 631:1 855:1 918:1 944:1 1289:2 1368:1 1398:2
-1 267:1 432:1 528:2 631:1 720:1 1036:1 1289:2 1368:1 1398:3
-1 175:1 623:2 631:4 635:1 706:1 715:2 853:1 1102:2 1125:1 1175:1 1221:1 1230:2 1254:1 1319:2 1333:1 1340:1 1361:2 1368:4 1370:1 1374:1 1398:6
-1 648:1 1398:1
-1 518:1 528:1 551:1 631:1 1082:1 1289:1 1322:1 1368:1 1398:3
-1 175:1 241:1 288:1 623:1 631:1 635:1 706:1 715:1 1102:1 1125:1 1175:1 1221:1 1230:1 1254:1 1302:1 1319:1 1338:1 1340:1 1361:1 1368:1 1370:1 1374:1 1398:5
-1 457:1 1252:1 1398:3
-1 175:1 241:1 288:1 623:1 631:1 635:1 1102:1 1125:1 1254:1 1302:1 1319:1 1338:1 1340:1 1361:1 1368:1 1370:1 1398:3
-1 623:2 631:2 635:1 715:1 1102:2 1230:1 1319:2 1361:2 1368:2 1370:1 1398:7
-1 146:1 288:1 392:1 395:1 415:1 503:1 528:1 631:1 635:1 729:1 829:1 852:1 949:1 1102:1 1134:1 1222:1 1236:1 1273:1 1289:1 1314:1 1319:1 1332:1 1338:1 1368:1 1370:1 1391:1 1397:1 1398:4
-1 175:1 241:1 288:1 528:1 631:1 715:1 1102:1 1230:1 1254:1 1289:1 1302:1 1319:1 1338:1 1368:1 1398:1
-1 149:1 631:1 1368:1 1398:2
-1 146:1 175:1 241:1 395:1 415:1 503:1 528:1 631:1 729:1 829:1 852:1 1102:1 1134:1 1222:1 1236:1 1254:1 1273:1 1289:1 1302:1 1314:1 1319:1 1332:1 1368:1 1398:3
-1 457:1 1252:1 1398:4
-1 490:1 631:1 805:1 1368:1 1398:2
-1 175:1 241:1 288:2 623:2 631:5 635:1 715:3 1102:2 1125:1 1175:1 1230:3 1254:1 1302:1 1319:2 1338:2 1340:1 1361:2 1368:5 1370:1 1374:1 1398:6
-1 288:1 528:1 623:1 631:1 1102:1 1289:1 1319:1 1338:1 1361:1 1368:1 1398:3 1400:1
-1 631:1 1079:1 1102:1 1294:1 1319:1 1368:1 1398:4
-1 457:1 1252:1 1398:3
-1 175:1 241:1 288:1 528:2 551:1 623:1 631:1 635:1 706:1 1102:1 1221:1 1254:1 1289:2 1302:1 1319:1 1322:1 1338:1 1361:1 1368:1 1370:1 1398:2
-1 175:1 241:1 288:1 623:1 631:1 635:1 1102:1 1125:1 1254:1 1302:1 1319:1 1338:1 1340:1 1361:1 1368:1 1370:1 1398:3
-1 175:1 241:1 288:1 336:1 520:1 528:1 613:1 614:1 623:1 631:1 694:1 715:1 758:1 1057:1 1095:1 1102:1 1175:1 1220:1 1230:1 1254:1 1261:1 1274:1 1289:1 1302:1 1315:1 1319:1 1338:1 1358:1 1361:1 1368:1 1374:1 1398:1
-1 457:1 1252:1 1398:2
-1 175:1 241:1 288:1 623:1 631:1 635:1 1102:1 1125:1 1254:1 1302:1 1319:1 1338:1 1340:1 1361:1 1368:1 1370:1 1398:3
-1 528:1 631:1 771:1 1102:1 1289:1 1319:1 1368:1 1398:2
-1 175:1 631:1 1102:1 1125:1 1175:1 1254:1 1319:1 1340:1 1368:1 1374:1 1398:2
-1 396:1 801:1 1398:2
-1 1398:1
-1 457:1 1252:1 1398:4
-1 175:1 241:1 256:1 262:1 617:1 623:1 631:1 1102:1 1125:1 1177:1 1254:1 1302:1 1316:1 1318:1 1319:1 1340:1 1360:1 1361:1 1368:1 1375:1 1398:3 1400:123
-1 241:1 262:1 288:1 592:1 599:1 617:1 623:1 631:1 713:1 715:1 768:1 798:1 1079:1 1102:1 1105:1 1228:1 1230:1 1294:1 1302:1 1318:1 1319:1 1338:1 1360:1 1361:1 1368:1 1398:1 1400:2
-1 457:1 1252:1 1398:2
-1 631:1 1368:1 1398:2
-1 175:1 241:1 288:2 623:2 631:4 635:1 706:1 715:3 1102:2 1125:1 1221:1 1230:3 1254:1 1302:1 1319:2 1338:2 1340:1 1361:2 1368:4 1370:1 1398:6
-1 175:1 182:1 288:1 336:1 528:1 584:1 623:1 631:1 829:1 832:1 1102:1 1254:1 1289:1 1314:1 1319:1 1320:1 1338:1 1358:1 1361:1 1368:1 1398:1
-1 159:1 175:1 241:1 288:1 558:1 623:1 631:1 635:1 706:1 715:1 829:1 1079:1 1102:1 1125:1 1221:1 1230:1 1245:1 1254:1 1294:1 1302:1 1314:1 1319:1 1330:1 1338:1 1340:1 1361:1 1368:1 1370:1 1398:4
-1 146:1 241:1 415:1 503:1 528:1 623:1 631:1 729:1 852:1 970:1 1134:1 1215:1 1222:1 1236:1 1273:1 1289:1 1302:1 1332:1 1361:1 1368:1 1398:1
-1 495:1 528:1 623:1 631:1 713:1 795:1 839:1 1102:1 1228:1 1269:1 1289:1 1319:1 1323:1 1361:1 1368:1 1398:1
-1 175:1 241:1 288:1 623:1 631:1 635:1 706:1 715:1 1102:1 1125:1 1221:1 1230:1 1254:1 1302:1 1319:1 1338:1 1340:1 1361:1 1368:1 1370:1 1398:5
-1 623:1 631:4 715:2 1102:2 1230:2 1319:2 1361:1 1368:4 1398:6
-1 623:2 631:2 635:1 715:1 1102:2 1230:1 1319:2 1361:2 1368:2 1370:1 1398:7
-1 175:1 288:1 623:1 631:1 706:1 1102:1 1221:1 1254:1 1319:1 1338:1 1361:1 1368:1 1398:2
-1 175:1 288:1 623:1 631:1 635:1 706:1 1102:1 1221:1 1254:1 1319:1 1338:1 1361:1 1368:1 1370:1 1398:1
-1 457:1 1252:1 1398:3
-1 288:1 631:1 715:1 1102:1 1230:1 1319:1 1338:1 1368:1 1398:1
-1 479:1 528:1 631:1 781:1 989:1 1159:1 1289:1 1368:1 1398:3
-1 528:2 623:1 631:1 1093:1 1102:1 1289:2 1313:1 1319:1 1361:1 1368:1 1398:5
-1 175:1 241:1 288:1 319:1 558:1 623:1 631:1 706:1 715:1 829:1 1102:1 1221:1 1230:1 1254:1 1302:1 1314:1 1319:1 1330:1 1338:1 1361:1 1368:1 1398:4
-1 175:1 241:1 623:2 631:6 635:1 636:1 706:1 715:3 1102:2 1125:1 1221:1 1230:3 1254:1 1302:1 1319:2 1340:1 1361:2 1368:6 1370:1 1372:1 1398:6
-1 175:1 241:1 288:1 623:2 631:4 635:1 706:1 715:2 1102:2 1125:1 1221:1 1230:2 1254:1 1302:1 1319:2 1338:1 1340:1 1361:2 1368:4 1370:1 1398:6
-1 175:1 241:1 288:1 623:1 631:1 635:1 1102:1 1125:1 1254:1 1302:1 1319:1 1338:1 1340:1 1361:1 1368:1 1370:1 1398:3
-1 175:1 241:1 623:2 631:3 635:1 715:1 1102:2 1230:1 1254:1 1302:1 1319:2 1361:2 1368:3 1370:1 1398:6
-1 457:1 1252:1 1398:3
-1 623:3 631:4 635:1 715:2 1102:2 1230:2 1319:2 1361:3 1368:4 1370:1 1398:4
-1 631:1 1368:1 1398:2
-1 146:1 288:1 373:1 395:1 415:1 461:1 503:1 528:1 631:1 729:1 829:1 852:1 864:1 938:1 1068:1 1084:1 1095:1 1102:1 1134:1 1144:1 1222:1 1236:1 1273:1 1284:1 1289:1 1314:1 1315:1 1319:1 1332:1 1338:1 1342:1 1348:1 1368:1 1398:3
-1 631:1 1102:1 1319:1 1368:1 1398:2
-1 175:1 288:1 528:1 623:1 631:1 635:1 844:1 1041:1 1102:1 1254:1 1289:1 1319:1 1338:1 1361:1 1368:1 1370:1 1398:2 1400:1
-1 146:1 336:1 373:1 415:1 503:1 528:1 722:1 729:1 789:1 852:1 938:1 949:1 1079:1 1084:1 1098:1 1134:1 1162:1 1222:1 1236:1 1239:1 1273:1 1289:1 1294:1 1332:1 1357:1 1358:1 1391:1 1398:1
-1 175:1 241:1 288:1 623:1 631:1 635:1 1102:1 1125:1 1254:1 1302:1 1319:1 1338:1 1340:1 1361:1 1368:1 1370:1 1398:2
-1 631:1 1368:1 1398:3
-1 241:1 623:1 631:1 715:1 1102:1 1230:1 1302:1 1319:1 1361:1 1368:1 1398:1
-1 288:1 336:1 528:1 577:1 623:1 631:1 1102:1 1289:1 1319:1 1338:1 1358:1 1361:1 1368:1 1398:2
-1 469:1 631:1 1079:1 1102:1 1294:1 1319:1 1368:1 1398:2
-1 146:1 336:1 395:1 415:1 437:1 503:1 528:1 539:1 623:1 631:1 729:1 848:1 1134:1 1222:1 1236:1 1241:1 1273:1 1289:1 1307:1 1358:1 1361:1 1368:1 1398:3
-1 175:1 241:1 288:1 495:1 616:1 623:1 631:1 635:1 636:1 715:1 722:1 829:1 832:1 849:1 951:1 1079:1 1093:1 1102:1 1125:1 1175:1 1230:1 1239:1 1254:1 1269:1 1294:1 1302:1 1313:1 1314:1 1319:1 1320:1 1329:1 1338:1 1340:1 1359:1 1361:1 1368:1 1370:1 1372:1 1374:1 1392:1 1398:2
-1 288:1 528:2 623:1 631:1 1102:1 1289:2 1319:1 1338:1 1361:1 1368:1 1398:4 1400:7
-1 623:3 631:4 635:1 715:1 1102:2 1230:1 1319:2 1361:3 1368:4 1370:1 1398:4
-1 623:2 631:2 635:1 715:1 1102:2 1230:1 1319:2 1361:2 1368:2 1370:1 1398:7
-1 288:1 395:1 528:1 631:1 715:1 829:1 1230:1 1289:1 1314:1 1338:1 1368:1 1398:2
-1 250:1 337:1 474:1 524:1 528:1 604:1 631:1 832:1 1102:1 1124:1 1147:1 1193:1 1209:1 1289:1 1319:1 1320:1 1368:1 1398:5
-1 623:3 631:4 635:1 715:1 1102:2 1230:1 1319:2 1361:3 1368:4 1370:1 1398:4
-1 623:2 631:2 635:1 715:1 1102:2 1230:1 1319:2 1361:2 1368:2 1370:1 1398:7
-1 631:1 1368:1 1398:4
-1 288:1 336:1 528:1 623:1 631:1 829:1 1021:1 1102:1 1289:1 1314:1 1319:1 1338:1 1358:1 1361:1 1368:1 1398:1
-1 623:3 631:4 635:1 715:2 1102:2 1230:2 1319:2 1361:3 1368:4 1370:1 1398:4
-1 631:1 1368:1 1398:2
-1 175:1 241:1 288:1 447:1 482:1 518:1 528:1 623:1 631:1 635:1 706:1 1079:1 1082:1 1102:1 1112:1 1221:1 1254:1 1289:1 1294:1 1302:1 1319:1 1338:1 1361:1 1368:1 1370:1 1398:2
-1 175:1 241:1 288:1 365:1 623:1 631:1 635:1 706:1 715:1 722:1 829:1 1079:1 1102:1 1221:1 1230:1 1239:1 1254:1 1294:1 1302:1 1314:1 1319:1 1338:1 1361:1 1368:1 1370:1 1384:1 1398:1
-1 175:1 241:1 288:1 344:1 528:1 551:1 623:1 631:1 635:1 706:1 722:1 844:1 1102:1 1221:1 1239:1 1254:1 1289:1 1302:1 1319:1 1322:1 1338:1 1361:1 1363:1 1368:1 1370:1 1398:4
-1 615:1 631:1 1078:1 1139:1 1368:1 1398:1
-1 129:1 175:1 241:1 288:1 336:1 340:1 528:1 623:1 631:1 715:1 829:1 871:1 1102:1 1230:1 1254:1 1289:1 1302:1 1314:1 1319:1 1338:1 1345:1 1358:1 1361:1 1368:1 1398:3
-1 528:1 631:1 1167:1 1289:1 1368:1 1398:5
-1 528:1 688:1 1289:1 1398:4
-1 457:1 1252:1 1398:2
-1 175:1 241:1 288:1 623:1 631:1 635:1 1102:1 1125:1 1254:1 1302:1 1319:1 1338:1 1340:1 1361:1 1368:1 1370:1 1398:3
-1 457:1 1252:1 1398:3
-1 175:1 241:1 288:1 344:1 623:2 631:5 635:1 706:1 715:3 1102:2 1221:1 1230:3 1254:1 1302:1 1319:2 1338:1 1361:2 1363:1 1368:5 1370:1 1398:6
-1 146:1 288:1 395:1 415:1 437:1 453:1 468:1 503:1 528:1 623:1 631:1 715:1 729:1 795:1 829:1 852:1 949:1 1069:1 1095:1 1102:1 1134:1 1222:1 1230:1 1236:1 1241:1 1251:1 1273:1 1289:1 1314:1 1315:1 1319:1 1332:1 1338:1 1361:1 1368:1 1391:1 1398:3
-1 175:1 631:1 1102:1 1254:1 1319:1 1368:1 1398:3
-1 175:1 288:1 623:1 631:1 635:1 982:1 1102:1 1254:1 1319:1 1338:1 1361:1 1368:1 1370:1 1398:3
-1 457:1 1252:1 1398:3
-1 241:1 288:1 495:1 623:1 631:1 713:1 829:1 1102:1 1228:1 1269:1 1302:1 1314:1 1319:1 1338:1 1361:1 1368:1 1398:1
-1 711:1 1227:1 1398:1
-1 175:1 241:1 262:1 288:1 501:1 617:1 623:1 631:1 635:1 715:1 758:1 992:1 1079:1 1102:1 1125:1 1175:1 1230:1 1254:1 1261:1 1272:1 1294:1 1302:1 1318:1 1319:1 1338:1 1340:1 1360:1 1361:1 1368:1 1370:1 1374:1 1398:1 1400:379
-1 118:1 124:1 175:1 241:1 288:1 623:1 631:1 635:1 678:1 715:1 758:1 829:1 1102:1 1125:1 1230:1 1254:1 1261:1 1302:1 1314:1 1319:1 1338:1 1340:1 1361:1 1368:1 1370:1 1398:1
-1 118:1 124:1 175:1 241:1 288:1 623:1 631:1 635:1 678:1 715:1 758:1 829:1 1102:1 1125:1 1230:1 1254:1 1261:1 1302:1 1314:1 1319:1 1338:1 1340:1 1361:1 1368:1 1370:1 1398:1
-1 262:1 623:1 631:1 960:1 1079:1 1294:1 1318:1 1361:1 1368:1 1398:1
-1 175:1 623:2 631:5 635:1 715:2 1102:2 1125:1 1208:1 1230:2 1254:1 1319:2 1340:1 1361:2 1368:5 1370:1 1398:6
-1 358:1 457:1 631:1 1208:1 1252:1 1368:1 1398:2
-1 457:1 1252:1 1398:3
-1 457:1 1252:1 1398:3
-1 175:1 241:1 288:1 623:1 631:1 635:1 715:1 1102:1 1125:1 1230:1 1254:1 1302:1 1319:1 1338:1 1340:1 1361:1 1368:1 1370:1 1398:5
-1 146:1 257:1 394:1 395:1 415:1 437:1 503:1 528:1 539:1 729:1 829:1 852:1 1068:1 1115:1 1134:1 1222:1 1236:1 1241:1 1273:1 1284:1 1289:1 1307:1 1314:1 1331:1 1332:1 1398:2
-1 623:2 631:2 635:1 715:1 1102:2 1230:1 1319:2 1361:2 1368:2 1370:1 1398:7
-1 528:1 631:1 1289:1 1368:1 1398:6
-1 528:1 631:1 1289:1 1368:1 1398:6
-1 288:1 528:1 623:1 631:1 1102:1 1108:1 1289:1 1319:1 1338:1 1361:1 1368:1 1398:5
-1 146:1 274:1 336:1 373:1 415:1 503:1 528:1 722:1 729:1 789:1 852:1 938:1 949:1 1079:1 1084:1 1098:1 1134:1 1162:1 1222:1 1236:1 1239:1 1273:1 1289:1 1294:1 1326:1 1332:1 1357:1 1358:1 1391:1 1398:1
-1 159:1 175:1 288:1 306:1 559:1 631:1 1102:1 1175:1 1245:1 1254:1 1319:1 1338:1 1347:1 1368:1 1374:1 1398:1
-1 528:1 631:1 1289:1 1368:1 1398:2
-1 175:1 623:2 631:5 635:1 715:2 1102:2 1125:1 1230:2 1254:1 1319:2 1340:1 1361:2 1368:5 1370:1 1398:6
-1 631:1 1368:1 1398:2 1400:21
-1 631:1 1368:1 1398:2
-1 457:1 1252:1 1398:2
-1 146:1 274:1 295:1 318:1 415:1 461:1 503:1 623:1 630:1 631:1 640:1 729:1 789:1 826:1 1035:1 1084:1 1102:1 1134:1 1222:1 1236:1 1273:1 1319:1 1326:1 1341:1 1352:1 1361:1 1368:1 1398:1
-1 146:1 247:1 257:1 336:1 355:1 395:1 415:1 437:1 461:1 503:1 528:1 539:1 729:1 852:1 938:1 1068:1 1084:1 1115:1 1134:1 1162:1 1222:1 1236:1 1241:1 1273:1 1284:1 1289:1 1307:1 1310:1 1331:1 1332:1 1357:1 1358:1 1373:1 1398:1
-1 175:1 241:1 288:1 623:1 631:1 635:1 1102:1 1125:1 1254:1 1302:1 1319:1 1338:1 1340:1 1361:1 1368:1 1370:1 1398:3
-1 220:1 288:1 330:1 413:1 479:1 511:1 528:2 623:1 631:1 664:1 726:1 739:1 781:1 788:1 989:1 998:1 1145:1 1159:1 1178:1 1207:1 1289:2 1338:1 1361:1 1368:1 1398:2 1400:299
-1 175:1 241:1 288:1 623:1 631:1 635:1 1102:1 1125:1 1254:1 1302:1 1319:1 1338:1 1340:1 1361:1 1368:1 1370:1 1398:3
-1 528:1 631:1 1289:1 1368:1 1398:2
-1 711:1 1227:1 1398:1
-1 457:1 1252:1 1398:3
-1 175:1 259:1 271:1 288:1 623:1 631:1 706:1 805:1 996:1 1037:1 1102:1 1175:1 1221:1 1234:1 1254:1 1317:1 1319:1 1324:1 1338:1 1361:1 1368:1 1374:1 1398:1
-1 459:1 631:1 1368:1 1398:4 1400:3
-1 457:1 1252:1 1398:3
-1 175:1 241:1 288:1 623:1 631:1 635:1 1102:1 1125:1 1254:1 1302:1 1319:1 1338:1 1340:1 1361:1 1368:1 1370:1 1398:2
-1 175:1 326:1 528:1 631:1 706:1 1102:1 1221:1 1254:1 1289:1 1319:1 1368:1 1398:2
-1 175:1 241:1 256:1 288:1 528:1 623:1 631:1 706:1 715:1 1072:1 1079:1 1102:1 1175:1 1221:1 1230:1 1254:1 1289:1 1294:1 1302:1 1316:1 1319:1 1338:1 1361:1 1368:1 1374:1 1398:4
-1 631:1 1136:1 1368:1 1398:3
-1 623:1 631:1 1102:1 1319:1 1361:1 1368:1 1398:2
-1 175:1 623:2 631:1 635:1 706:1 715:2 1102:2 1125:1 1221:1 1230:2 1254:1 1319:2 1340:1 1361:2 1368:1 1370:1 1398:11
-1 218:1 231:1 318:1 535:1 623:1 631:1 649:1 709:1 935:1 1180:1 1182:1 1225:1 1277:1 1288:1 1299:1 1352:1 1361:1 1368:1 1376:1 1379:1 1382:1 1398:4 1400:36
-1 175:1 631:1 1052:1 1102:1 1254:1 1319:1 1368:1 1398:1
-1 711:1 1227:1 1398:1
-1 631:1 1368:1 1398:1
-1 175:1 241:1 623:1 631:1 635:1 678:1 1102:1 1254:1 1302:1 1319:1 1361:1 1368:1 1370:1 1398:2
-1 241:1 528:2 631:1 635:1 706:1 715:1 1102:1 1221:1 1230:1 1289:2 1302:1 1319:1 1368:1 1370:1 1398:3
-1 631:1 1368:1 1398:1
-1 623:3 631:4 635:1 715:1 1102:2 1230:1 1319:2 1361:3 1368:4 1370:1 1398:5
-1 336:1 453:1 528:1 623:1 631:1 816:1 832:1 853:1 1102:1 1251:1 1289:1 1301:1 1319:1 1320:1 1333:1 1358:1 1361:1 1368:1 1398:1
-1 137:1 146:1 274:1 336:1 339:1 373:1 382:1 415:1 461:1 484:1 503:1 528:1 632:1 640:1 717:1 729:1 746:1 789:1 852:1 901:1 938:1 940:1 949:1 1027:1 1035:1 1064:1 1068:1 1076:1 1077:1 1084:1 1098:1 1104:1 1134:1 1144:1 1158:1 1162:1 1212:1 1222:1 1236:1 1256:1 1262:1 1273:1 1284:1 1289:1 1326:1 1332:1 1348:1 1357:1 1358:1 1391:1 1396:1 1398:2
-1 457:1 1252:1 1398:3
-1 457:1 1252:1 1398:3
-1 623:3 631:4 635:1 715:1 1102:2 1230:1 1319:2 1361:3 1368:4 1370:1 1398:4
-1 631:1 1079:1 1294:1 1368:1 1398:2
-1 610:1 631:1 918:1 1368:1 1398:3
-1 457:1 1252:1 1398:3
-1 175:1 241:1 288:1 623:1 631:1 635:1 1102:1 1125:1 1254:1 1302:1 1319:1 1338:1 1340:1 1361:1 1368:1 1370:1 1398:4
-1 336:1 1358:1 1398:2
-1 175:1 288:1 569:1 623:1 631:1 635:1 1102:1 1254:1 1319:1 1337:1 1338:1 1361:1 1368:1 1370:1 1398:3
-1 175:1 241:1 288:1 623:1 631:1 635:1 1102:1 1125:1 1254:1 1302:1 1319:1 1338:1 1340:1 1361:1 1368:1 1370:1 1398:2
-1 175:1 288:1 623:1 631:1 635:1 706:1 853:1 1079:1 1102:1 1221:1 1254:1 1294:1 1319:1 1333:1 1338:1 1361:1 1368:1 1370:1 1398:1
-1 528:1 631:1 1289:1 1368:1 1398:5
-1 146:1 247:1 274:1 294:1 336:1 373:1 415:1 480:1 503:1 528:1 632:1 710:1 729:1 746:1 770:1 789:1 832:1 852:1 910:1 938:1 940:1 1006:1 1064:1 1068:1 1076:1 1084:1 1098:1 1133:1 1134:1 1162:1 1196:1 1222:1 1226:1 1236:1 1243:1 1256:1 1273:1 1284:1 1289:1 1310:1 1320:1 1326:1 1332:1 1344:1 1357:1 1358:1 1398:2
-1 262:1 276:1 631:1 1318:1 1368:1 1398:2 1400:1
-1 241:1 457:1 528:1 623:1 631:1 715:1 871:1 1102:1 1230:1 1252:1 1289:1 1302:1 1319:1 1345:1 1361:1 1368:1 1398:1
-1 457:1 1252:1 1398:2
-1 175:1 241:1 288:1 356:1 551:1 623:1 631:1 635:1 706:1 832:1 1102:1 1221:1 1254:1 1302:1 1319:1 1320:1 1322:1 1338:1 1361:1 1368:1 1370:1 1398:3
-1 175:1 241:1 288:1 623:1 631:1 635:1 678:1 706:1 1102:1 1221:1 1254:1 1302:1 1319:1 1338:1 1361:1 1368:1 1370:1 1398:2
-1 623:2 631:2 635:1 715:1 1102:2 1230:1 1319:2 1361:2 1368:2 1370:1 1398:7
-1 631:1 1368:1 1398:1
-1 631:1 1368:1 1398:2
-1 1398:1
-1 241:1 288:1 336:1 344:1 457:1 528:1 623:1 631:1 715:1 770:1 804:1 829:1 1102:1 1125:1 1230:1 1252:1 1285:1 1289:1 1302:1 1314:1 1319:1 1338:1 1340:1 1358:1 1361:1 1363:1 1368:1 1398:2
-1 129:1 146:1 175:1 288:1 294:1 395:1 415:1 503:1 528:1 623:1 631:1 635:1 706:1 710:1 715:1 729:1 758:1 829:1 949:1 1102:1 1134:1 1175:1 1221:1 1222:1 1226:1 1230:1 1236:1 1254:1 1261:1 1273:1 1289:1 1314:1 1319:1 1338:1 1361:1 1368:1 1370:1 1374:1 1391:1 1398:1
-1 146:1 288:1 395:1 415:1 503:1 528:1 631:1 635:1 729:1 829:1 852:1 1102:1 1134:1 1222:1 1236:1 1273:1 1289:1 1314:1 1319:1 1332:1 1338:1 1368:1 1370:1 1398:2
-1 159:1 175:1 241:1 259:1 299:1 306:1 559:1 631:1 1102:1 1245:1 1254:1 1302:1 1317:1 1319:1 1347:1 1368:1 1398:2
-1 241:1 336:1 376:1 433:1 484:1 528:1 623:1 631:1 715:1 829:1 911:1 950:1 1079:1 1102:1 1125:1 1230:1 1262:1 1289:1 1294:1 1302:1 1314:1 1319:1 1340:1 1358:1 1361:1 1362:1 1368:1 1387:1 1394:1 1398:1 1400:5
-1 241:1 336:1 528:1 623:1 631:1 715:1 1102:1 1230:1 1289:1 1302:1 1319:1 1358:1 1361:1 1368:1 1398:2 1400:5
-1 241:1 288:1 336:1 528:1 623:1 631:1 635:1 706:1 715:1 829:1 1102:1 1221:1 1230:1 1289:1 1302:1 1314:1 1319:1 1338:1 1358:1 1361:1 1368:1 1370:1 1398:2 1400:5
-1 528:2 631:1 1289:2 1368:1 1398:2
-1 146:1 415:1 437:1 461:1 503:1 528:1 539:1 729:1 826:1 852:1 1134:1 1222:1 1236:1 1241:1 1273:1 1289:1 1307:1 1332:1 1398:3
-1 241:1 528:1 623:1 631:1 715:1 1102:1 1230:1 1289:1 1302:1 1319:1 1361:1 1368:1 1398:3
-1 241:1 528:1 623:1 631:1 715:1 1102:1 1230:1 1289:1 1302:1 1319:1 1361:1 1368:1 1398:3
-1 336:1 528:1 623:1 631:1 933:1 1289:1 1358:1 1361:1 1368:1 1398:2
-1 336:1 395:1 405:1 528:1 623:1 631:1 693:1 710:1 715:1 1065:1 1102:1 1226:1 1230:1 1289:1 1319:1 1358:1 1361:1 1368:1 1398:1
-1 336:1 395:1 528:1 623:1 631:1 1102:1 1289:1 1319:1 1358:1 1361:1 1368:1 1398:1
-1 175:1 528:1 623:1 631:1 1102:1 1254:1 1289:1 1319:1 1361:1 1368:1 1398:2
-1 175:1 183:1 238:1 631:1 635:1 678:1 758:1 764:1 806:1 1102:1 1254:1 1261:1 1319:1 1368:1 1370:1 1398:1
-1 175:1 241:1 288:1 616:1 623:1 631:1 706:1 827:1 829:1 1102:1 1125:1 1221:1 1254:1 1302:1 1311:1 1314:1 1319:1 1338:1 1340:1 1359:1 1361:1 1368:1 1398:1
-1 175:1 241:1 288:1 340:1 453:1 616:1 623:1 631:1 635:1 706:1 713:1 715:1 829:1 853:1 951:1 1079:1 1102:1 1125:1 1221:1 1228:1 1230:1 1251:1 1254:1 1294:1 1302:1 1314:1 1319:1 1333:1 1338:1 1340:1 1359:1 1361:1 1368:1 1370:1 1392:1 1398:1
-1 175:1 241:1 288:1 623:1 631:1 635:1 706:1 715:1 766:1 829:1 1079:1 1102:1 1125:1 1221:1 1230:1 1254:1 1294:1 1302:1 1314:1 1319:1 1338:1 1340:1 1361:1 1368:1 1370:1 1398:1
-1 175:1 241:1 288:1 558:1 623:1 631:1 635:1 706:1 715:1 829:1 1102:1 1221:1 1230:1 1254:1 1302:1 1314:1 1319:1 1330:1 1338:1 1361:1 1368:1 1370:1 1398:1
-1 288:1 453:1 528:1 631:1 1041:1 1102:1 1251:1 1289:1 1319:1 1338:1 1368:1 1398:2
-1 175:1 288:1 623:2 631:4 635:1 715:2 1102:2 1125:1 1230:2 1254:1 1319:2 1338:1 1340:1 1361:2 1368:4 1370:1 1398:6
-1 227:1 528:1 631:1 720:1 1036:1 1289:1 1368:1 1398:2
-1 227:1 267:1 528:2 623:1 631:1 720:1 1036:1 1289:2 1361:1 1368:1 1398:2
-1 175:1 623:2 631:4 635:1 715:2 1102:2 1175:1 1230:2 1254:1 1319:2 1361:2 1368:4 1370:1 1374:1 1398:6
-1 175:1 623:2 631:5 635:1 706:1 715:2 1102:2 1125:1 1221:1 1230:2 1254:1 1319:2 1340:1 1361:2 1368:5 1370:1 1398:7
-1 711:1 1227:1 1398:1
-1 160:1 207:1 254:1 513:1 631:1 681:1 761:1 856:1 902:1 1264:1 1368:1 1398:3
-1 146:1 241:1 288:1 415:1 503:1 528:1 623:1 631:1 635:1 729:1 949:1 1080:1 1102:1 1134:1 1222:1 1236:1 1273:1 1289:1 1295:1 1302:1 1319:1 1338:1 1361:1 1368:1 1370:1 1391:1 1398:2
-1 218:1 231:1 318:1 535:1 631:1 649:1 709:1 945:1 948:1 975:1 990:1 1090:1 1180:1 1182:1 1218:1 1225:1 1277:1 1288:1 1299:1 1308:1 1352:1 1368:1 1376:1 1379:1 1382:1 1388:1 1398:3
-1 457:1 1252:1 1398:3
-1 146:1 247:1 274:1 415:1 419:1 461:1 503:1 528:1 729:1 852:1 938:1 1068:1 1084:1 1134:1 1211:1 1222:1 1236:1 1273:1 1284:1 1289:1 1310:1 1326:1 1332:1 1398:1
-1 146:1 247:1 274:1 351:1 373:1 395:1 415:1 461:1 503:1 528:1 729:1 770:1 789:1 852:1 938:1 949:1 970:1 1031:1 1068:1 1084:1 1134:1 1211:1 1215:1 1222:1 1236:1 1257:1 1273:1 1284:1 1289:1 1310:1 1326:1 1332:1 1391:1 1398:2
-1 146:1 175:1 241:1 247:1 255:1 257:1 274:1 280:1 288:1 297:1 354:1 355:1 395:1 399:1 415:1 419:1 437:1 446:1 461:1 500:1 503:1 514:1 528:1 539:1 570:1 674:1 689:1 694:1 707:1 715:1 729:1 789:1 793:1 812:1 852:1 869:1 887:1 938:1 954:1 970:1 988:1 1027:1 1039:1 1068:1 1079:1 1084:1 1095:1 1102:1 1115:1 1118:1 1134:1 1162:1 1194:1 1215:1 1220:1 1222:1 1223:1 1230:1 1236:1 1241:1 1254:1 1273:1 1279:1 1284:1 1289:1 1292:1 1294:1 1302:1 1307:1 1310:1 1315:1 1319:1 1326:1 1331:1 1332:1 1338:1 1339:1 1357:1 1369:1 1373:1 1398:2
-1 711:1 1227:1 1398:1
-1 551:1 631:1 1322:1 1368:1 1398:2
-1 241:1 288:1 623:1 631:1 715:1 829:1 832:1 1102:1 1230:1 1302:1 1314:1 1319:1 1320:1 1338:1 1361:1 1368:1 1398:1
-1 623:1 631:1 1102:1 1319:1 1361:1 1368:1 1398:2
-1 175:1 241:1 288:1 623:2 631:4 635:1 706:1 715:3 1102:2 1125:1 1221:1 1230:3 1254:1 1302:1 1319:2 1338:1 1340:1 1361:2 1368:4 1370:1 1398:6
-1 175:1 241:1 288:1 623:1 631:1 635:1 1102:1 1125:1 1254:1 1302:1 1319:1 1338:1 1340:1 1361:1 1368:1 1370:1 1398:3
-1 631:1 1136:1 1368:1 1398:4
-1 623:1 631:1 706:1 853:1 911:1 1125:1 1221:1 1333:1 1340:1 1361:1 1362:1 1368:1 1398:1
-1 623:1 631:1 706:1 853:1 911:1 1079:1 1125:1 1221:1 1294:1 1333:1 1340:1 1361:1 1362:1 1368:1 1398:1
-1 241:1 288:1 623:1 631:1 758:1 1102:1 1261:1 1302:1 1319:1 1338:1 1361:1 1368:1 1398:1
-1 241:1 623:1 631:1 706:1 715:1 827:1 853:1 911:1 1079:1 1125:1 1221:1 1230:1 1294:1 1302:1 1311:1 1333:1 1340:1 1361:1 1362:1 1368:1 1398:1
-1 623:1 631:1 706:1 853:1 1125:1 1221:1 1333:1 1340:1 1361:1 1368:1 1398:1
-1 623:1 631:1 706:1 911:1 1125:1 1221:1 1340:1 1361:1 1362:1 1368:1 1398:1
-1 175:1 623:1 631:1 706:1 853:1 911:1 1079:1 1102:1 1125:1 1221:1 1254:1 1294:1 1319:1 1333:1 1340:1 1361:1 1362:1 1368:1 1398:1
-1 711:1 1227:1 1398:1
-1 623:1 631:1 706:1 853:1 911:1 1125:1 1221:1 1333:1 1340:1 1361:1 1362:1 1368:1 1398:1
-1 241:1 623:1 631:1 706:1 715:1 722:1 1079:1 1125:1 1175:1 1221:1 1230:1 1239:1 1294:1 1302:1 1340:1 1361:1 1368:1 1374:1 1398:1
-1 631:1 1368:1 1398:2
-1 175:1 241:1 288:1 336:1 405:1 528:1 537:1 623:1 631:1 635:1 715:1 829:1 1102:1 1125:1 1230:1 1254:1 1289:1 1302:1 1314:1 1319:1 1338:1 1340:1 1358:1 1361:1 1368:1 1370:1 1398:2
-1 623:1 631:1 706:1 853:1 911:1 1125:1 1221:1 1333:1 1340:1 1361:1 1362:1 1368:1 1398:1
-1 175:1 623:1 631:1 706:1 853:1 911:1 1079:1 1102:1 1125:1 1221:1 1254:1 1294:1 1319:1 1333:1 1340:1 1361:1 1362:1 1368:1 1398:1
-1 623:1 631:1 706:1 853:1 1079:1 1125:1 1221:1 1294:1 1333:1 1340:1 1361:1 1368:1 1398:1
-1 241:1 288:1 623:1 631:1 715:1 758:1 805:1 1210:1 1230:1 1261:1 1302:1 1338:1 1361:1 1368:1 1398:1
-1 631:1 834:1 1078:1 1102:1 1319:1 1368:1 1398:1
-1 336:1 528:1 623:1 631:1 1102:1 1289:1 1319:1 1358:1 1361:1 1368:1 1398:1
-1 241:1 623:1 631:1 1078:1 1302:1 1361:1 1368:1 1398:2
-1 1398:1
-1 457:1 1252:1 1398:3
-1 175:1 202:1 241:1 288:1 306:1 317:1 336:1 528:1 623:1 631:1 635:1 715:1 758:1 795:1 815:1 829:1 849:1 1057:1 1083:1 1102:1 1175:1 1230:1 1254:1 1261:1 1274:1 1289:1 1297:1 1298:1 1302:1 1314:1 1319:1 1329:1 1338:1 1347:1 1354:1 1358:1 1361:1 1368:1 1370:1 1374:1 1398:2
-1 457:1 1252:1 1398:4
-1 457:1 1252:1 1398:2
-1 631:1 1368:1 1398:2
-1 175:1 241:1 256:1 288:1 623:1 631:1 635:1 706:1 1102:1 1175:1 1221:1 1254:1 1302:1 1316:1 1319:1 1338:1 1361:1 1368:1 1370:1 1374:1 1398:2
-1 623:1 631:1 635:1 706:1 1102:1 1221:1 1319:1 1361:1 1368:1 1370:1 1398:2
-1 175:1 241:1 256:1 288:1 623:1 631:1 635:1 706:1 1102:1 1175:1 1221:1 1254:1 1302:1 1316:1 1319:1 1338:1 1361:1 1368:1 1370:1 1374:1 1398:2
-1 175:1 241:1 288:1 623:1 631:1 635:1 706:1 1102:1 1221:1 1254:1 1302:1 1319:1 1338:1 1361:1 1368:1 1370:1 1398:3
-1 311:1 528:1 623:1 631:1 713:1 832:1 1102:1 1228:1 1289:1 1319:1 1320:1 1349:1 1361:1 1368:1 1398:2
-1 241:1 288:1 336:1 453:1 528:1 623:1 631:1 635:1 715:1 718:1 790:1 829:1 832:1 904:1 924:1 1102:1 1117:1 1153:1 1230:1 1251:1 1275:1 1289:1 1302:1 1314:1 1319:1 1320:1 1338:1 1358:1 1361:1 1368:1 1370:1 1398:1
-1 241:1 336:1 528:1 623:1 631:1 829:1 1102:1 1289:1 1302:1 1314:1 1319:1 1358:1 1361:1 1368:1 1398:1
-1 175:1 241:1 288:1 623:1 631:1 635:1 1102:1 1125:1 1254:1 1302:1 1319:1 1338:1 1340:1 1361:1 1368:1 1370:1 1398:3
-1 631:1 805:1 1102:1 1169:1 1319:1 1368:1 1398:2
-1 175:1 241:1 288:1 528:1 623:1 631:1 635:1 669:1 706:1 715:1 1102:1 1175:1 1221:1 1230:1 1254:1 1289:1 1302:1 1319:1 1338:1 1361:1 1368:1 1370:1 1374:1 1398:4
-1 631:1 681:1 761:1 902:1 1175:1 1264:1 1368:1 1374:1 1398:2
-1 175:1 241:1 288:1 623:1 631:1 715:1 832:1 1102:1 1230:1 1254:1 1302:1 1319:1 1320:1 1338:1 1361:1 1368:1 1398:2
-1 240:1 631:1 1078:1 1368:1 1398:2
-1 631:1 678:1 1096:1 1368:1 1398:3
-1 528:1 631:1 911:1 1102:1 1289:1 1319:1 1362:1 1368:1 1398:2
-1 175:1 241:1 256:1 288:1 478:1 623:1 631:1 710:1 713:1 715:1 1079:1 1102:1 1150:1 1175:1 1226:1 1228:1 1230:1 1254:1 1260:1 1294:1 1302:1 1316:1 1319:1 1338:1 1350:1 1361:1 1368:1 1374:1 1398:3 1400:74
-1 175:1 241:1 288:1 528:2 623:1 631:1 635:1 706:1 715:1 1102:1 1221:1 1230:1 1254:1 1289:2 1302:1 1319:1 1338:1 1361:1 1368:1 1370:1 1398:3
-1 175:1 288:1 423:1 528:1 623:1 631:1 761:1 1041:1 1066:1 1102:1 1175:1 1254:1 1264:1 1289:1 1319:1 1338:1 1361:1 1368:1 1374:1 1398:2
-1 164:1 336:1 528:1 623:1 631:1 1102:1 1176:1 1289:1 1319:1 1358:1 1361:1 1368:1 1398:2
-1 230:1 296:1 528:2 631:1 670:1 776:1 1175:1 1289:2 1368:1 1374:1 1398:4
-1 175:1 241:1 288:1 569:1 623:1 631:1 635:1 715:1 832:1 1102:1 1125:1 1230:1 1254:1 1302:1 1319:1 1320:1 1337:1 1338:1 1340:1 1361:1 1368:1 1370:1 1398:2
-1 551:1 631:1 1322:1 1368:1 1398:2
-1 191:1 210:1 241:1 288:1 383:1 610:1 631:1 714:1 767:1 799:1 1009:1 1131:1 1246:1 1302:1 1338:1 1368:1 1398:1
-1 528:1 623:1 631:1 1289:1 1361:1 1368:1 1398:4
-1 623:3 631:4 635:1 715:1 1102:2 1230:1 1319:2 1361:3 1368:4 1370:1 1398:5
-1 175:1 241:1 288:1 558:1 623:1 631:1 635:1 706:1 715:1 1102:1 1183:1 1221:1 1230:1 1254:1 1302:1 1319:1 1330:1 1338:1 1361:1 1368:1 1370:1 1381:1 1398:2
-1 288:1 474:1 528:1 567:1 631:1 714:1 767:1 890:1 1131:1 1289:1 1338:1 1368:1 1398:5
-1 175:1 218:1 231:1 241:1 256:1 288:1 318:1 512:1 535:1 623:1 631:1 649:1 709:1 715:1 761:1 945:1 975:1 1018:1 1079:1 1090:1 1102:1 1175:1 1180:1 1182:1 1218:1 1225:1 1230:1 1248:1 1254:1 1264:1 1277:1 1280:1 1288:1 1294:1 1299:1 1302:1 1308:1 1316:1 1319:1 1338:1 1352:1 1361:1 1368:1 1374:1 1376:1 1379:1 1382:1 1388:1 1398:4
-1 551:1 631:1 1102:1 1175:1 1319:1 1322:1 1368:1 1374:1 1398:2
-1 175:1 241:1 623:1 631:1 1079:1 1102:1 1175:1 1254:1 1294:1 1302:1 1319:1 1361:1 1368:1 1374:1 1398:1
-1 474:1 528:1 631:1 720:1 890:1 1036:1 1289:1 1368:1 1398:8
-1 474:1 528:1 631:1 720:1 890:1 1036:1 1289:1 1368:1 1398:7
-1 474:1 528:1 631:1 720:1 890:1 1036:1 1289:1 1368:1 1398:7
-1 474:1 528:1 631:1 720:1 890:1 1036:1 1289:1 1368:1 1398:8
-1 528:1 631:1 962:1 1102:1 1289:1 1319:1 1368:1 1398:2
-1 175:1 623:2 631:3 635:1 715:1 1102:2 1230:1 1254:1 1319:2 1361:2 1368:3 1370:1 1398:6
-1 117:1 146:1 239:1 243:1 247:1 274:1 297:1 355:1 394:1 395:1 415:1 426:1 437:1 503:1 506:1 516:1 528:1 539:1 542:1 565:1 578:1 611:1 632:1 666:1 674:1 713:1 715:1 729:1 758:1 792:1 826:1 852:1 859:1 884:1 926:1 940:1 946:1 949:1 971:1 991:1 1003:1 1005:1 1028:1 1068:1 1070:1 1115:1 1134:1 1144:1 1161:1 1162:1 1164:1 1222:1 1228:1 1230:1 1236:1 1241:1 1261:1 1273:1 1276:1 1284:1 1289:1 1304:1 1307:1 1310:1 1326:1 1331:1 1332:1 1348:1 1357:1 1373:1 1389:1 1391:1 1398:1
-1 175:1 241:1 288:1 623:1 631:1 635:1 1102:1 1125:1 1254:1 1302:1 1319:1 1338:1 1340:1 1361:1 1368:1 1370:1 1398:2
-1 164:1 336:1 528:1 631:1 1102:1 1176:1 1289:1 1319:1 1358:1 1368:1 1398:2
-1 164:1 528:1 631:1 1102:1 1176:1 1289:1 1319:1 1368:1 1398:1
-1 175:1 241:1 288:1 623:1 631:1 635:1 1102:1 1125:1 1254:1 1302:1 1319:1 1338:1 1340:1 1361:1 1368:1 1370:1 1398:3
-1 175:1 241:1 288:1 623:2 631:5 635:1 706:1 715:3 1102:2 1125:1 1221:1 1230:3 1254:1 1302:1 1319:2 1338:1 1340:1 1361:2 1368:5 1370:1 1398:6
-1 528:2 631:1 1079:1 1289:2 1294:1 1368:1 1398:4 1400:352
-1 175:1 241:1 288:1 623:1 631:1 635:1 706:1 1102:1 1175:1 1221:1 1254:1 1302:1 1319:1 1338:1 1361:1 1368:1 1370:1 1374:1 1398:2
-1 457:1 1252:1 1398:4
-1 175:1 288:1 528:2 623:1 631:1 713:1 722:1 1079:1 1083:1 1102:1 1228:1 1239:1 1254:1 1289:2 1294:1 1298:1 1319:1 1338:1 1361:1 1368:1 1398:4 1400:9616
-1 175:1 241:2 288:2 543:1 623:2 631:5 635:1 706:1 715:3 790:2 1102:2 1125:1 1175:1 1221:1 1230:3 1254:1 1275:2 1302:2 1319:2 1338:2 1340:1 1361:2 1368:5 1370:1 1374:1 1398:6
-1 469:1 528:2 631:1 1079:1 1289:2 1294:1 1368:1 1398:4 1400:354
-1 528:2 631:1 1079:1 1289:2 1294:1 1368:1 1398:4 1400:419
-1 124:1 175:1 224:1 241:1 256:1 288:1 306:1 344:1 616:1 623:1 631:1 635:1 636:1 678:1 706:1 715:1 722:1 758:1 802:1 829:1 832:1 968:1 1079:1 1085:1 1102:1 1175:1 1221:1 1230:1 1239:1 1254:1 1261:1 1294:1 1302:1 1314:1 1316:1 1319:1 1320:1 1338:1 1347:1 1359:1 1361:1 1363:1 1368:1 1370:1 1372:1 1374:1 1398:1 1400:24
-1 457:1 1252:1 1398:3
-1 457:1 1252:1 1398:2
-1 175:1 241:1 288:1 623:1 631:1 635:1 706:1 715:1 1102:1 1125:1 1221:1 1230:1 1254:1 1302:1 1319:1 1338:1 1340:1 1361:1 1368:1 1370:1 1398:1
-1 175:1 623:2 631:4 635:1 715:2 738:1 1102:2 1125:1 1230:2 1254:1 1319:2 1340:1 1361:2 1368:4 1370:1 1398:6
-1 288:1 623:1 631:1 1102:1 1319:1 1338:1 1361:1 1368:1 1398:2
-1 305:1 336:1 528:1 554:1 623:1 631:1 1079:1 1289:1 1294:1 1346:1 1358:1 1361:1 1368:1 1398:3
-1 288:1 305:1 528:1 623:1 631:1 1102:1 1289:1 1319:1 1338:1 1346:1 1361:1 1368:1 1398:2
-1 288:1 395:1 421:1 528:1 623:1 631:1 713:1 715:1 829:1 849:1 1102:1 1190:1 1228:1 1230:1 1289:1 1314:1 1319:1 1329:1 1338:1 1361:1 1368:1 1398:2
-1 336:1 429:1 528:1 623:1 631:1 832:1 1102:1 1289:1 1319:1 1320:1 1358:1 1361:1 1368:1 1398:2
-1 631:1 1368:1 1398:1
-1 631:1 1079:1 1294:1 1368:1 1398:1
-1 551:1 623:1 631:1 1322:1 1361:1 1368:1 1398:2
-1 711:1 1227:1 1398:1
-1 528:1 631:1 1289:1 1368:1 1398:3
-1 175:1 241:1 288:1 336:1 437:1 453:1 528:1 539:1 623:1 631:1 694:1 713:1 832:1 849:1 853:1 1102:1 1176:1 1220:1 1228:1 1241:1 1251:1 1254:1 1289:1 1302:1 1307:1 1319:1 1320:1 1329:1 1333:1 1338:1 1358:1 1361:1 1368:1 1398:1
-1 336:1 528:1 623:1 631:1 849:1 1102:1 1176:1 1289:1 1319:1 1329:1 1358:1 1361:1 1368:1 1398:2
-1 129:1 241:1 336:1 395:1 528:1 623:1 631:1 715:1 1079:1 1102:1 1176:1 1230:1 1289:1 1294:1 1302:1 1319:1 1358:1 1361:1 1368:1 1398:2
-1 241:1 288:1 336:1 395:1 528:1 623:1 631:1 715:1 770:1 1102:1 1230:1 1289:1 1302:1 1319:1 1338:1 1358:1 1361:1 1368:1 1398:2
-1 241:1 288:1 336:1 528:1 623:1 631:1 715:1 770:1 832:1 1176:1 1230:1 1289:1 1302:1 1320:1 1338:1 1358:1 1361:1 1368:1 1398:2
-1 528:1 623:1 631:1 713:1 829:1 1102:1 1228:1 1289:1 1314:1 1319:1 1361:1 1368:1 1398:1
-1 146:1 157:1 228:1 247:1 274:1 295:1 318:1 336:1 415:1 461:1 503:1 510:1 630:1 632:1 717:1 729:1 789:1 812:1 852:1 940:1 949:1 970:1 988:1 1031:1 1068:1 1076:1 1077:1 1084:1 1098:1 1107:1 1134:1 1144:1 1215:1 1222:1 1223:1 1236:1 1257:1 1273:1 1284:1 1286:1 1292:1 1310:1 1326:1 1332:1 1341:1 1348:1 1352:1 1358:1 1391:1 1398:3
-1 146:1 336:1 395:1 415:1 461:1 503:1 528:1 623:1 631:1 715:1 729:1 1016:1 1102:1 1134:1 1222:1 1230:1 1236:1 1273:1 1289:1 1319:1 1358:1 1361:1 1368:1 1398:1
-1 631:1 1175:1 1368:1 1374:1 1398:2
-1 239:1 528:1 623:1 631:1 694:1 849:1 1102:1 1220:1 1289:1 1304:1 1319:1 1329:1 1361:1 1368:1 1398:2
-1 175:1 241:1 288:1 623:1 631:1 635:1 713:1 715:1 758:1 832:1 1102:1 1125:1 1228:1 1230:1 1254:1 1261:1 1302:1 1319:1 1320:1 1338:1 1340:1 1361:1 1368:1 1370:1 1398:1
-1 631:1 1136:1 1368:1 1398:2
-1 288:1 623:1 631:1 1078:1 1102:1 1139:1 1319:1 1338:1 1361:1 1368:1 1398:1
-1 457:1 1252:1 1398:4
-1 336:1 348:1 528:1 623:1 631:1 832:1 1102:1 1289:1 1319:1 1320:1 1358:1 1361:1 1368:1 1398:1
-1 623:1 631:1 635:1 1102:1 1319:1 1361:1 1368:1 1370:1 1398:2
-1 175:1 241:1 288:1 623:1 631:1 635:1 706:1 715:1 728:1 829:1 832:1 853:1 1102:1 1150:1 1221:1 1230:1 1244:1 1254:1 1302:1 1314:1 1319:1 1320:1 1333:1 1338:1 1350:1 1361:1 1368:1 1370:1 1398:2
-1 175:1 241:1 288:1 623:1 631:1 635:1 706:1 715:1 832:1 853:1 1102:1 1150:1 1221:1 1230:1 1254:1 1302:1 1319:1 1320:1 1333:1 1338:1 1350:1 1361:1 1368:1 1370:1 1398:2
-1 146:1 274:1 288:1 336:1 348:1 373:1 382:1 395:1 415:1 503:1 510:1 528:1 635:1 640:1 646:1 715:1 729:1 789:1 829:1 852:1 924:1 938:1 940:1 949:1 988:1 1027:1 1035:1 1068:1 1077:1 1102:1 1134:1 1222:1 1223:1 1230:1 1236:1 1273:1 1284:1 1289:1 1314:1 1319:1 1326:1 1332:1 1338:1 1358:1 1370:1 1391:1 1396:1 1398:3
-1 146:1 177:1 241:1 247:1 257:1 395:1 415:1 437:1 461:1 503:1 528:1 539:1 631:1 729:1 807:1 852:1 938:1 1031:1 1068:1 1084:1 1115:1 1134:1 1162:1 1222:1 1236:1 1241:1 1257:1 1273:1 1284:1 1287:1 1289:1 1302:1 1307:1 1310:1 1331:1 1332:1 1357:1 1368:1 1398:2
-1 118:1 124:1 175:1 241:1 288:1 344:1 519:1 623:1 631:1 635:1 636:1 678:1 715:1 758:1 829:1 1023:1 1102:1 1125:1 1175:1 1230:1 1254:1 1261:1 1302:1 1314:1 1319:1 1338:1 1340:1 1361:1 1363:1 1368:1 1370:1 1372:1 1374:1 1398:2
-1 420:1 631:1 706:1 1102:1 1221:1 1319:1 1368:1 1398:4
-1 457:1 1252:1 1398:3
-1 314:1 528:1 631:1 933:1 1289:1 1368:1 1398:2
-1 241:1 336:1 348:1 354:1 453:1 484:1 528:1 555:1 623:1 631:1 635:1 715:1 829:1 832:1 864:1 951:1 1102:1 1125:1 1230:1 1251:1 1262:1 1289:1 1302:1 1314:1 1319:1 1320:1 1328:1 1340:1 1342:1 1358:1 1361:1 1368:1 1369:1 1370:1 1392:1 1398:1 1400:66
-1 457:1 1252:1 1398:3
-1 623:1 631:3 715:1 1102:2 1230:1 1319:2 1361:1 1368:3 1398:6
-1 457:1 1252:1 1398:2
-1 175:1 623:1 631:1 706:1 1102:1 1125:1 1221:1 1254:1 1319:1 1340:1 1361:1 1368:1 1398:1
-1 175:1 241:1 288:1 336:1 528:1 601:1 623:1 624:1 631:1 635:1 706:1 770:1 829:1 864:1 933:1 1102:1 1170:1 1221:1 1254:1 1289:1 1302:1 1314:1 1319:1 1338:1 1342:1 1358:1 1361:1 1364:1 1368:1 1370:1 1398:2
-1 288:1 528:1 631:1 970:1 1215:1 1289:1 1338:1 1368:1 1398:2
-1 146:1 148:1 274:1 336:1 373:1 415:1 461:1 503:1 505:1 528:1 632:1 729:1 789:1 852:1 901:1 938:1 940:1 949:1 1006:1 1064:1 1068:1 1079:1 1084:1 1098:1 1134:1 1162:1 1222:1 1236:1 1238:1 1243:1 1273:1 1284:1 1289:1 1294:1 1326:1 1332:1 1357:1 1358:1 1391:1 1398:2
-1 623:2 631:2 635:1 715:1 1102:2 1230:1 1319:2 1361:2 1368:2 1370:1 1398:7
-1 175:1 623:1 631:1 706:1 1102:1 1221:1 1254:1 1319:1 1361:1 1368:1 1398:1
-1 336:1 528:1 623:1 631:1 1289:1 1358:1 1361:1 1368:1 1398:1
-1 175:1 631:1 1102:1 1254:1 1319:1 1368:1 1398:1
-1 146:1 212:1 415:1 461:1 503:1 528:1 729:1 852:1 938:1 1084:1 1134:1 1222:1 1236:1 1273:1 1289:1 1332:1 1398:1
-1 241:1 528:1 631:1 844:1 1049:1 1102:1 1289:1 1302:1 1319:1 1368:1 1398:2
-1 175:1 288:1 623:2 631:4 635:1 706:1 715:2 1102:2 1221:1 1230:2 1254:1 1319:2 1338:1 1361:2 1368:4 1370:1 1398:6
-1 175:1 623:1 631:1 706:1 1102:1 1221:1 1254:1 1319:1 1361:1 1368:1 1398:1
-1 517:1 631:1 1079:1 1294:1 1368:1 1398:2
-1 457:1 1252:1 1398:2
-1 457:1 1252:1 1398:3
-1 517:1 631:1 1368:1 1398:3
-1 343:1 528:1 1289:1 1398:2
-1 146:1 288:1 311:1 336:1 387:1 395:1 415:1 503:1 528:1 623:1 631:1 635:1 706:1 713:1 729:1 832:1 852:1 853:1 893:1 1084:1 1102:1 1129:1 1134:1 1221:1 1222:1 1228:1 1236:1 1273:1 1289:1 1319:1 1320:1 1332:1 1333:1 1338:1 1349:1 1358:1 1361:1 1368:1 1370:1 1398:1
-1 288:1 631:1 1079:1 1102:1 1294:1 1319:1 1338:1 1368:1 1398:2
-1 146:1 274:1 373:1 395:1 415:1 430:1 503:1 528:1 717:1 729:1 746:1 789:1 826:1 827:1 832:1 852:1 901:1 938:1 949:1 1068:1 1084:1 1098:1 1134:1 1162:1 1222:1 1236:1 1256:1 1273:1 1284:1 1289:1 1311:1 1320:1 1326:1 1332:1 1357:1 1391:1 1398:2
-1 324:1 336:1 348:1 395:1 528:1 623:1 631:1 715:1 1102:1 1125:1 1230:1 1289:1 1319:1 1340:1 1358:1 1361:1 1368:1 1398:1
-1 146:1 247:1 257:1 328:1 395:1 415:1 437:1 461:1 503:1 528:1 539:1 729:1 770:1 789:1 812:1 852:1 938:1 949:1 1031:1 1068:1 1084:1 1115:1 1134:1 1162:1 1211:1 1222:1 1236:1 1241:1 1257:1 1273:1 1284:1 1289:1 1292:1 1307:1 1310:1 1331:1 1332:1 1357:1 1391:1 1398:2
-1 146:1 177:1 247:1 257:1 395:1 415:1 461:1 503:1 528:1 539:1 729:1 852:1 938:1 1027:1 1068:1 1084:1 1115:1 1134:1 1211:1 1222:1 1236:1 1273:1 1284:1 1289:1 1307:1 1310:1 1331:1 1332:1 1398:1 1400:2
-1 457:1 1252:1 1398:3
-1 175:1 241:1 288:1 623:2 631:5 635:1 706:1 715:3 1102:2 1125:1 1221:1 1230:3 1254:1 1302:1 1319:2 1338:1 1340:1 1361:2 1368:5 1370:1 1398:6
-1 175:1 241:1 623:2 631:5 635:1 706:1 715:3 1102:2 1125:1 1221:1 1230:3 1254:1 1302:1 1319:2 1340:1 1361:2 1368:5 1370:1 1398:6
-1 146:1 247:1 415:1 503:1 528:1 729:1 852:1 1068:1 1134:1 1222:1 1236:1 1273:1 1284:1 1289:1 1310:1 1332:1 1398:2
-1 175:1 462:1 528:2 631:1 681:1 761:1 1102:1 1254:1 1264:1 1289:2 1319:1 1368:1 1398:2
-1 137:1 146:1 336:1 415:1 503:1 528:1 623:1 631:1 717:1 727:1 729:1 852:1 1134:1 1222:1 1236:1 1273:1 1289:1 1332:1 1358:1 1361:1 1368:1 1398:3
-1 336:1 528:1 631:1 933:1 1289:1 1358:1 1368:1 1398:2
-1 631:1 1079:1 1294:1 1368:1 1398:2
-1 631:1 706:1 1102:1 1221:1 1319:1 1368:1 1398:4
-1 457:1 1252:1 1398:3
-1 119:1 453:1 623:1 631:3 715:1 1102:2 1230:1 1251:1 1319:2 1361:1 1368:3 1398:6
-1 288:1 528:1 631:1 1289:1 1338:1 1368:1 1398:1
-1 528:1 631:1 962:1 1102:1 1289:1 1319:1 1368:1 1398:2
-1 288:1 395:1 528:1 631:1 1289:1 1338:1 1368:1 1398:3
-1 175:1 241:1 288:1 623:1 631:1 635:1 1102:1 1125:1 1254:1 1302:1 1319:1 1338:1 1340:1 1361:1 1368:1 1370:1 1398:2
-1 528:1 623:1 631:1 1102:1 1289:1 1319:1 1361:1 1368:1 1398:2
-1 175:1 241:1 288:1 623:1 631:1 635:1 1102:1 1125:1 1254:1 1302:1 1319:1 1338:1 1340:1 1361:1 1368:1 1370:1 1398:3
-1 175:1 241:1 288:1 631:1 1102:1 1254:1 1302:1 1319:1 1338:1 1368:1 1398:1
-1 528:1 631:1 771:1 1102:1 1289:1 1319:1 1368:1 1398:2
-1 474:1 528:1 631:1 714:1 767:1 890:1 1131:1 1289:1 1368:1 1398:6
-1 528:2 623:1 631:1 1289:2 1361:1 1368:1 1398:5 1400:275
-1 528:2 623:1 631:1 1079:1 1289:2 1294:1 1361:1 1368:1 1398:5 1400:424
-1 528:2 623:1 631:1 1079:1 1289:2 1294:1 1361:1 1368:1 1398:5 1400:305
-1 146:1 162:1 274:1 373:1 395:1 415:1 495:1 503:1 528:1 541:1 583:1 713:1 729:1 789:1 826:1 837:1 852:1 949:1 988:1 1035:1 1068:1 1076:1 1084:1 1134:1 1222:1 1223:1 1228:1 1236:1 1247:1 1269:1 1273:1 1284:1 1289:1 1309:1 1321:1 1326:1 1332:1 1391:1 1398:2
-1 146:1 162:1 274:1 373:1 395:1 415:1 495:1 503:1 528:1 541:1 583:1 713:1 729:1 789:1 826:1 837:1 852:1 949:1 988:1 1035:1 1068:1 1076:1 1084:1 1134:1 1222:1 1223:1 1228:1 1236:1 1247:1 1269:1 1273:1 1284:1 1289:1 1309:1 1321:1 1326:1 1332:1 1391:1 1398:2
-1 146:1 382:1 395:1 415:1 503:1 528:1 541:1 583:1 729:1 837:1 852:1 940:1 949:1 988:1 1068:1 1076:1 1084:1 1134:1 1222:1 1223:1 1236:1 1273:1 1284:1 1289:1 1309:1 1321:1 1332:1 1391:1 1396:1 1398:2
-1 146:1 382:1 395:1 415:1 503:1 528:1 541:1 583:1 729:1 837:1 852:1 940:1 949:1 988:1 1068:1 1076:1 1084:1 1134:1 1222:1 1223:1 1236:1 1273:1 1284:1 1289:1 1309:1 1321:1 1332:1 1391:1 1396:1 1398:2
-1 336:1 528:1 623:1 631:1 1289:1 1358:1 1361:1 1368:1 1398:2
-1 175:1 241:1 288:1 453:1 623:1 631:1 635:1 636:1 706:1 710:1 715:1 829:1 1102:1 1221:1 1226:1 1230:1 1251:1 1254:1 1302:1 1314:1 1319:1 1338:1 1361:1 1368:1 1370:1 1372:1 1398:1
-1 631:1 1368:1 1398:1
-1 631:1 1368:1 1398:1
-1 631:1 1368:1 1398:1
-1 490:1 631:1 805:1 1368:1 1398:2
-1 188:1 528:1 631:1 1289:1 1368:1 1398:4
-1 146:1 272:1 295:1 308:1 318:1 336:1 354:1 382:1 395:1 402:1 415:1 453:1 461:1 503:1 623:1 630:1 631:1 715:1 729:1 770:1 789:1 826:1 832:1 940:1 949:1 988:1 1084:1 1102:1 1134:1 1222:1 1223:1 1230:1 1236:1 1251:1 1273:1 1319:1 1320:1 1325:1 1341:1 1352:1 1358:1 1361:1 1368:1 1369:1 1391:1 1396:1 1398:1
-1 262:1 631:1 651:1 1079:1 1294:1 1318:1 1368:1 1398:1
-1 711:1 1227:1 1398:1
-1 336:1 528:1 623:1 631:1 1079:1 1102:1 1181:1 1289:1 1294:1 1319:1 1358:1 1361:1 1368:1 1380:1 1398:1
-1 631:1 1368:1 1398:3
-1 175:1 241:1 288:1 623:1 631:1 635:1 706:1 715:1 853:1 1102:1 1125:1 1221:1 1230:1 1254:1 1302:1 1319:1 1333:1 1338:1 1340:1 1361:1 1368:1 1370:1 1398:1
-1 528:1 631:1 1289:1 1368:1 1398:6
-1 631:1 1368:1 1398:3
-1 146:1 336:1 415:1 503:1 528:1 722:1 729:1 852:1 938:1 940:1 949:1 1079:1 1084:1 1098:1 1111:1 1134:1 1162:1 1222:1 1236:1 1239:1 1273:1 1289:1 1294:1 1332:1 1357:1 1358:1 1391:1 1398:2
-1 175:1 631:1 635:1 1102:1 1254:1 1319:1 1368:1 1370:1 1398:3
-1 281:1 315:1 469:1 623:1 631:1 1079:1 1102:1 1294:1 1319:1 1361:1 1368:1 1398:1
-1 129:1 336:1 340:1 528:1 623:1 631:1 713:1 832:1 951:1 1228:1 1289:1 1320:1 1358:1 1361:1 1368:1 1392:1 1398:1
-1 267:1 432:1 528:2 631:1 720:1 1036:1 1289:2 1368:1 1398:2
-1 146:1 148:1 257:1 274:1 395:1 415:1 461:1 503:1 528:1 630:1 715:1 729:1 852:1 938:1 949:1 1006:1 1031:1 1068:1 1076:1 1084:1 1134:1 1162:1 1222:1 1230:1 1236:1 1238:1 1243:1 1257:1 1273:1 1284:1 1289:1 1326:1 1332:1 1357:1 1391:1 1398:3
-1 457:1 1252:1 1398:3
-1 551:1 623:1 631:1 1102:1 1319:1 1322:1 1361:1 1368:1 1398:2
-1 528:1 631:1 635:1 1102:1 1289:1 1319:1 1368:1 1370:1 1398:2
-1 175:1 241:1 288:1 336:1 528:1 623:1 631:1 635:1 752:1 952:1 1102:1 1254:1 1289:1 1302:1 1319:1 1338:1 1358:1 1361:1 1368:1 1370:1 1398:3
-1 631:1 1136:2 1368:1 1398:2
-1 175:1 241:1 288:1 453:1 558:1 623:1 631:1 706:1 715:1 816:1 829:1 1102:1 1125:1 1221:1 1230:1 1251:1 1254:1 1301:1 1302:1 1314:1 1319:1 1330:1 1338:1 1340:1 1361:1 1368:1 1398:1
-1 528:2 631:1 920:13 1079:1 1289:2 1294:1 1368:1 1398:5
-1 175:1 623:1 631:1 706:1 1102:1 1125:1 1221:1 1254:1 1319:1 1340:1 1361:1 1368:1 1398:1
-1 175:1 241:1 288:1 344:1 453:1 495:1 528:1 623:1 631:1 706:1 713:1 829:1 1102:1 1221:1 1228:1 1251:1 1254:1 1269:1 1289:1 1302:1 1314:1 1319:1 1338:1 1361:1 1363:1 1368:1 1398:4
-1 129:1 288:1 340:1 421:1 528:1 623:1 631:1 713:1 1102:1 1228:1 1289:1 1319:1 1338:1 1361:1 1368:1 1398:2
-1 457:1 1252:1 1398:3
-1 146:1 148:1 288:1 336:1 373:1 415:1 503:1 528:1 631:1 729:1 789:1 829:1 852:1 1102:1 1134:1 1162:1 1222:1 1236:1 1238:1 1273:1 1289:1 1314:1 1319:1 1332:1 1338:1 1357:1 1358:1 1368:1 1398:2
-1 146:1 148:1 175:1 241:1 247:1 274:1 288:1 336:1 395:1 415:1 437:1 461:1 503:1 528:1 539:1 623:1 631:1 635:1 646:1 729:1 770:1 789:1 829:1 852:1 938:1 1035:1 1084:1 1102:1 1134:1 1162:1 1222:1 1236:1 1238:1 1241:1 1254:1 1273:1 1289:1 1302:1 1307:1 1310:1 1314:1 1319:1 1326:1 1332:1 1338:1 1357:1 1358:1 1361:1 1368:1 1370:1 1398:1
-1 175:1 326:1 528:1 631:1 706:1 1102:1 1221:1 1254:1 1289:1 1319:1 1368:1 1398:2
-1 288:1 623:1 631:3 1102:1 1319:1 1338:1 1361:1 1368:3 1398:6
-1 146:1 274:1 295:1 318:1 395:1 415:1 437:1 461:1 503:1 539:1 630:1 716:1 729:1 812:1 832:1 852:1 940:1 1068:1 1084:1 1115:1 1134:1 1144:1 1196:1 1222:1 1231:1 1236:1 1241:1 1273:1 1284:1 1292:1 1307:1 1320:1 1326:1 1331:1 1332:1 1341:1 1348:1 1352:1 1398:3
-1 528:1 631:1 1102:1 1176:1 1289:1 1319:1 1368:1 1398:2
-1 551:1 631:1 753:1 1322:1 1368:1 1398:1
-1 631:1 1368:1 1398:3
-1 457:1 1252:1 1398:3
-1 457:1 1252:1 1398:3
-1 528:1 631:1 1289:1 1368:1 1398:4
-1 528:1 986:1 1289:1 1398:2
-1 267:1 460:1 528:2 631:1 720:1 721:1 761:1 1036:1 1264:1 1289:2 1368:1 1398:6
-1 528:1 623:1 631:1 1289:1 1361:1 1368:1 1398:2
-1 528:1 702:1 823:1 1289:1 1398:2
-1 457:1 1252:1 1398:4
-1 175:2 241:2 256:1 288:2 344:1 528:1 623:2 631:5 635:1 706:1 715:3 853:1 1023:1 1102:2 1125:1 1175:1 1221:1 1230:3 1254:2 1289:1 1302:2 1316:1 1319:2 1333:1 1338:2 1340:1 1361:2 1363:1 1368:5 1370:1 1374:1 1398:6
-1 457:1 1252:1 1398:3
-1 457:1 1252:1 1398:3
-1 457:1 1252:1 1398:3
-1 457:1 1252:1 1398:3
-1 457:1 1252:1 1398:2
-1 457:1 1252:1 1398:2
-1 623:2 631:2 635:1 715:1 1102:2 1230:1 1319:2 1361:2 1368:2 1370:1 1398:6
-1 457:1 1252:1 1398:2
-1 457:1 1252:1 1398:4
-1 457:1 1252:1 1398:2
-1 175:1 241:1 288:1 623:1 631:1 635:1 715:1 1102:1 1125:1 1230:1 1254:1 1302:1 1319:1 1338:1 1340:1 1361:1 1368:1 1370:1 1398:5
-1 175:1 241:1 288:1 623:1 631:1 635:1 715:1 1102:1 1125:1 1230:1 1254:1 1302:1 1319:1 1338:1 1340:1 1361:1 1368:1 1370:1 1398:5
-1 131:1 175:1 262:1 597:1 623:1 631:1 684:1 1102:1 1254:1 1318:1 1319:1 1361:1 1368:1 1398:2
-1 241:1 327:1 631:1 642:1 678:1 715:1 723:1 1102:1 1230:1 1302:1 1319:1 1368:1 1398:1 1400:1
-1 125:1 160:1 195:1 431:1 513:1 631:1 681:1 761:1 805:1 855:1 918:1 1210:1 1264:1 1368:1 1398:1
-1 218:1 231:1 288:1 318:1 487:1 535:1 590:1 616:1 623:1 631:1 649:1 709:1 829:1 975:1 1102:1 1180:1 1182:1 1218:1 1225:1 1277:1 1288:1 1299:1 1314:1 1319:1 1338:1 1352:1 1359:1 1361:1 1368:1 1376:1 1379:1 1382:1 1398:3
-1 175:1 241:1 262:1 288:1 617:1 623:1 631:1 635:1 706:1 1102:1 1221:1 1254:1 1302:1 1318:1 1319:1 1338:1 1360:1 1361:1 1368:1 1370:1 1398:1
-1 146:1 148:1 274:1 312:1 336:1 373:1 395:1 415:1 480:1 503:1 505:1 528:1 715:1 717:1 729:1 746:1 789:1 852:1 938:1 940:1 949:1 1006:1 1027:1 1031:1 1068:1 1084:1 1098:1 1134:1 1162:1 1222:1 1230:1 1236:1 1238:1 1243:1 1256:1 1257:1 1273:1 1284:1 1289:1 1326:1 1332:1 1357:1 1358:1 1391:1 1398:3
-1 175:1 288:1 623:1 631:1 635:1 636:1 706:1 864:1 1102:1 1221:1 1254:1 1319:1 1338:1 1342:1 1361:1 1368:1 1370:1 1372:1 1398:3 1400:123
-1 146:1 241:1 336:1 395:1 415:1 503:1 528:1 631:1 699:1 715:1 729:1 789:1 812:1 852:1 882:1 938:1 940:1 949:1 1045:1 1068:1 1077:1 1102:1 1107:1 1134:1 1144:1 1162:1 1222:1 1230:1 1236:1 1273:1 1284:1 1289:1 1292:1 1302:1 1319:1 1332:1 1348:1 1357:1 1358:1 1368:1 1391:1 1398:1
-1 172:1 175:1 241:1 270:1 288:2 489:1 561:1 623:2 631:4 635:1 715:3 758:1 866:1 1102:3 1125:1 1230:3 1254:1 1261:1 1302:1 1319:3 1338:2 1340:1 1361:2 1368:4 1370:1 1398:4 1400:1
-1 175:1 241:1 623:2 631:4 635:1 715:3 1102:2 1125:1 1230:3 1254:1 1302:1 1319:2 1340:1 1361:2 1368:4 1370:1 1398:6
-1 175:1 241:1 288:1 551:1 623:2 631:4 635:1 715:3 1102:2 1125:1 1175:1 1230:3 1254:1 1302:1 1319:2 1322:1 1338:1 1340:1 1361:2 1368:4 1370:1 1374:1 1398:6
-1 149:1 175:1 288:1 366:1 440:1 471:1 623:1 631:1 758:1 1019:1 1102:1 1254:1 1261:1 1319:1 1338:1 1361:1 1368:1 1398:4
-1 175:1 241:1 623:2 631:4 635:1 706:1 715:3 1102:2 1125:1 1175:1 1221:1 1230:3 1254:1 1302:1 1319:2 1340:1 1361:2 1368:4 1370:1 1374:1 1398:6
-1 457:1 1252:1 1398:2
-1 288:1 336:1 528:1 623:1 631:1 848:1 1102:1 1289:1 1319:1 1338:1 1358:1 1361:1 1368:1 1398:2
-1 395:1 528:1 623:1 631:1 715:1 832:1 1102:1 1230:1 1289:1 1319:1 1320:1 1361:1 1368:1 1398:1
-1 129:1 137:1 146:1 175:1 241:1 257:1 274:1 288:1 312:1 324:1 336:1 348:1 373:1 382:1 395:1 415:1 480:1 503:1 510:1 528:1 555:1 611:1 630:1 632:1 635:1 640:1 646:1 713:1 715:1 729:1 746:1 789:1 812:1 826:1 829:1 849:1 852:1 853:1 864:1 924:1 938:1 940:1 949:1 952:1 988:1 1027:1 1035:1 1068:1 1077:1 1084:1 1102:1 1134:1 1222:1 1223:1 1228:1 1230:1 1236:1 1254:1 1256:1 1273:1 1284:1 1289:1 1292:1 1302:1 1314:1 1319:1 1326:1 1328:1 1329:1 1332:1 1333:1 1338:1 1342:1 1358:1 1370:1 1391:1 1396:1 1398:1
-1 175:1 420:1 631:1 1102:1 1254:1 1319:1 1368:1 1398:3
-1 175:1 623:1 631:1 706:1 1102:1 1125:1 1221:1 1254:1 1319:1 1340:1 1361:1 1368:1 1398:1
-1 241:1 336:1 528:1 623:1 631:1 1289:1 1302:1 1358:1 1361:1 1368:1 1398:1
-1 262:1 350:1 631:1 1318:1 1368:1 1398:1
-1 190:1 262:1 631:1 1318:1 1368:1 1398:1
-1 623:2 631:2 635:1 715:1 1102:2 1230:1 1319:2 1361:2 1368:2 1370:1 1398:7
-1 631:1 1136:1 1368:1 1398:3
-1 146:1 148:1 247:1 274:1 312:1 373:1 395:1 415:1 461:1 480:1 503:1 528:1 632:1 690:1 715:1 729:1 746:1 789:1 812:1 852:1 938:1 940:1 949:1 1006:1 1031:1 1062:1 1068:1 1076:1 1084:1 1133:1 1134:1 1144:1 1162:1 1219:1 1222:1 1230:1 1236:1 1238:1 1243:1 1256:1 1257:1 1273:1 1284:1 1289:1 1292:1 1310:1 1326:1 1332:1 1344:1 1348:1 1357:1 1391:1 1398:3
-1 136:1 146:1 148:1 155:1 247:1 257:1 274:1 312:1 336:1 355:1 373:1 392:1 395:1 415:1 461:1 480:1 503:1 505:1 510:1 528:1 674:1 715:1 729:1 746:1 789:1 792:1 793:1 812:1 826:1 852:1 882:1 901:1 938:1 949:1 970:1 1006:1 1027:1 1031:1 1035:1 1039:1 1062:1 1068:1 1076:1 1077:1 1084:1 1107:1 1134:1 1144:1 1162:1 1215:1 1222:1 1230:1 1236:1 1238:1 1243:1 1256:1 1257:1 1273:1 1276:1 1284:1 1289:1 1292:1 1310:1 1326:1 1332:1 1348:1 1357:1 1358:1 1373:1 1391:1 1397:1 1398:1
-1 457:1 1252:1 1398:5
-1 136:1 146:1 148:1 247:1 274:1 312:1 373:1 382:1 392:1 395:1 415:1 461:1 480:1 503:1 528:1 586:1 632:1 690:1 715:1 729:1 746:1 789:1 812:1 826:1 852:1 938:1 940:1 949:1 1006:1 1027:1 1031:1 1062:1 1068:1 1076:1 1084:1 1133:1 1134:1 1144:1 1162:1 1219:1 1222:1 1230:1 1236:1 1238:1 1243:1 1256:1 1257:1 1273:1 1284:1 1289:1 1292:1 1310:1 1326:1 1332:1 1344:1 1348:1 1357:1 1391:1 1396:1 1397:1 1398:3
-1 146:1 158:1 177:1 247:1 257:1 274:1 297:1 332:1 336:1 355:1 365:1 373:1 384:1 395:1 405:1 406:1 415:1 426:1 437:1 461:1 480:1 503:1 528:1 539:1 598:1 674:1 710:1 729:1 789:1 793:1 826:1 832:1 852:1 938:1 1027:1 1031:1 1068:1 1084:1 1115:1 1134:1 1162:1 1196:1 1211:1 1222:1 1226:1 1236:1 1241:1 1257:1 1273:1 1284:1 1289:1 1307:1 1310:1 1320:1 1326:1 1331:1 1332:1 1353:1 1357:1 1358:1 1373:1 1384:1 1398:2 1400:2
-1 146:1 373:1 415:1 503:1 515:1 528:1 729:1 789:1 852:1 938:1 940:1 949:1 970:1 1031:1 1068:1 1084:1 1098:1 1134:1 1144:1 1215:1 1222:1 1236:1 1257:1 1273:1 1284:1 1289:1 1332:1 1348:1 1391:1 1398:3
-1 336:1 528:1 623:1 631:1 653:1 1080:1 1102:1 1289:1 1295:1 1319:1 1358:1 1361:1 1368:1 1398:2
-1 146:1 177:1 241:1 257:1 415:1 461:1 503:1 528:1 539:1 631:1 729:1 852:1 938:1 1068:1 1084:1 1115:1 1134:1 1162:1 1222:1 1236:1 1273:1 1284:1 1289:1 1302:1 1307:1 1331:1 1332:1 1357:1 1368:1 1398:1 1400:2
-1 457:1 1252:1 1398:2
-1 623:3 631:4 635:1 715:2 1102:2 1230:2 1319:2 1361:3 1368:4 1370:1 1398:6
-1 528:2 631:1 652:1 844:1 1289:2 1368:1 1398:2
-1 366:1 631:1 673:1 1019:1 1102:1 1319:1 1368:1 1398:2
-1 631:1 750:1 1368:1 1398:3
-1 623:1 631:1 1091:1 1102:1 1319:1 1361:1 1368:1 1398:3
-1 175:1 241:1 256:1 288:1 528:2 623:1 631:1 706:1 715:1 1079:1 1102:1 1175:1 1221:1 1230:1 1254:1 1289:2 1294:1 1302:1 1316:1 1319:1 1338:1 1361:1 1368:1 1374:1 1398:2 1400:2
-1 175:1 241:1 288:1 528:1 623:2 631:4 635:1 706:1 715:3 1102:3 1125:1 1221:1 1230:3 1254:1 1289:1 1302:1 1319:3 1338:1 1340:1 1361:2 1368:4 1370:1 1398:5
-1 631:1 1079:1 1294:1 1368:1 1398:2
-1 241:1 272:1 295:1 318:1 354:1 623:1 631:1 713:1 715:1 951:1 1080:1 1102:1 1228:1 1230:1 1295:1 1302:1 1319:1 1325:1 1341:1 1352:1 1361:1 1368:1 1369:1 1392:1 1398:1
-1 241:1 272:1 288:1 295:1 318:1 336:1 354:1 405:1 623:1 631:1 649:1 713:1 832:1 951:1 1228:1 1302:1 1320:1 1325:1 1338:1 1341:1 1352:1 1358:1 1361:1 1368:1 1369:1 1382:1 1392:1 1398:1
-1 146:1 228:1 247:1 274:1 336:1 355:1 382:1 395:1 415:1 437:1 461:1 498:1 503:1 510:1 528:1 539:1 717:1 729:1 789:1 792:1 852:1 882:1 938:1 940:1 949:1 970:1 1027:1 1035:1 1068:1 1077:1 1084:1 1107:1 1115:1 1134:1 1162:1 1215:1 1222:1 1236:1 1241:1 1273:1 1276:1 1284:1 1286:1 1289:1 1307:1 1310:1 1326:1 1331:1 1332:1 1357:1 1358:1 1373:1 1391:1 1396:1 1398:1
-1 631:1 715:1 1102:1 1230:1 1319:1 1368:1 1398:4
-1 457:1 1252:1 1398:3
-1 457:1 1252:1 1398:2
-1 457:1 1252:1 1398:3
-1 457:1 1252:1 1398:2
-1 457:1 1252:1 1398:3
-1 125:1 160:1 195:1 431:1 513:1 631:1 681:1 761:1 805:1 855:1 918:1 1210:1 1264:1 1368:1 1398:1
-1 631:1 678:1 1368:1 1398:2
-1 457:1 1252:1 1398:3
-1 490:1 631:1 805:1 1368:1 1398:2
-1 241:1 623:1 631:1 665:1 715:1 1102:1 1125:1 1230:1 1302:1 1319:1 1340:1 1361:1 1368:1 1395:1 1398:1
-1 137:1 146:1 247:1 274:1 336:1 355:1 364:1 373:1 415:1 503:1 717:1 729:1 789:1 811:1 812:1 832:1 846:1 852:1 938:1 940:1 949:1 983:1 1031:1 1035:1 1068:1 1084:1 1098:1 1134:1 1144:1 1162:1 1222:1 1236:1 1257:1 1273:1 1284:1 1292:1 1310:1 1320:1 1326:1 1332:1 1348:1 1357:1 1358:1 1373:1 1391:1 1398:1
-1 241:1 528:1 614:1 623:1 631:1 715:1 829:1 1095:1 1102:1 1230:1 1289:1 1302:1 1314:1 1315:1 1319:1 1361:1 1368:1 1398:2
-1 175:1 623:1 631:1 635:1 715:1 829:1 853:1 911:1 1102:1 1230:1 1254:1 1314:1 1319:1 1333:1 1361:1 1362:1 1368:1 1370:1 1398:2
-1 175:1 528:1 631:1 1102:1 1254:1 1289:1 1319:1 1368:1 1398:2
-1 241:1 288:1 336:1 528:1 623:1 631:1 715:1 829:1 864:1 888:1 1057:1 1095:1 1102:1 1230:1 1274:1 1289:1 1302:1 1314:1 1315:1 1319:1 1338:1 1342:1 1351:1 1358:1 1361:1 1368:1 1398:2
-1 175:1 241:1 558:1 623:1 631:1 635:1 706:1 715:1 1102:1 1183:1 1221:1 1230:1 1254:1 1302:1 1319:1 1330:1 1361:1 1368:1 1370:1 1381:1 1398:2
-1 528:2 631:1 1102:1 1289:2 1319:1 1368:1 1398:3
-1 146:1 223:1 336:1 373:1 415:1 421:1 503:1 528:1 631:1 729:1 789:1 829:1 852:1 938:1 949:1 1084:1 1093:1 1098:1 1126:1 1134:1 1162:1 1222:1 1236:1 1273:1 1282:1 1289:1 1313:1 1314:1 1332:1 1357:1 1358:1 1368:1 1391:1 1398:2
-1 136:1 146:1 148:1 228:1 247:1 257:1 274:1 294:1 297:1 336:1 355:1 373:1 382:1 395:1 415:1 437:1 461:1 503:1 505:1 514:1 528:1 539:1 570:1 674:1 717:1 729:1 746:1 770:1 789:1 792:1 793:1 812:1 826:1 852:1 938:1 940:1 949:1 970:1 988:1 1031:1 1039:1 1068:1 1084:1 1115:1 1128:1 1134:1 1144:1 1162:1 1215:1 1222:1 1223:1 1236:1 1238:1 1241:1 1256:1 1257:1 1273:1 1276:1 1279:1 1284:1 1286:1 1289:1 1292:1 1307:1 1310:1 1326:1 1331:1 1332:1 1339:1 1348:1 1357:1 1358:1 1373:1 1391:1 1396:1 1398:1
-1 175:1 241:1 288:1 623:1 631:1 706:1 715:1 1102:1 1125:1 1221:1 1230:1 1254:1 1302:1 1319:1 1338:1 1340:1 1361:1 1368:1 1398:3
-1 623:2 631:2 715:1 1102:2 1230:1 1319:2 1361:2 1368:2 1398:7
-1 175:1 241:1 288:1 344:1 631:1 713:1 1083:1 1102:1 1177:1 1228:1 1254:1 1298:1 1302:1 1319:1 1338:1 1363:1 1368:1 1375:1 1398:2 1400:2
-1 175:1 241:1 288:1 631:1 1102:1 1254:1 1302:1 1319:1 1338:1 1368:1 1398:2
-1 175:1 623:1 631:1 1102:1 1254:1 1319:1 1361:1 1368:1 1398:2 1400:2
-1 241:1 288:1 623:1 631:1 715:1 1102:1 1125:1 1230:1 1302:1 1319:1 1338:1 1340:1 1361:1 1368:1 1398:1
-1 175:1 241:1 288:1 623:1 631:1 706:1 715:1 1102:1 1125:1 1221:1 1230:1 1254:1 1302:1 1319:1 1338:1 1340:1 1361:1 1368:1 1398:3
-1 175:1 241:1 288:1 631:1 1102:1 1254:1 1302:1 1319:1 1338:1 1368:1 1398:2
-1 623:2 631:2 635:1 715:1 1102:2 1230:1 1319:2 1361:2 1368:2 1370:1 1398:7
-1 711:1 1227:1 1398:2
-1 623:3 631:4 635:1 715:1 1102:2 1230:1 1319:2 1361:3 1368:4 1370:1 1398:5
-1 175:1 241:1 288:1 623:1 631:1 635:1 1102:1 1125:1 1254:1 1302:1 1319:1 1338:1 1340:1 1361:1 1368:1 1370:1 1398:3
-1 175:1 241:1 288:1 344:1 631:1 713:1 1083:1 1102:1 1177:1 1228:1 1254:1 1298:1 1302:1 1319:1 1338:1 1363:1 1368:1 1375:1 1398:1 1400:2
-1 175:1 241:1 288:1 623:1 631:1 706:1 715:1 1102:1 1125:1 1221:1 1230:1 1254:1 1302:1 1319:1 1338:1 1340:1 1361:1 1368:1 1398:3
-1 175:1 241:1 288:1 623:1 631:1 706:1 715:1 1102:1 1125:1 1221:1 1230:1 1254:1 1302:1 1319:1 1338:1 1340:1 1361:1 1368:1 1398:1
-1 623:3 631:4 635:1 715:2 1102:2 1230:2 1319:2 1361:3 1368:4 1370:1 1398:6
-1 175:1 241:1 288:1 631:1 1102:1 1254:1 1302:1 1319:1 1338:1 1368:1 1398:1
-1 175:1 241:1 288:1 344:1 631:1 713:1 1083:1 1102:1 1177:1 1228:1 1254:1 1298:1 1302:1 1319:1 1338:1 1363:1 1368:1 1375:1 1398:1 1400:2
-1 175:1 241:1 288:1 631:1 1102:1 1254:1 1302:1 1319:1 1338:1 1368:1 1398:2
-1 175:1 241:1 288:1 344:1 631:1 713:1 1083:1 1102:1 1177:1 1228:1 1254:1 1298:1 1302:1 1319:1 1338:1 1363:1 1368:1 1375:1 1398:1 1400:2
-1 175:1 241:1 288:1 631:1 1102:1 1254:1 1302:1 1319:1 1338:1 1368:1 1398:2
-1 175:1 241:1 288:1 631:1 1102:1 1254:1 1302:1 1319:1 1338:1 1368:1 1398:2
-1 175:1 241:1 288:1 631:1 1102:1 1254:1 1302:1 1319:1 1338:1 1368:1 1398:2
-1 623:1 631:1 1102:1 1125:1 1319:1 1340:1 1361:1 1368:1 1398:1
-1 623:2 631:2 715:1 1102:2 1230:1 1319:2 1361:2 1368:2 1398:7
-1 336:1 1358:1 1398:2
-1 175:1 288:1 569:1 623:1 631:1 635:1 1102:1 1254:1 1319:1 1337:1 1338:1 1361:1 1368:1 1370:1 1398:2
-1 175:1 241:1 288:1 631:1 1102:1 1254:1 1302:1 1319:1 1338:1 1368:1 1398:2
-1 623:2 631:2 635:1 715:1 1102:2 1230:1 1319:2 1361:2 1368:2 1370:1 1398:7
-1 175:1 241:1 288:1 631:1 1102:1 1254:1 1302:1 1319:1 1338:1 1368:1 1398:2
-1 175:1 241:1 288:1 623:1 631:1 635:1 1102:1 1125:1 1254:1 1302:1 1319:1 1338:1 1340:1 1361:1 1368:1 1370:1 1398:3
-1 623:2 631:2 635:1 715:1 1102:2 1230:1 1319:2 1361:2 1368:2 1370:1 1398:7
-1 623:2 631:2 635:1 715:1 1102:2 1230:1 1319:2 1361:2 1368:2 1370:1 1398:7
-1 175:1 241:1 288:1 623:1 631:1 635:1 1102:1 1125:1 1254:1 1302:1 1319:1 1338:1 1340:1 1361:1 1368:1 1370:1 1398:3
-1 623:2 631:2 635:1 715:1 1102:2 1230:1 1319:2 1361:2 1368:2 1370:1 1398:7
-1 175:1 241:1 288:1 623:1 631:1 635:1 1102:1 1125:1 1254:1 1302:1 1319:1 1338:1 1340:1 1361:1 1368:1 1370:1 1398:2
-1 241:1 631:1 635:1 1102:1 1302:1 1319:1 1368:1 1370:1 1398:2
-1 146:1 274:1 336:1 365:1 373:1 395:1 415:1 503:1 528:1 534:1 632:1 729:1 789:1 832:1 852:1 853:1 940:1 988:1 1027:1 1031:1 1035:1 1068:1 1084:1 1134:1 1162:1 1222:1 1223:1 1236:1 1257:1 1273:1 1284:1 1289:1 1320:1 1326:1 1332:1 1333:1 1357:1 1358:1 1384:1 1398:1
-1 175:1 241:1 288:1 623:1 631:1 706:1 715:1 1102:1 1125:1 1221:1 1230:1 1254:1 1302:1 1319:1 1338:1 1340:1 1361:1 1368:1 1398:2
-1 631:1 1368:1 1398:1
-1 175:1 241:1 288:1 631:1 1102:1 1254:1 1302:1 1319:1 1338:1 1368:1 1398:2
-1 175:1 241:1 288:1 344:1 631:1 713:1 1083:1 1102:1 1177:1 1228:1 1254:1 1298:1 1302:1 1319:1 1338:1 1363:1 1368:1 1375:1 1398:2 1400:2
-1 623:2 631:2 635:1 715:1 1102:2 1230:1 1319:2 1361:2 1368:2 1370:1 1398:7
-1 175:1 241:1 288:1 344:1 453:1 495:1 528:1 623:1 631:1 635:1 713:1 715:1 758:1 804:1 827:1 829:1 871:1 1009:1 1080:1 1083:1 1102:1 1125:1 1228:1 1230:1 1246:1 1251:1 1254:1 1261:1 1269:1 1285:1 1289:1 1295:1 1298:1 1302:1 1311:1 1314:1 1319:1 1338:1 1340:1 1345:1 1361:1 1363:1 1368:1 1370:1 1398:1
-1 175:1 241:1 288:1 631:1 1102:1 1254:1 1302:1 1319:1 1338:1 1368:1 1398:2
-1 175:1 241:1 288:1 631:1 1102:1 1254:1 1302:1 1319:1 1338:1 1368:1 1398:2
-1 129:1 146:1 148:1 274:1 312:1 336:1 373:1 415:1 503:1 505:1 528:1 717:1 729:1 789:1 852:1 938:1 949:1 1006:1 1031:1 1064:1 1068:1 1079:1 1084:1 1098:1 1134:1 1162:1 1222:1 1236:1 1238:1 1243:1 1257:1 1273:1 1284:1 1289:1 1294:1 1326:1 1332:1 1357:1 1358:1 1391:1 1398:3
-1 336:1 395:1 528:1 623:1 631:1 710:1 715:1 1125:1 1226:1 1230:1 1289:1 1340:1 1358:1 1361:1 1368:1 1398:2
-1 175:1 241:1 288:1 623:1 631:1 635:1 706:1 832:1 1102:1 1221:1 1254:1 1302:1 1319:1 1320:1 1338:1 1361:1 1368:1 1370:1 1398:1
-1 175:1 241:1 288:1 623:2 631:3 635:1 715:1 1102:2 1125:1 1175:1 1230:1 1254:1 1302:1 1319:2 1338:1 1340:1 1361:2 1368:3 1370:1 1374:1 1398:6
-1 175:1 241:1 288:1 317:1 558:1 623:1 631:1 635:1 706:1 715:1 829:1 1102:1 1221:1 1230:1 1254:1 1302:1 1314:1 1319:1 1330:1 1338:1 1354:1 1361:1 1368:1 1370:1 1398:1
-1 175:1 623:2 631:4 635:1 715:2 1102:2 1125:1 1230:2 1254:1 1319:2 1340:1 1361:2 1368:4 1370:1 1398:6
-1 175:1 623:1 631:1 635:1 706:1 715:1 1102:1 1125:1 1221:1 1230:1 1254:1 1319:1 1340:1 1361:1 1368:1 1370:1 1398:5
-1 528:1 631:1 1102:1 1176:1 1289:1 1319:1 1368:1 1398:1
-1 175:1 317:1 623:1 631:1 635:1 1102:1 1175:1 1254:1 1319:1 1354:1 1361:1 1368:1 1370:1 1374:1 1398:1
-1 457:1 1252:1 1398:3
-1 175:1 241:1 274:1 288:1 324:1 336:1 528:1 541:1 631:1 635:1 715:1 829:1 832:1 1095:1 1102:1 1230:1 1254:1 1289:1 1302:1 1309:1 1314:1 1315:1 1319:1 1320:1 1326:1 1338:1 1358:1 1368:1 1370:1 1398:1
-1 175:1 462:1 528:2 631:1 681:1 761:1 1102:1 1254:1 1264:1 1289:2 1319:1 1368:1 1398:2
-1 457:1 1252:1 1398:3
-1 175:1 288:1 623:1 631:1 635:1 706:1 715:1 853:1 911:1 1079:1 1102:1 1221:1 1230:1 1254:1 1294:1 1319:1 1333:1 1338:1 1361:1 1362:1 1368:1 1370:1 1398:1
-1 457:1 1252:1 1398:3
-1 457:1 1252:1 1398:2
-1 457:1 1252:1 1398:4
-1 146:1 177:1 247:1 257:1 395:1 415:1 461:1 503:1 528:1 539:1 598:1 729:1 852:1 938:1 1027:1 1031:1 1068:1 1084:1 1115:1 1134:1 1162:1 1222:1 1236:1 1257:1 1273:1 1284:1 1289:1 1307:1 1310:1 1331:1 1332:1 1353:1 1357:1 1398:2
-1 175:1 241:1 288:1 340:1 623:1 631:1 706:1 1102:1 1125:1 1177:1 1221:1 1254:1 1302:1 1319:1 1338:1 1340:1 1361:1 1368:1 1375:1 1398:1
-1 457:1 1252:1 1398:3
-1 262:1 631:1 651:1 1318:1 1368:1 1398:1
-1 175:1 241:1 288:1 631:1 635:1 706:1 715:1 1102:1 1125:1 1221:1 1230:1 1254:1 1302:1 1319:1 1338:1 1340:1 1368:1 1370:1 1398:6
-1 241:1 288:1 528:1 631:1 715:1 1102:1 1230:1 1289:1 1302:1 1319:1 1338:1 1368:1 1398:3
-1 124:1 159:1 175:1 241:1 288:1 344:1 623:1 631:1 635:1 636:1 678:1 715:1 722:1 758:1 806:1 829:1 1102:1 1125:1 1175:1 1230:1 1239:1 1245:1 1254:1 1261:1 1302:1 1314:1 1319:1 1338:1 1340:1 1361:1 1363:1 1368:1 1370:1 1372:1 1374:1 1398:1
-1 623:2 631:2 635:1 715:1 1102:2 1230:1 1319:2 1361:2 1368:2 1370:1 1398:7
-1 175:1 288:1 395:1 421:1 528:1 623:1 631:1 635:1 682:1 1021:1 1079:1 1102:1 1170:1 1254:1 1289:1 1294:1 1319:1 1338:1 1361:1 1368:1 1370:1 1398:1
-1 146:1 336:1 415:1 503:1 528:1 623:1 631:1 729:1 1134:1 1144:1 1222:1 1236:1 1273:1 1289:1 1348:1 1358:1 1361:1 1368:1 1398:3
-1 175:1 241:1 528:1 623:1 631:1 635:1 715:1 735:1 1102:1 1230:1 1254:1 1289:1 1302:1 1319:1 1361:1 1368:1 1370:1 1398:2
-1 175:1 241:1 288:1 311:1 336:1 528:1 623:1 631:1 635:1 694:1 713:1 715:1 758:1 804:1 829:1 864:1 871:1 913:1 1102:1 1220:1 1228:1 1230:1 1254:1 1261:1 1285:1 1289:1 1302:1 1314:1 1319:1 1338:1 1342:1 1345:1 1349:1 1358:1 1361:1 1368:1 1370:1 1398:2 1400:1
-1 175:1 241:1 288:1 484:1 495:1 623:1 631:1 706:1 713:1 715:1 829:1 951:1 1102:1 1125:1 1221:1 1228:1 1230:1 1254:1 1262:1 1269:1 1302:1 1314:1 1319:1 1338:1 1340:1 1361:1 1368:1 1392:1 1398:1
-1 711:1 1227:1 1398:1
-1 175:1 528:2 623:1 631:1 635:1 706:1 1102:1 1221:1 1254:1 1289:2 1319:1 1361:1 1368:1 1370:1 1398:3
-1 631:1 1073:1 1078:1 1079:1 1294:1 1368:1 1398:2
-1 175:1 288:1 453:1 495:1 528:1 623:1 631:1 635:1 713:1 829:1 1102:1 1125:1 1228:1 1251:1 1254:1 1269:1 1289:1 1314:1 1319:1 1338:1 1340:1 1361:1 1368:1 1370:1 1398:2
-1 146:1 247:1 272:1 274:1 295:1 312:1 318:1 373:1 382:1 395:1 410:1 415:1 419:1 461:1 484:1 503:1 505:1 630:1 640:1 646:1 713:1 715:1 717:1 729:1 746:1 784:1 789:1 826:1 832:1 852:1 938:1 940:1 949:1 951:1 970:1 988:1 1027:1 1031:1 1068:1 1076:1 1084:1 1134:1 1144:1 1162:1 1215:1 1222:1 1223:1 1228:1 1230:1 1236:1 1256:1 1257:1 1262:1 1273:1 1284:1 1310:1 1320:1 1325:1 1326:1 1332:1 1341:1 1348:1 1352:1 1357:1 1391:1 1392:1 1396:1 1398:2
-1 146:1 247:1 355:1 382:1 395:1 415:1 461:1 503:1 528:1 622:1 667:1 676:1 729:1 812:1 852:1 938:1 940:1 949:1 1068:1 1084:1 1128:1 1134:1 1222:1 1236:1 1273:1 1284:1 1289:1 1292:1 1310:1 1332:1 1373:1 1391:1 1396:1 1398:1
-1 528:1 631:1 1289:1 1368:1 1398:3
-1 222:1 366:1 631:1 1019:1 1368:1 1398:3
-1 528:2 631:1 1289:2 1368:1 1398:2
-1 457:1 1252:1 1398:3
-1 175:1 623:2 631:5 635:1 715:2 1102:2 1125:1 1230:2 1254:1 1319:2 1340:1 1361:2 1368:5 1370:1 1398:6
-1 424:1 447:1 551:1 631:1 681:1 761:1 836:1 902:1 984:1 1264:1 1322:1 1368:1 1398:3 1400:30
-1 457:1 1252:1 1398:3
-1 457:1 1252:1 1398:3
-1 457:1 1252:1 1398:2
-1 457:1 1252:1 1398:3
-1 457:1 1252:1 1398:3
-1 124:1 631:1 678:1 761:1 902:1 1171:1 1264:1 1368:1 1398:2
-1 175:1 623:2 631:5 635:1 715:2 1102:2 1125:1 1230:2 1254:1 1319:2 1340:1 1361:2 1368:5 1370:1 1398:6
-1 175:1 623:2 631:5 635:1 715:2 1102:2 1125:1 1230:2 1254:1 1319:2 1340:1 1361:2 1368:5 1370:1 1398:6
-1 528:1 631:1 1289:1 1368:1 1398:3
-1 180:1 528:1 631:1 681:1 761:1 1264:1 1289:1 1368:1 1398:2
-1 175:1 623:2 631:4 635:1 706:1 715:2 1102:2 1125:1 1221:1 1230:2 1254:1 1319:2 1340:1 1361:2 1368:4 1370:1 1398:6
-1 175:1 241:1 256:1 288:1 528:1 623:1 631:1 635:1 706:1 715:1 1079:1 1102:1 1221:1 1230:1 1254:1 1289:1 1294:1 1302:1 1316:1 1319:1 1338:1 1361:1 1368:1 1370:1 1398:4
-1 175:1 241:1 306:1 453:1 558:1 623:1 631:1 635:1 706:1 715:1 829:1 1102:1 1175:1 1221:1 1230:1 1251:1 1254:1 1302:1 1314:1 1319:1 1330:1 1347:1 1361:1 1368:1 1370:1 1374:1 1398:1
-1 175:1 241:1 256:1 288:1 306:1 317:1 405:1 558:1 623:1 631:1 636:1 706:1 715:1 758:1 827:1 829:1 864:1 1057:1 1079:1 1102:1 1157:1 1175:1 1221:1 1230:1 1254:1 1261:1 1274:1 1294:1 1302:1 1311:1 1314:1 1316:1 1319:1 1330:1 1338:1 1342:1 1347:1 1354:1 1361:1 1368:1 1372:1 1374:1 1398:6
-1 175:1 241:1 256:1 288:1 306:1 558:1 623:1 631:1 635:1 636:1 715:1 758:1 829:1 864:1 1057:1 1102:1 1175:1 1230:1 1254:1 1261:1 1274:1 1302:1 1314:1 1316:1 1319:1 1330:1 1338:1 1342:1 1347:1 1361:1 1368:1 1370:1 1372:1 1374:1 1398:4
-1 175:1 241:1 256:1 288:1 306:1 344:1 558:1 623:1 631:1 635:1 636:1 681:1 715:1 758:1 761:1 829:1 864:1 1057:1 1079:1 1102:1 1175:1 1230:1 1254:1 1261:1 1264:1 1274:1 1294:1 1302:1 1314:1 1316:1 1319:1 1330:1 1338:1 1342:1 1347:1 1361:1 1363:1 1368:1 1370:1 1372:1 1374:1 1398:4
-1 175:1 241:1 288:1 558:1 623:1 631:1 635:1 706:1 715:1 758:1 829:1 1102:1 1125:1 1221:1 1230:1 1254:1 1261:1 1302:1 1314:1 1319:1 1330:1 1338:1 1340:1 1361:1 1368:1 1370:1 1398:1
-1 146:1 256:1 395:1 415:1 503:1 528:1 631:1 729:1 852:1 1134:1 1222:1 1236:1 1273:1 1289:1 1316:1 1332:1 1368:1 1398:3
-1 391:1 631:1 741:1 1102:1 1319:1 1368:1 1398:2
-1 146:1 241:1 288:1 336:1 395:1 415:1 503:1 528:1 623:1 631:1 715:1 729:1 795:1 832:1 849:1 1102:1 1134:1 1153:1 1222:1 1230:1 1236:1 1273:1 1289:1 1302:1 1319:1 1320:1 1329:1 1338:1 1358:1 1361:1 1368:1 1398:1
-1 175:1 241:1 256:1 288:1 344:1 623:1 631:1 635:1 636:1 706:1 715:1 758:1 829:1 1057:1 1102:1 1175:1 1177:1 1221:1 1230:1 1254:1 1261:1 1274:1 1302:1 1314:1 1316:1 1319:1 1338:1 1361:1 1363:1 1368:1 1370:1 1372:1 1374:1 1375:1 1398:1
-1 146:1 157:1 221:1 228:1 234:1 236:1 247:1 257:1 272:1 274:1 295:1 318:1 336:1 354:1 355:1 373:1 382:1 394:1 395:1 399:1 415:1 419:1 421:1 437:1 461:1 495:1 503:1 539:1 630:1 632:1 649:1 653:1 713:1 716:1 717:1 729:1 743:1 770:1 784:1 789:1 812:1 826:1 852:1 938:1 940:1 949:1 970:1 1031:1 1039:1 1060:1 1068:1 1076:1 1079:1 1084:1 1115:1 1118:1 1134:1 1144:1 1162:1 1168:1 1187:1 1215:1 1222:1 1228:1 1231:1 1236:1 1241:1 1257:1 1269:1 1273:1 1284:1 1286:1 1292:1 1294:1 1307:1 1310:1 1325:1 1326:1 1331:1 1332:1 1341:1 1348:1 1352:1 1357:1 1358:1 1369:1 1373:1 1382:1 1391:1 1396:1 1398:3
-1 146:1 274:1 288:1 395:1 415:1 503:1 528:1 623:1 631:1 635:1 729:1 852:1 1102:1 1134:1 1222:1 1236:1 1273:1 1289:1 1319:1 1326:1 1332:1 1338:1 1361:1 1368:1 1370:1 1398:2
-1 175:1 241:1 288:1 623:1 631:1 635:1 1102:1 1125:1 1254:1 1302:1 1319:1 1338:1 1340:1 1361:1 1368:1 1370:1 1398:3
-1 218:1 318:1 535:1 631:1 709:1 1180:1 1182:1 1225:1 1277:1 1299:1 1352:1 1368:1 1376:1 1379:1 1398:3
-1 528:2 631:1 1289:2 1368:1 1398:5 1400:8
-1 175:1 271:1 306:1 631:1 706:1 996:1 1102:1 1175:1 1221:1 1234:1 1254:1 1319:1 1324:1 1347:1 1368:1 1374:1 1398:2
-1 623:3 631:4 635:1 715:2 1102:2 1230:2 1319:2 1361:3 1368:4 1370:1 1398:6
-1 336:1 1358:1 1398:1
-1 457:1 1252:1 1398:2
-1 528:1 623:1 631:1 1102:1 1289:1 1319:1 1361:1 1368:1 1398:2
-1 457:1 1252:1 1398:3
-1 457:1 1252:1 1398:3
-1 175:1 241:1 256:1 274:1 288:1 336:1 528:1 631:1 635:1 694:1 715:1 758:1 829:1 864:1 1102:1 1220:1 1230:1 1254:1 1261:1 1289:1 1302:1 1314:1 1316:1 1319:1 1326:1 1338:1 1342:1 1358:1 1368:1 1370:1 1398:3
-1 175:1 241:1 288:1 336:1 496:1 528:1 623:1 631:1 635:1 694:1 706:1 715:1 758:1 829:1 864:1 1057:1 1102:1 1220:1 1221:1 1230:1 1254:1 1261:1 1270:1 1274:1 1289:1 1302:1 1314:1 1319:1 1338:1 1342:1 1358:1 1361:1 1368:1 1370:1 1398:1
-1 528:1 623:1 631:1 1079:1 1289:1 1294:1 1361:1 1368:1 1398:2
-1 457:1 1252:1 1398:3
-1 631:1 1136:1 1368:1 1398:3
-1 288:1 391:1 623:1 631:1 1102:1 1319:1 1338:1 1361:1 1368:1 1398:2
-1 457:1 1252:1 1398:3
-1 175:1 202:1 241:1 288:1 306:1 317:1 336:1 528:1 623:1 631:1 635:1 715:1 758:1 795:1 815:1 829:1 849:1 1057:1 1083:1 1102:1 1175:1 1230:1 1254:1 1261:1 1274:1 1289:1 1297:1 1298:1 1302:1 1314:1 1319:1 1329:1 1338:1 1347:1 1354:1 1358:1 1361:1 1368:1 1370:1 1374:1 1398:2
-1 528:2 631:1 1289:2 1368:1 1398:2
-1 528:2 631:1 1289:2 1368:1 1398:2
-1 631:1 1368:1 1398:2
-1 336:1 528:1 623:1 631:1 1289:1 1358:1 1361:1 1368:1 1398:2
-1 457:1 1252:1 1398:3
-1 631:1 1079:1 1294:1 1368:1 1398:2
-1 711:1 1227:1 1398:1
-1 175:1 241:1 288:1 528:1 623:1 631:1 635:1 715:1 829:1 864:1 1102:1 1175:1 1230:1 1254:1 1289:1 1302:1 1314:1 1319:1 1338:1 1342:1 1361:1 1368:1 1370:1 1374:1 1398:1
-1 528:2 631:1 700:1 1102:1 1175:1 1289:2 1319:1 1368:1 1374:1 1398:4
-1 119:1 241:1 288:1 336:1 453:1 528:1 623:1 631:1 715:1 829:1 832:1 911:1 1102:1 1230:1 1251:1 1289:1 1302:1 1314:1 1319:1 1320:1 1338:1 1358:1 1361:1 1362:1 1368:1 1398:1
-1 457:1 1252:1 1398:3
-1 457:1 1252:1 1398:3
-1 175:1 241:1 288:1 344:1 528:1 551:1 623:1 631:1 635:1 681:1 715:1 761:1 996:1 1102:1 1175:1 1230:1 1234:1 1254:1 1264:1 1289:1 1302:1 1319:1 1322:1 1338:1 1361:1 1363:1 1368:1 1370:1 1374:1 1398:7
-1 146:1 247:1 395:1 403:1 415:1 503:1 528:1 729:1 789:1 852:1 949:1 1031:1 1035:1 1068:1 1134:1 1222:1 1236:1 1257:1 1273:1 1284:1 1289:1 1310:1 1332:1 1391:1 1398:2
-1 457:1 1252:1 1398:3
-1 528:1 623:1 631:1 1289:1 1361:1 1368:1 1398:2
-1 175:1 288:1 551:1 631:1 635:1 706:1 750:1 1102:1 1221:1 1254:1 1319:1 1322:1 1338:1 1368:1 1370:1 1398:3
-1 175:1 241:1 259:1 271:1 288:1 488:1 588:1 623:1 631:1 635:1 706:1 996:1 1102:1 1106:1 1151:1 1175:1 1221:1 1234:1 1254:1 1302:1 1317:1 1319:1 1324:1 1338:1 1361:1 1368:1 1370:1 1374:1 1398:4
-1 175:1 241:1 288:1 344:1 453:1 623:1 631:1 715:1 722:1 758:1 829:1 951:1 1079:1 1093:1 1102:1 1230:1 1239:1 1251:1 1254:1 1261:1 1294:1 1302:1 1313:1 1314:1 1319:1 1338:1 1361:1 1363:1 1368:1 1392:1 1398:2
-1 175:1 241:1 288:1 303:1 344:1 616:1 623:1 631:1 635:1 636:1 715:1 829:1 849:1 1080:1 1102:1 1125:1 1230:1 1254:1 1295:1 1302:1 1314:1 1319:1 1329:1 1338:1 1340:1 1359:1 1361:1 1363:1 1368:1 1370:1 1372:1 1398:1 1400:4
-1 175:1 241:1 256:1 288:1 344:1 616:1 623:1 631:1 715:1 722:1 829:1 832:1 849:1 1079:1 1080:1 1102:1 1125:1 1230:1 1239:1 1254:1 1294:1 1295:1 1302:1 1314:1 1316:1 1319:1 1320:1 1329:1 1338:1 1340:1 1359:1 1361:1 1363:1 1368:1 1398:2 1400:12
-1 648:1 1398:1
-1 175:1 288:1 623:1 631:1 706:1 1079:1 1102:1 1175:1 1221:1 1254:1 1294:1 1319:1 1338:1 1361:1 1368:1 1374:1 1398:2
-1 175:1 631:1 635:1 677:1 706:1 1102:1 1221:1 1254:1 1319:1 1368:1 1370:1 1398:2
-1 175:1 326:1 528:1 631:1 706:1 1102:1 1221:1 1254:1 1289:1 1319:1 1368:1 1398:2
-1 146:1 247:1 268:1 274:1 336:1 373:1 395:1 415:1 437:1 461:1 503:1 528:1 539:1 715:1 717:1 729:1 789:1 812:1 852:1 938:1 951:1 1068:1 1084:1 1134:1 1168:1 1211:1 1222:1 1230:1 1236:1 1241:1 1273:1 1284:1 1289:1 1292:1 1307:1 1310:1 1326:1 1332:1 1358:1 1392:1 1398:1
-1 132:1 138:1 146:1 185:1 247:1 257:1 274:1 354:1 382:1 395:1 415:1 437:1 461:1 503:1 528:1 539:1 729:1 793:1 852:1 938:1 940:1 949:1 1027:1 1031:1 1068:1 1084:1 1115:1 1134:1 1211:1 1222:1 1236:1 1241:1 1257:1 1273:1 1284:1 1289:1 1307:1 1310:1 1326:1 1331:1 1332:1 1369:1 1391:1 1396:1 1398:1
-1 175:1 241:1 288:1 324:1 336:1 528:1 623:1 631:1 635:1 715:1 758:1 829:1 1095:1 1102:1 1230:1 1254:1 1261:1 1289:1 1302:1 1314:1 1315:1 1319:1 1338:1 1358:1 1361:1 1368:1 1370:1 1398:2
-1 175:1 241:1 256:1 288:1 623:2 631:4 635:1 706:1 715:3 1102:2 1125:1 1221:1 1230:3 1254:1 1302:1 1316:1 1319:2 1338:1 1340:1 1361:2 1368:4 1370:1 1398:6
-1 457:1 1252:1 1398:3
-1 457:1 1252:1 1398:2
-1 175:1 202:1 241:1 288:1 306:1 317:1 336:1 528:1 623:1 631:1 635:1 715:1 758:1 795:1 815:1 829:1 849:1 1057:1 1083:1 1102:1 1175:1 1230:1 1254:1 1261:1 1274:1 1289:1 1297:1 1298:1 1302:1 1314:1 1319:1 1329:1 1338:1 1347:1 1354:1 1358:1 1361:1 1368:1 1370:1 1374:1 1398:2
-1 457:1 1252:1 1398:2
-1 175:1 623:2 631:5 635:1 715:2 1102:2 1125:1 1230:2 1254:1 1319:2 1340:1 1361:2 1368:5 1370:1 1398:6
-1 175:1 241:1 623:2 631:3 635:1 706:1 715:1 761:1 1102:2 1175:1 1221:1 1230:1 1254:1 1264:1 1302:1 1319:2 1361:2 1368:3 1370:1 1374:1 1398:6
-1 457:1 1252:1 1398:3
-1 457:1 1252:1 1398:3
-1 146:1 274:1 336:1 354:1 365:1 415:1 461:1 503:1 528:1 631:1 632:1 640:1 729:1 789:1 792:1 826:1 832:1 852:1 940:1 949:1 1031:1 1068:1 1084:1 1098:1 1102:1 1107:1 1134:1 1162:1 1222:1 1236:1 1257:1 1273:1 1276:1 1284:1 1289:1 1319:1 1320:1 1326:1 1332:1 1357:1 1358:1 1368:1 1369:1 1384:1 1391:1 1398:1 1400:222
-1 146:1 241:1 288:1 365:1 395:1 415:1 503:1 528:1 623:1 631:1 715:1 729:1 832:1 852:1 1079:1 1134:1 1203:1 1222:1 1230:1 1236:1 1273:1 1289:1 1294:1 1302:1 1320:1 1332:1 1338:1 1361:1 1368:1 1384:1 1393:1 1398:2
-1 146:1 241:1 336:1 354:1 395:1 405:1 415:1 528:1 623:1 631:1 668:1 713:1 715:1 717:1 729:1 832:1 988:1 1222:1 1223:1 1228:1 1230:1 1236:1 1289:1 1302:1 1320:1 1358:1 1361:1 1368:1 1369:1 1398:2
-1 175:1 241:1 288:1 327:1 623:1 631:1 635:1 642:1 678:1 715:1 1083:1 1102:1 1230:1 1254:1 1298:1 1302:1 1319:1 1338:1 1361:1 1368:1 1370:1 1398:1 1400:1
-1 241:1 288:1 327:1 631:1 642:1 678:1 715:1 1102:1 1230:1 1302:1 1319:1 1338:1 1368:1 1398:1 1400:1
-1 241:1 288:1 327:1 631:1 642:1 678:1 715:1 1102:1 1230:1 1302:1 1319:1 1338:1 1368:1 1398:1 1400:5
-1 175:1 623:2 631:5 635:1 715:2 1102:2 1125:1 1230:2 1254:1 1319:2 1340:1 1361:2 1368:5 1370:1 1398:6
-1 528:2 631:1 1289:2 1368:1 1398:3
-1 175:1 241:1 256:1 288:1 623:1 631:1 678:1 1102:1 1254:1 1302:1 1316:1 1319:1 1338:1 1361:1 1368:1 1398:2
-1 528:2 631:1 1102:1 1148:1 1175:1 1289:2 1319:1 1368:1 1374:1 1398:2
-1 336:1 1358:1 1398:2
-1 241:1 288:1 293:1 336:1 528:1 555:1 623:1 631:1 715:1 752:1 952:1 1102:1 1230:1 1289:1 1302:1 1319:1 1328:1 1338:1 1358:1 1361:1 1368:1 1398:2
-1 457:1 1252:1 1398:3
-1 528:1 623:1 631:1 1102:1 1289:1 1319:1 1361:1 1368:1 1398:2
-1 457:1 1252:1 1398:3
-1 711:1 1227:1 1398:1
-1 459:1 631:1 1368:1 1398:4
-1 623:1 631:1 1102:1 1319:1 1361:1 1368:1 1398:4
-1 528:1 631:1 1289:1 1368:1 1398:5
-1 241:1 631:1 715:1 805:1 1102:1 1230:1 1302:1 1319:1 1368:1 1398:1
-1 175:1 241:1 288:1 623:1 631:1 715:1 1102:1 1230:1 1254:1 1302:1 1319:1 1338:1 1361:1 1368:1 1398:3
-1 623:3 631:4 635:1 715:1 1102:2 1230:1 1319:2 1361:3 1368:4 1370:1 1398:5
-1 288:1 623:1 631:1 1102:1 1319:1 1338:1 1361:1 1368:1 1398:3
-1 175:1 241:1 288:1 623:1 631:1 635:1 1102:1 1125:1 1254:1 1302:1 1319:1 1338:1 1340:1 1361:1 1368:1 1370:1 1398:4
-1 631:1 1079:1 1102:1 1294:1 1319:1 1368:1 1398:1
-1 179:1 344:1 361:1 616:1 631:1 1359:1 1363:1 1368:1 1398:1
-1 175:1 288:1 616:1 623:1 631:1 635:1 715:1 1079:1 1102:1 1230:1 1254:1 1294:1 1319:1 1338:1 1359:1 1361:1 1368:1 1370:1 1398:1 1400:19
-1 179:1 361:1 631:1 1368:1 1398:1
-1 528:2 631:1 720:1 890:1 943:1 1036:1 1289:2 1368:1 1398:2
-1 175:1 623:2 631:5 635:1 715:2 1102:2 1125:1 1230:2 1254:1 1319:2 1340:1 1361:2 1368:5 1370:1 1398:6
-1 175:1 241:1 288:1 336:1 528:1 607:1 623:1 631:1 635:1 694:1 715:1 758:1 795:1 829:1 832:1 864:1 1095:1 1102:1 1220:1 1230:1 1254:1 1261:1 1289:1 1302:1 1314:1 1315:1 1319:1 1320:1 1338:1 1342:1 1358:1 1361:1 1368:1 1370:1 1398:1
-1 175:1 241:4 288:4 623:2 631:5 635:1 681:1 706:1 715:3 761:1 1102:2 1125:1 1183:1 1221:1 1230:3 1254:1 1264:1 1302:4 1319:2 1338:4 1340:1 1361:2 1368:5 1370:1 1381:1 1398:5
-1 457:1 1252:1 1398:2
-1 623:1 631:1 829:1 1314:1 1361:1 1368:1 1398:1
-1 457:1 1252:1 1398:3
-1 623:2 631:2 635:1 715:1 1102:2 1230:1 1319:2 1361:2 1368:2 1370:1 1398:7
-1 175:1 623:1 631:1 706:1 1102:1 1125:1 1221:1 1254:1 1319:1 1340:1 1361:1 1368:1 1398:1
-1 457:1 1252:1 1398:3
-1 551:1 631:1 1322:1 1368:1 1398:2
-1 175:1 623:1 631:1 706:1 1102:1 1125:1 1221:1 1254:1 1319:1 1340:1 1361:1 1368:1 1398:1
-1 623:2 631:2 635:1 715:1 1102:2 1230:1 1319:2 1361:2 1368:2 1370:1 1398:7
-1 288:1 551:1 623:1 631:1 1102:1 1319:1 1322:1 1338:1 1361:1 1368:1 1398:2
-1 623:2 631:2 635:1 715:1 1102:2 1230:1 1319:2 1361:2 1368:2 1370:1 1398:8
-1 623:2 631:2 635:1 715:1 1102:2 1230:1 1319:2 1361:2 1368:2 1370:1 1398:7
-1 457:1 1252:1 1398:3
-1 521:1 631:1 796:1 805:1 829:1 1102:1 1210:1 1314:1 1319:1 1368:1 1398:2
-1 175:1 241:1 288:1 344:1 551:1 623:1 631:1 635:1 715:1 829:1 832:1 853:1 951:1 1102:1 1125:1 1230:1 1254:1 1302:1 1314:1 1319:1 1320:1 1322:1 1333:1 1338:1 1340:1 1361:1 1363:1 1368:1 1370:1 1392:1 1398:1
-1 457:1 1252:1 1398:4
-1 711:1 1227:1 1398:1
-1 175:1 631:1 681:1 761:1 1020:1 1102:1 1254:1 1264:1 1319:1 1368:1 1398:2
-1 175:1 623:2 631:5 635:1 715:2 1102:2 1125:1 1230:2 1254:1 1319:2 1340:1 1361:2 1368:5 1370:1 1398:6
-1 146:1 247:1 274:1 336:1 373:1 415:1 503:1 729:1 811:1 832:1 852:1 882:1 938:1 940:1 949:1 983:1 1031:1 1068:1 1084:1 1090:1 1107:1 1134:1 1143:1 1162:1 1174:1 1222:1 1236:1 1257:1 1273:1 1284:1 1308:1 1310:1 1320:1 1326:1 1332:1 1357:1 1358:1 1391:1 1398:3
-1 175:1 288:1 569:1 623:1 631:1 635:1 1102:1 1254:1 1319:1 1337:1 1338:1 1361:1 1368:1 1370:1 1398:3
-1 457:1 1252:1 1398:3
-1 528:2 631:1 918:1 1289:2 1368:1 1398:3
-1 457:1 1252:1 1398:3
-1 457:1 1252:1 1398:3
-1 457:1 1252:1 1398:3
-1 457:1 1252:1 1398:3
-1 457:1 1252:1 1398:3
-1 457:1 1252:1 1398:3
-1 457:1 1252:1 1398:3
-1 457:1 1252:1 1398:3
-1 457:1 1252:1 1398:3
-1 457:1 1252:1 1398:3
-1 457:1 1252:1 1398:3
-1 457:1 1252:1 1398:3
-1 457:1 1252:1 1398:3
-1 528:2 631:1 1289:2 1368:1 1398:3
-1 175:1 241:1 288:1 623:1 631:1 635:1 715:1 804:1 829:1 1102:1 1177:1 1230:1 1254:1 1285:1 1302:1 1314:1 1319:1 1338:1 1361:1 1368:1 1370:1 1375:1 1398:3
-1 336:1 528:1 623:1 631:1 1102:1 1289:1 1319:1 1358:1 1361:1 1368:1 1398:1
-1 160:1 175:1 631:1 761:1 1096:1 1102:1 1175:1 1254:1 1264:1 1319:1 1368:1 1374:1 1398:1 1400:1
-1 457:1 1252:1 1398:2
-1 175:1 623:1 631:1 706:1 1102:1 1125:1 1221:1 1254:1 1319:1 1340:1 1361:1 1368:1 1398:1
-1 241:1 514:1 528:1 623:1 631:1 715:1 829:1 1001:1 1102:1 1230:1 1279:1 1289:1 1302:1 1314:1 1319:1 1361:1 1368:1 1398:1
-1 197:1 227:1 528:1 631:1 720:1 943:1 1036:1 1289:1 1368:1 1398:3
-1 227:1 528:1 631:1 943:1 1036:1 1289:1 1368:1 1398:3
-1 528:1 551:1 631:1 1175:1 1289:1 1322:1 1368:1 1374:1 1398:3
-1 175:2 241:1 256:1 288:2 528:1 623:2 631:5 635:1 706:1 715:3 829:1 1102:2 1125:1 1221:1 1230:3 1254:2 1289:1 1302:1 1314:1 1316:1 1319:2 1338:2 1340:1 1361:2 1368:5 1370:1 1398:6
-1 227:1 267:1 528:2 631:1 720:1 890:1 943:1 1036:1 1289:2 1368:1 1398:3
-1 175:1 241:1 288:1 631:1 635:1 706:1 715:1 1102:1 1125:1 1221:1 1230:1 1254:1 1302:1 1319:1 1338:1 1340:1 1368:1 1370:1 1398:4
-1 146:1 274:1 336:1 354:1 415:1 493:1 503:1 528:1 623:1 631:1 729:1 852:1 1102:1 1134:1 1222:1 1236:1 1273:1 1289:1 1319:1 1326:1 1332:1 1358:1 1361:1 1368:1 1369:1 1398:2
-1 288:1 631:1 1102:1 1319:1 1338:1 1368:1 1398:3
-1 175:1 241:1 623:1 631:1 706:1 713:1 715:1 849:1 853:1 911:1 1079:1 1080:1 1083:1 1102:1 1125:1 1221:1 1228:1 1230:1 1254:1 1294:1 1295:1 1298:1 1302:1 1319:1 1329:1 1333:1 1340:1 1361:1 1362:1 1368:1 1398:1
-1 175:1 241:1 286:1 336:1 453:1 528:1 534:1 623:1 631:1 635:1 715:1 829:1 832:1 878:1 896:1 1102:1 1230:1 1251:1 1254:1 1289:1 1302:1 1314:1 1319:1 1320:1 1358:1 1361:1 1368:1 1370:1 1398:1
-1 241:1 288:1 528:1 534:1 623:1 631:1 715:1 1095:1 1102:1 1115:1 1230:1 1289:1 1302:1 1315:1 1319:1 1331:1 1338:1 1361:1 1368:1 1398:2
-1 528:1 631:1 1041:1 1102:1 1289:1 1319:1 1368:1 1398:3
-1 129:1 336:1 338:1 395:1 528:1 623:1 631:1 715:1 829:1 853:1 1079:1 1102:1 1125:1 1230:1 1289:1 1294:1 1314:1 1319:1 1333:1 1340:1 1358:1 1361:1 1368:1 1398:2
-1 146:1 415:1 503:1 528:1 729:1 852:1 1134:1 1222:1 1236:1 1273:1 1289:1 1332:1 1398:3
-1 146:1 415:1 503:1 528:1 729:1 852:1 1134:1 1222:1 1236:1 1273:1 1289:1 1332:1 1398:3
-1 146:1 415:1 503:1 528:1 729:1 852:1 1134:1 1222:1 1236:1 1273:1 1289:1 1332:1 1398:3
-1 146:1 415:1 503:1 528:1 729:1 852:1 1134:1 1222:1 1236:1 1273:1 1289:1 1332:1 1398:3
-1 146:1 415:1 503:1 528:1 631:1 729:1 852:1 1134:1 1222:1 1236:1 1273:1 1289:1 1332:1 1368:1 1398:3
-1 146:1 415:1 503:1 528:1 729:1 852:1 1134:1 1222:1 1236:1 1273:1 1289:1 1332:1 1398:3
-1 146:1 415:1 503:1 528:1 729:1 852:1 1134:1 1222:1 1236:1 1273:1 1289:1 1332:1 1398:3
-1 173:1 241:1 288:1 336:1 495:1 528:1 534:1 623:1 631:1 713:1 829:1 904:1 1095:1 1102:1 1115:1 1125:1 1228:1 1269:1 1289:1 1302:1 1314:1 1315:1 1319:1 1331:1 1338:1 1340:1 1358:1 1361:1 1368:1 1398:2
-1 336:1 528:1 623:1 631:1 1289:1 1358:1 1361:1 1368:1 1398:2
-1 146:1 175:1 241:1 247:1 288:1 333:1 336:1 384:1 392:1 415:1 421:1 437:1 453:1 503:1 510:1 528:1 539:1 631:1 634:1 653:1 713:1 715:1 729:1 792:1 816:1 826:1 829:1 852:1 882:1 940:1 949:1 988:1 1006:1 1031:1 1034:1 1077:1 1095:1 1102:1 1115:1 1126:1 1134:1 1162:1 1222:1 1223:1 1228:1 1230:1 1236:1 1241:1 1243:1 1251:1 1254:1 1257:1 1273:1 1276:1 1289:1 1301:1 1302:1 1307:1 1310:1 1314:1 1315:1 1319:1 1331:1 1332:1 1338:1 1357:1 1358:1 1368:1 1391:1 1397:1 1398:3
-1 146:1 148:1 257:1 274:1 355:1 382:1 415:1 461:1 503:1 528:1 583:1 716:1 729:1 793:1 852:1 938:1 940:1 949:1 1031:1 1068:1 1084:1 1134:1 1162:1 1222:1 1231:1 1236:1 1238:1 1257:1 1273:1 1284:1 1289:1 1326:1 1332:1 1357:1 1373:1 1391:1 1396:1 1398:2
-1 146:1 274:1 288:1 336:1 415:1 437:1 461:1 503:1 528:1 539:1 729:1 826:1 829:1 852:1 1134:1 1222:1 1236:1 1241:1 1273:1 1289:1 1307:1 1314:1 1326:1 1332:1 1338:1 1358:1 1398:3
-1 146:1 288:1 395:1 415:1 503:1 528:1 623:1 631:1 729:1 829:1 852:1 1095:1 1102:1 1134:1 1222:1 1236:1 1273:1 1289:1 1314:1 1315:1 1319:1 1332:1 1338:1 1361:1 1368:1 1398:3
-1 175:1 288:1 623:1 631:1 635:1 715:1 829:1 1102:1 1230:1 1254:1 1314:1 1319:1 1338:1 1361:1 1368:1 1370:1 1398:2
-1 146:1 415:1 503:1 528:1 631:1 729:1 852:1 1102:1 1134:1 1222:1 1236:1 1273:1 1289:1 1319:1 1332:1 1368:1 1398:2
-1 175:1 288:1 623:1 631:1 635:1 1102:1 1254:1 1319:1 1338:1 1361:1 1368:1 1370:1 1398:2
-1 616:1 623:1 631:1 1102:1 1175:1 1319:1 1359:1 1361:1 1368:1 1374:1 1398:1 1400:2
-1 175:1 631:1 1102:1 1254:1 1319:1 1368:1 1398:3
-1 175:1 241:1 631:1 635:1 1102:1 1254:1 1302:1 1319:1 1368:1 1370:1 1398:2
-1 146:1 175:1 192:1 256:1 274:1 288:1 336:1 373:1 415:1 503:1 528:1 538:1 631:1 729:1 789:1 792:1 852:1 940:1 1035:1 1068:1 1084:1 1102:1 1134:1 1222:1 1236:1 1254:1 1273:1 1276:1 1284:1 1289:1 1306:1 1316:1 1319:1 1326:1 1332:1 1338:1 1358:1 1368:1 1398:2
-1 457:1 1252:1 1398:4
-1 457:1 1252:1 1398:2
-1 175:1 623:1 631:1 635:1 1102:1 1125:1 1254:1 1319:1 1340:1 1361:1 1368:1 1370:1 1398:2
-1 175:1 241:1 288:1 518:1 623:1 631:1 635:1 700:1 706:1 715:1 809:1 1079:1 1082:1 1102:1 1125:1 1175:1 1221:1 1230:1 1254:1 1294:1 1302:1 1319:1 1338:1 1340:1 1361:1 1368:1 1370:1 1374:1 1398:5
-1 146:1 373:1 415:1 503:1 528:1 729:1 852:1 1027:1 1031:1 1068:1 1084:1 1134:1 1222:1 1236:1 1257:1 1273:1 1284:1 1289:1 1332:1 1398:4
-1 146:1 228:1 274:1 336:1 373:1 415:1 461:1 503:1 528:1 631:1 717:1 729:1 789:1 793:1 826:1 852:1 938:1 940:1 949:1 970:1 1027:1 1031:1 1068:1 1084:1 1102:1 1134:1 1162:1 1215:1 1222:1 1236:1 1257:1 1273:1 1284:1 1286:1 1289:1 1319:1 1326:1 1332:1 1357:1 1358:1 1368:1 1391:1 1398:2
-1 631:1 1136:1 1368:1 1398:2
-1 528:2 631:1 1289:2 1368:1 1398:2
-1 457:1 1252:1 1398:3
-1 175:1 241:1 288:1 631:1 715:1 853:1 1102:1 1230:1 1254:1 1302:1 1319:1 1333:1 1338:1 1368:1 1398:5
-1 528:1 631:1 1041:1 1102:1 1289:1 1319:1 1368:1 1398:3
-1 631:1 1368:1 1398:1
-1 129:1 146:1 312:1 336:1 373:1 415:1 430:1 503:1 528:1 632:1 729:1 789:1 829:1 852:1 938:1 940:1 949:1 1027:1 1031:1 1068:1 1084:1 1092:1 1098:1 1102:1 1125:1 1134:1 1162:1 1222:1 1236:1 1257:1 1273:1 1284:1 1289:1 1314:1 1319:1 1332:1 1340:1 1357:1 1358:1 1391:1 1398:3
-1 288:1 513:1 623:1 631:1 654:1 761:1 832:1 907:1 1020:1 1079:1 1102:1 1264:1 1294:1 1319:1 1320:1 1338:1 1361:1 1368:1 1398:2
-1 528:1 631:1 1175:1 1289:1 1368:1 1374:1 1398:3
-1 528:1 534:1 623:1 631:1 1289:1 1361:1 1368:1 1398:2
-1 288:1 631:1 1102:1 1319:1 1338:1 1368:1 1398:3
-1 623:2 631:2 635:1 715:1 1102:2 1230:1 1319:2 1361:2 1368:2 1370:1 1398:7
-1 146:1 274:1 336:1 395:1 415:1 461:1 503:1 528:1 715:1 729:1 793:1 832:1 852:1 940:1 949:1 988:1 1031:1 1068:1 1084:1 1134:1 1144:1 1222:1 1223:1 1230:1 1236:1 1257:1 1273:1 1284:1 1289:1 1320:1 1326:1 1332:1 1348:1 1358:1 1391:1 1398:2
-1 129:1 336:1 338:1 395:1 421:1 528:1 623:1 631:1 682:1 715:1 829:1 853:1 1079:1 1102:1 1125:1 1150:1 1230:1 1289:1 1294:1 1314:1 1319:1 1333:1 1340:1 1350:1 1358:1 1361:1 1368:1 1398:2
-1 129:1 336:1 338:1 395:1 421:1 528:1 623:1 631:1 682:1 715:1 829:1 853:1 1079:1 1102:1 1125:1 1150:1 1230:1 1289:1 1294:1 1314:1 1319:1 1333:1 1340:1 1350:1 1358:1 1361:1 1368:1 1398:2
-1 146:1 157:1 175:1 226:1 228:1 247:1 274:1 288:1 336:1 340:1 373:1 411:1 415:1 461:1 480:1 503:1 509:1 528:1 593:1 614:1 631:1 635:1 715:1 717:1 729:1 746:1 756:1 770:1 789:1 793:1 812:1 826:1 829:1 846:1 852:1 864:1 865:1 938:1 940:1 949:1 970:1 988:1 1027:1 1031:1 1035:1 1068:1 1076:1 1084:1 1095:1 1102:1 1104:1 1134:1 1162:1 1196:1 1215:1 1222:1 1223:1 1230:1 1236:1 1254:1 1256:1 1257:1 1273:1 1284:1 1286:1 1289:1 1292:1 1310:1 1314:1 1315:1 1319:1 1326:1 1332:1 1338:1 1342:1 1357:1 1358:1 1368:1 1370:1 1391:1 1398:2
-1 152:1 175:1 241:1 288:1 528:2 623:1 631:1 635:1 706:1 715:1 943:1 1079:1 1102:1 1175:1 1221:1 1230:1 1254:1 1289:2 1294:1 1302:1 1319:1 1338:1 1361:1 1368:1 1370:1 1374:1 1398:2
-1 528:1 543:1 623:1 631:1 1102:1 1289:1 1319:1 1361:1 1368:1 1398:2
-1 146:1 336:1 415:1 503:1 528:1 729:1 832:1 852:1 882:1 1084:1 1107:1 1134:1 1222:1 1236:1 1273:1 1289:1 1320:1 1332:1 1358:1 1398:2
-1 175:1 288:1 616:1 623:1 631:1 635:1 706:1 715:1 722:1 1079:1 1102:1 1125:1 1221:1 1230:1 1239:1 1254:1 1294:1 1319:1 1338:1 1340:1 1359:1 1361:1 1368:1 1370:1 1398:1
-1 175:1 241:1 288:1 616:1 623:1 631:1 635:1 706:1 715:1 722:1 1079:1 1102:1 1125:1 1221:1 1230:1 1239:1 1254:1 1294:1 1302:1 1319:1 1338:1 1340:1 1359:1 1361:1 1368:1 1370:1 1398:1
-1 146:1 177:1 247:1 257:1 272:1 295:1 318:1 336:1 395:1 415:1 461:1 503:1 539:1 630:1 649:1 729:1 792:1 852:1 938:1 1068:1 1084:1 1115:1 1134:1 1222:1 1236:1 1273:1 1276:1 1284:1 1307:1 1310:1 1325:1 1331:1 1332:1 1341:1 1352:1 1358:1 1382:1 1398:1
-1 124:1 357:1 631:1 678:1 928:1 1102:1 1319:1 1368:1 1398:3
-1 457:1 1252:1 1398:3
-1 457:1 1252:1 1398:2
-1 631:1 1368:1 1398:1
-1 631:1 715:1 1029:1 1230:1 1368:1 1398:1
-1 623:2 631:2 635:1 715:1 1102:2 1230:1 1319:2 1361:2 1368:2 1370:1 1398:7
-1 528:1 631:1 706:1 918:1 1221:1 1289:1 1368:1 1398:3
-1 623:1 631:4 715:2 1102:2 1230:2 1319:2 1361:1 1368:4 1398:6
-1 528:1 631:1 762:1 1289:1 1368:1 1398:3
-1 528:1 631:1 762:1 1289:1 1368:1 1398:3
-1 528:1 631:1 762:1 1289:1 1368:1 1398:3
-1 241:1 631:1 715:1 1078:1 1079:1 1102:1 1139:1 1175:1 1230:1 1294:1 1302:1 1319:1 1368:1 1374:1 1398:1 1400:75
-1 528:1 823:1 1289:1 1398:3
-1 711:1 1227:1 1398:1
-1 528:1 631:1 1289:1 1368:1 1398:2
-1 528:1 631:1 1102:1 1289:1 1319:1 1368:1 1398:3
-1 175:1 241:1 528:1 631:1 715:1 1102:1 1230:1 1254:1 1289:1 1302:1 1319:1 1368:1 1398:2
-1 528:1 631:1 1102:1 1289:1 1319:1 1368:1 1398:2
-1 528:1 631:1 1102:1 1289:1 1319:1 1368:1 1398:3
-1 528:1 823:1 1289:1 1398:1
-1 175:1 623:1 631:1 706:1 1102:1 1221:1 1254:1 1319:1 1361:1 1368:1 1398:1
-1 175:1 241:1 288:1 623:1 631:1 635:1 1102:1 1125:1 1254:1 1302:1 1319:1 1338:1 1340:1 1361:1 1368:1 1370:1 1398:3
-1 528:1 823:1 1289:1 1398:3
-1 175:1 241:1 528:1 631:1 635:1 636:1 679:1 758:1 844:1 1041:1 1102:1 1254:1 1261:1 1289:1 1302:1 1319:1 1368:1 1370:1 1372:1 1398:2
-1 457:1 1252:1 1398:3
-1 459:1 631:1 1368:1 1398:4 1400:3
-1 175:1 241:1 288:1 528:2 551:1 623:1 631:1 1102:1 1254:1 1289:2 1302:1 1319:1 1322:1 1338:1 1361:1 1368:1 1398:3
-1 711:1 1227:1 1398:1
-1 457:1 1252:1 1398:3
-1 175:1 241:1 288:1 528:1 623:1 631:1 635:1 706:1 715:1 1102:1 1221:1 1230:1 1254:1 1289:1 1302:1 1319:1 1338:1 1361:1 1368:1 1370:1 1398:4
-1 262:1 631:1 651:1 1318:1 1368:1 1398:1
-1 623:2 631:2 635:1 715:1 1102:2 1230:1 1319:2 1361:2 1368:2 1370:1 1398:6
-1 457:1 1252:1 1398:3
-1 175:1 462:1 528:2 631:1 681:1 761:1 985:1 1102:1 1254:1 1264:1 1289:2 1319:1 1368:1 1398:2
-1 175:1 528:2 631:1 761:1 1102:1 1254:1 1264:1 1289:2 1319:1 1368:1 1398:2 1400:26
-1 457:1 1252:1 1398:3
-1 457:1 1252:1 1398:3
-1 457:1 1252:1 1398:2
-1 528:1 631:1 1289:1 1368:1 1398:3
-1 175:1 241:1 288:1 623:1 631:1 635:1 706:1 715:1 722:1 1102:1 1125:1 1175:1 1221:1 1230:1 1239:1 1254:1 1302:1 1319:1 1338:1 1340:1 1361:1 1368:1 1370:1 1374:1 1398:2
-1 631:1 635:1 715:1 1102:1 1230:1 1319:1 1368:1 1370:1 1398:2
-1 175:1 241:1 288:1 528:2 551:1 623:1 631:1 1102:1 1254:1 1289:2 1302:1 1319:1 1322:1 1338:1 1361:1 1368:1 1398:2
-1 175:1 366:1 551:1 631:1 635:1 636:1 1087:1 1102:1 1254:1 1319:1 1322:1 1368:1 1370:1 1372:1 1398:3
-1 180:1 447:1 528:1 631:1 681:1 761:1 844:1 1264:1 1289:1 1368:1 1398:2
-1 623:2 631:2 635:1 715:1 1102:2 1230:1 1319:2 1361:2 1368:2 1370:1 1398:7
-1 146:1 415:1 503:1 505:1 528:1 623:1 631:1 715:1 729:1 970:1 1039:1 1102:1 1134:1 1215:1 1222:1 1230:1 1236:1 1273:1 1289:1 1319:1 1361:1 1368:1 1398:3
-1 175:1 288:1 343:1 464:1 528:1 623:1 631:1 885:1 1102:1 1254:1 1289:1 1319:1 1338:1 1361:1 1368:1 1398:2
-1 175:1 241:1 288:1 623:1 631:1 635:1 1102:1 1125:1 1254:1 1302:1 1319:1 1338:1 1340:1 1361:1 1368:1 1370:1 1398:3
-1 146:1 247:1 274:1 328:1 336:1 355:1 373:1 395:1 410:1 415:1 503:1 528:1 632:1 640:1 646:1 715:1 729:1 789:1 812:1 852:1 882:1 901:1 938:1 940:1 988:1 1027:1 1031:1 1035:1 1068:1 1104:1 1107:1 1134:1 1162:1 1222:1 1223:1 1230:1 1236:1 1257:1 1273:1 1284:1 1289:1 1292:1 1310:1 1326:1 1332:1 1357:1 1358:1 1373:1 1398:2
-1 140:1 148:1 151:1 336:1 347:1 354:1 393:1 407:1 484:1 503:1 528:1 530:1 536:1 557:1 564:1 609:1 628:1 745:1 832:1 852:1 909:1 974:1 994:1 1068:1 1088:1 1133:1 1144:1 1162:1 1192:1 1214:1 1217:1 1229:1 1232:1 1238:1 1240:1 1255:1 1262:1 1273:1 1284:1 1289:1 1290:1 1300:1 1303:1 1320:1 1327:1 1332:1 1336:1 1344:1 1348:1 1356:1 1357:1 1358:1 1366:1 1367:1 1369:1 1385:1 1398:2
-1 457:1 1252:1 1398:3
-1 336:1 528:1 631:1 829:1 1079:1 1102:1 1125:1 1289:1 1294:1 1314:1 1319:1 1340:1 1358:1 1368:1 1398:2
-1 528:2 551:1 623:1 631:1 1102:1 1175:1 1289:2 1319:1 1322:1 1361:1 1368:1 1374:1 1398:2
-1 528:1 623:1 631:1 829:1 844:1 1289:1 1314:1 1361:1 1368:1 1398:2
-1 175:1 241:1 288:1 528:2 551:1 623:1 631:1 635:1 706:1 1102:1 1175:1 1221:1 1254:1 1289:2 1302:1 1319:1 1322:1 1338:1 1361:1 1368:1 1370:1 1374:1 1398:2
-1 528:2 631:1 720:1 890:1 943:1 1036:1 1289:2 1368:1 1398:2
-1 151:1 274:1 347:1 382:1 393:1 407:1 503:1 528:1 530:1 536:1 557:1 564:1 628:1 645:1 685:1 745:1 757:1 852:1 974:1 994:1 1068:1 1101:1 1133:1 1192:1 1214:1 1216:1 1217:1 1232:1 1240:1 1255:1 1273:1 1284:1 1289:1 1290:1 1300:1 1326:1 1327:1 1332:1 1336:1 1344:1 1366:1 1367:1 1385:1 1396:1 1398:2
-1 711:1 1227:1 1398:1
-1 146:1 247:1 336:1 344:1 382:1 415:1 503:1 528:1 729:1 852:1 940:1 949:1 1031:1 1068:1 1134:1 1222:1 1236:1 1257:1 1273:1 1284:1 1289:1 1310:1 1332:1 1358:1 1363:1 1391:1 1396:1 1398:2
-1 352:1 631:1 1368:1 1398:2
-1 352:1 631:1 1368:1 1398:2
-1 288:1 528:1 623:1 631:1 1102:1 1289:1 1319:1 1338:1 1361:1 1368:1 1398:1
-1 175:1 288:1 528:1 623:1 631:1 635:1 706:1 911:1 1102:1 1221:1 1254:1 1289:1 1319:1 1338:1 1361:1 1362:1 1368:1 1370:1 1398:2
-1 711:1 1227:1 1398:1
-1 175:1 241:1 288:1 569:1 623:1 631:1 635:1 715:1 832:1 1102:1 1125:1 1230:1 1254:1 1302:1 1319:1 1320:1 1337:1 1338:1 1340:1 1361:1 1368:1 1370:1 1398:2
-1 175:1 241:1 288:1 623:1 631:1 635:1 706:1 715:1 1102:1 1125:1 1221:1 1230:1 1254:1 1302:1 1319:1 1338:1 1340:1 1361:1 1368:1 1370:1 1398:5
-1 631:1 1368:1 1398:1
-1 129:1 256:1 288:1 336:1 354:1 395:1 528:1 623:1 631:1 635:1 706:1 715:1 1102:1 1221:1 1230:1 1289:1 1316:1 1319:1 1338:1 1358:1 1361:1 1368:1 1369:1 1370:1 1398:2
-1 146:1 241:1 272:1 295:1 318:1 336:1 354:1 395:1 415:1 461:1 503:1 623:1 630:1 631:1 729:1 1134:1 1222:1 1236:1 1273:1 1302:1 1325:1 1341:1 1352:1 1358:1 1361:1 1368:1 1369:1 1398:1
-1 146:1 272:1 295:1 308:1 318:1 336:1 354:1 382:1 395:1 402:1 415:1 453:1 461:1 503:1 623:1 630:1 631:1 715:1 729:1 770:1 789:1 826:1 832:1 940:1 949:1 988:1 1084:1 1102:1 1134:1 1222:1 1223:1 1230:1 1236:1 1251:1 1273:1 1319:1 1320:1 1325:1 1341:1 1352:1 1358:1 1361:1 1368:1 1369:1 1391:1 1396:1 1398:1
-1 146:1 176:1 257:1 274:1 312:1 336:1 373:1 382:1 395:1 405:1 410:1 415:1 417:1 430:1 480:1 503:1 528:1 632:1 674:1 715:1 717:1 729:1 746:1 789:1 826:1 827:1 839:1 852:1 938:1 949:1 1068:1 1076:1 1079:1 1084:1 1098:1 1133:1 1134:1 1150:1 1162:1 1222:1 1230:1 1236:1 1256:1 1273:1 1284:1 1289:1 1294:1 1311:1 1323:1 1326:1 1332:1 1344:1 1350:1 1357:1 1358:1 1391:1 1396:1 1398:1
-1 146:1 336:1 373:1 415:1 503:1 528:1 722:1 729:1 789:1 852:1 938:1 949:1 1079:1 1084:1 1098:1 1134:1 1162:1 1222:1 1236:1 1239:1 1273:1 1289:1 1294:1 1332:1 1357:1 1358:1 1391:1 1398:1
-1 711:1 1227:1 1398:1
-1 711:1 1227:1 1398:1
-1 631:1 1102:1 1319:1 1368:1 1398:1
-1 457:1 1252:1 1398:3
-1 623:3 631:4 635:1 715:1 1102:2 1230:1 1319:2 1361:3 1368:4 1370:1 1398:4
-1 175:1 241:1 288:1 558:1 623:1 631:1 635:1 715:1 829:1 864:1 1057:1 1102:1 1230:1 1254:1 1274:1 1302:1 1314:1 1319:1 1330:1 1338:1 1342:1 1361:1 1368:1 1370:1 1398:1
-1 241:1 327:1 631:1 678:1 1102:1 1302:1 1319:1 1368:1 1398:1 1400:1
-1 175:1 241:1 288:1 623:1 631:1 715:1 1102:1 1230:1 1254:1 1302:1 1319:1 1338:1 1361:1 1368:1 1398:1
-1 528:1 631:1 918:1 1289:1 1368:1 1398:4
-1 175:1 241:1 288:1 453:1 623:1 631:1 635:1 706:1 715:1 1102:1 1221:1 1230:1 1251:1 1254:1 1302:1 1319:1 1338:1 1361:1 1368:1 1370:1 1398:1
-1 631:1 1078:1 1368:1 1398:2
-1 151:1 247:1 274:1 336:1 347:1 393:1 407:1 503:1 510:1 528:1 530:1 536:1 557:1 564:1 628:1 645:1 685:1 745:1 746:1 757:1 852:1 910:1 921:1 974:1 1006:1 1017:1 1068:1 1077:1 1088:1 1101:1 1192:1 1214:1 1216:1 1217:1 1240:1 1243:1 1255:1 1256:1 1273:1 1284:1 1289:1 1290:1 1300:1 1303:1 1310:1 1326:1 1327:1 1332:1 1336:1 1358:1 1366:1 1367:1 1385:1 1398:1
-1 551:1 631:1 1322:1 1368:1 1398:2
-1 528:1 631:1 1102:1 1176:1 1289:1 1319:1 1368:1 1398:2
-1 528:1 631:1 1102:1 1176:1 1289:1 1319:1 1368:1 1398:2
-1 623:2 631:2 635:1 715:1 1102:2 1230:1 1319:2 1361:2 1368:2 1370:1 1398:6
-1 631:1 1368:1 1398:2
-1 528:1 631:1 1102:1 1176:1 1289:1 1319:1 1368:1 1398:2
-1 551:1 631:1 1322:1 1368:1 1398:2
-1 631:1 1368:1 1398:2
-1 551:1 631:1 1322:1 1368:1 1398:2
-1 241:1 528:1 623:1 631:1 715:1 1102:1 1230:1 1289:1 1302:1 1319:1 1361:1 1368:1 1398:1
-1 241:1 528:1 623:1 631:1 715:1 829:1 1102:1 1230:1 1289:1 1302:1 1314:1 1319:1 1361:1 1368:1 1398:1
-1 623:2 631:2 635:1 715:1 1102:2 1230:1 1319:2 1361:2 1368:2 1370:1 1398:7
-1 159:1 175:1 241:1 259:1 299:1 306:1 559:1 631:1 1102:1 1175:1 1245:1 1254:1 1302:1 1317:1 1319:1 1347:1 1368:1 1374:1 1398:2
-1 159:1 175:1 241:1 259:1 299:1 306:1 559:1 631:1 1102:1 1175:1 1245:1 1254:1 1302:1 1317:1 1319:1 1347:1 1368:1 1374:1 1398:2
-1 159:1 175:1 241:1 259:1 299:1 306:1 559:1 631:1 1102:1 1175:1 1245:1 1254:1 1302:1 1317:1 1319:1 1347:1 1368:1 1374:1 1398:2
-1 711:1 1227:1 1398:1
-1 175:1 288:1 623:1 631:1 635:1 849:1 1079:1 1102:1 1125:1 1254:1 1294:1 1319:1 1329:1 1338:1 1340:1 1361:1 1368:1 1370:1 1398:3
-1 631:1 681:1 695:1 761:1 889:1 1264:1 1368:1 1398:1
-1 631:1 681:1 761:1 889:1 902:1 1264:1 1368:1 1398:1
-1 631:1 706:1 758:1 1102:1 1175:1 1221:1 1261:1 1319:1 1368:1 1374:1 1398:1
-1 631:1 761:1 783:1 889:1 1264:1 1368:1 1398:1
-1 631:1 681:1 761:1 889:1 902:1 1264:1 1368:1 1398:1
-1 631:1 681:1 761:1 889:1 918:1 1264:1 1368:1 1398:1
-1 175:1 631:1 681:1 761:1 889:1 1102:1 1175:1 1254:1 1264:1 1319:1 1368:1 1374:1 1398:1
-1 631:1 761:1 889:1 902:1 1264:1 1368:1 1398:1
-1 175:1 241:1 288:1 528:2 551:1 623:1 631:1 635:1 706:1 1102:1 1175:1 1221:1 1254:1 1289:2 1302:1 1319:1 1322:1 1338:1 1361:1 1368:1 1370:1 1374:1 1398:2
-1 175:1 241:1 288:1 528:2 551:1 623:1 631:1 706:1 1102:1 1175:1 1221:1 1254:1 1289:2 1302:1 1319:1 1322:1 1338:1 1361:1 1368:1 1374:1 1398:2
-1 175:1 528:1 631:1 1102:1 1254:1 1289:1 1319:1 1368:1 1398:2
-1 623:3 631:4 635:1 715:1 1102:2 1230:1 1319:2 1361:3 1368:4 1370:1 1398:5
-1 146:1 274:1 373:1 415:1 430:1 503:1 528:1 717:1 729:1 746:1 789:1 826:1 827:1 852:1 938:1 940:1 949:1 1027:1 1068:1 1084:1 1098:1 1134:1 1162:1 1222:1 1236:1 1256:1 1273:1 1284:1 1289:1 1311:1 1326:1 1332:1 1357:1 1391:1 1398:2
-1 623:2 631:2 635:1 715:1 1102:2 1230:1 1319:2 1361:2 1368:2 1370:1 1398:6
-1 623:2 631:2 635:1 715:1 1102:2 1230:1 1319:2 1361:2 1368:2 1370:1 1398:7
-1 457:1 1252:1 1398:2
-1 146:1 247:1 274:1 373:1 415:1 503:1 528:1 632:1 729:1 746:1 789:1 852:1 938:1 940:1 949:1 959:1 1068:1 1076:1 1084:1 1098:1 1134:1 1162:1 1222:1 1236:1 1256:1 1273:1 1284:1 1289:1 1310:1 1326:1 1332:1 1357:1 1391:1 1398:2
-1 159:1 306:1 551:1 559:1 631:1 1102:1 1175:1 1245:1 1319:1 1322:1 1347:1 1368:1 1374:1 1398:2
-1 137:1 146:1 312:1 336:1 373:1 415:1 461:1 503:1 570:1 632:1 729:1 789:1 852:1 938:1 940:1 949:1 1027:1 1068:1 1076:1 1084:1 1134:1 1162:1 1222:1 1236:1 1273:1 1284:1 1332:1 1339:1 1357:1 1358:1 1391:1 1398:1
-1 175:1 285:1 623:2 631:4 635:1 715:2 1102:2 1125:1 1230:2 1254:1 1319:2 1340:1 1361:2 1368:4 1370:1 1398:6
-1 528:1 631:1 1079:1 1289:1 1294:1 1368:1 1398:2
-1 457:1 1252:1 1398:2
-1 457:1 1252:1 1398:2
-1 457:1 1252:1 1398:2
-1 457:1 1252:1 1398:2
-1 146:1 175:1 288:1 336:1 415:1 503:1 528:1 623:1 631:1 717:1 829:1 849:1 1102:1 1134:1 1168:1 1176:1 1181:1 1222:1 1236:1 1254:1 1273:1 1289:1 1314:1 1319:1 1329:1 1338:1 1358:1 1361:1 1368:1 1380:1 1398:3
-1 204:1 374:1 391:1 400:1 412:1 631:1 741:1 879:1 1165:1 1368:1 1398:1 1400:30
-1 175:1 241:1 288:1 623:1 631:1 635:1 706:1 715:1 829:1 853:1 1102:1 1221:1 1230:1 1254:1 1302:1 1314:1 1319:1 1333:1 1338:1 1361:1 1368:1 1370:1 1398:2
-1 528:1 631:1 1289:1 1368:1 1398:2
-1 227:1 241:1 267:1 528:2 631:1 720:1 890:1 943:1 1036:1 1102:1 1289:2 1302:1 1319:1 1368:1 1398:4
-1 631:1 1102:1 1319:1 1368:1 1398:4 1400:5
-1 631:1 750:1 1368:1 1398:4
-1 175:1 241:2 288:2 623:3 631:4 635:2 636:1 706:1 715:4 853:1 1102:2 1125:1 1221:1 1230:4 1254:1 1302:2 1319:2 1333:1 1338:2 1340:1 1361:3 1368:4 1370:2 1372:1 1398:5
-1 175:1 241:1 288:1 623:1 631:1 635:1 1102:1 1125:1 1254:1 1302:1 1319:1 1338:1 1340:1 1361:1 1368:1 1370:1 1398:3
-1 175:1 241:1 288:1 344:1 623:1 631:1 635:1 722:1 829:1 1102:1 1125:1 1239:1 1254:1 1302:1 1314:1 1319:1 1338:1 1340:1 1361:1 1363:1 1368:1 1370:1 1398:3
-1 631:1 1368:1 1398:1
-1 146:1 247:1 274:1 373:1 415:1 503:1 528:1 563:1 729:1 789:1 852:1 938:1 940:1 949:1 1006:1 1010:1 1064:1 1068:1 1084:1 1098:1 1128:1 1134:1 1162:1 1222:1 1236:1 1243:1 1273:1 1284:1 1289:1 1310:1 1326:1 1332:1 1335:1 1357:1 1391:1 1398:2
-1 175:1 241:1 288:1 623:1 631:1 635:1 706:1 715:1 829:1 1102:1 1125:1 1221:1 1230:1 1254:1 1302:1 1314:1 1319:1 1338:1 1340:1 1361:1 1368:1 1370:1 1398:1
-1 175:1 241:1 288:1 623:1 631:1 635:1 706:1 715:1 829:1 1102:1 1125:1 1221:1 1230:1 1254:1 1302:1 1314:1 1319:1 1338:1 1340:1 1361:1 1368:1 1370:1 1398:1
-1 175:1 241:1 288:1 623:1 631:1 635:1 706:1 715:1 829:1 1102:1 1125:1 1221:1 1230:1 1254:1 1302:1 1314:1 1319:1 1338:1 1340:1 1361:1 1368:1 1370:1 1398:1
-1 210:1 400:1 610:1 631:1 879:1 1165:1 1368:1 1398:1 1400:1
-1 391:1 631:1 1368:1 1398:2
-1 391:1 631:1 1102:1 1319:1 1368:1 1398:2
-1 631:1 805:1 1368:1 1398:2
-1 288:1 623:1 631:1 1102:1 1319:1 1338:1 1361:1 1368:1 1398:1
-1 241:1 288:1 528:1 623:1 631:1 715:1 829:1 1102:1 1125:1 1230:1 1289:1 1302:1 1314:1 1319:1 1338:1 1340:1 1361:1 1368:1 1398:1
-1 631:1 1102:1 1319:1 1368:1 1398:2
-1 623:1 631:1 1102:1 1319:1 1361:1 1368:1 1398:1
-1 623:2 631:2 635:1 715:1 1102:2 1230:1 1319:2 1361:2 1368:2 1370:1 1398:7
-1 528:2 631:1 1011:1 1289:2 1368:1 1398:2
-1 175:1 288:1 528:1 551:1 623:1 631:1 635:1 1102:1 1254:1 1289:1 1319:1 1322:1 1338:1 1361:1 1368:1 1370:1 1398:2
-1 457:1 1252:1 1398:3
-1 175:1 241:1 623:2 631:4 635:1 706:1 715:3 1102:2 1125:1 1221:1 1230:3 1254:1 1302:1 1319:2 1340:1 1361:2 1368:4 1370:1 1398:6
-1 175:1 623:1 631:1 1102:1 1254:1 1319:1 1361:1 1368:1 1398:1
-1 146:1 241:1 336:1 395:1 401:1 415:1 437:1 503:1 528:1 539:1 623:1 631:1 729:1 852:1 1102:1 1134:1 1222:1 1236:1 1241:1 1273:1 1289:1 1302:1 1307:1 1319:1 1332:1 1358:1 1361:1 1368:1 1398:3
-1 241:1 288:1 623:1 631:1 715:1 849:1 1102:1 1125:1 1230:1 1302:1 1319:1 1329:1 1338:1 1340:1 1361:1 1368:1 1398:1
-1 146:1 247:1 257:1 274:1 395:1 415:1 503:1 528:1 715:1 729:1 784:1 795:1 832:1 852:1 938:1 949:1 1076:1 1084:1 1118:1 1134:1 1222:1 1230:1 1236:1 1273:1 1289:1 1310:1 1320:1 1326:1 1332:1 1391:1 1398:2
-1 146:1 148:1 274:1 336:1 373:1 395:1 415:1 503:1 528:1 729:1 789:1 852:1 1006:1 1027:1 1031:1 1068:1 1076:1 1084:1 1134:1 1162:1 1222:1 1236:1 1238:1 1243:1 1257:1 1273:1 1284:1 1289:1 1326:1 1332:1 1357:1 1358:1 1398:3
-1 528:1 631:1 1289:1 1368:1 1398:4
-1 631:1 750:1 1368:1 1398:3
-1 175:1 528:1 623:1 631:1 635:1 706:1 1102:1 1221:1 1254:1 1289:1 1319:1 1361:1 1368:1 1370:1 1398:3
-1 146:1 395:1 415:1 437:1 503:1 528:1 539:1 631:1 729:1 829:1 852:1 1102:1 1115:1 1134:1 1222:1 1236:1 1241:1 1273:1 1289:1 1307:1 1314:1 1319:1 1331:1 1332:1 1368:1 1398:3
-1 146:1 148:1 274:1 295:1 318:1 336:1 373:1 415:1 461:1 503:1 630:1 729:1 789:1 852:1 949:1 988:1 1006:1 1031:1 1068:1 1084:1 1134:1 1144:1 1222:1 1223:1 1236:1 1238:1 1243:1 1257:1 1273:1 1284:1 1326:1 1332:1 1341:1 1348:1 1352:1 1358:1 1391:1 1398:3
-1 146:1 395:1 415:1 437:1 503:1 528:1 539:1 623:1 631:1 729:1 852:1 1102:1 1115:1 1134:1 1222:1 1236:1 1241:1 1273:1 1289:1 1307:1 1319:1 1331:1 1332:1 1361:1 1368:1 1398:1
-1 146:1 274:1 395:1 415:1 461:1 503:1 528:1 729:1 852:1 938:1 1068:1 1084:1 1134:1 1211:1 1222:1 1236:1 1273:1 1284:1 1289:1 1326:1 1332:1 1398:1
-1 528:1 631:1 1289:1 1368:1 1398:3
-1 241:1 288:1 336:1 392:1 528:1 614:1 623:1 631:1 635:1 1057:1 1095:1 1102:1 1274:1 1289:1 1302:1 1315:1 1319:1 1338:1 1358:1 1361:1 1368:1 1370:1 1397:1 1398:2
-1 457:1 1252:1 1398:4
-1 175:1 241:1 288:1 623:1 631:1 635:1 715:1 1102:1 1125:1 1230:1 1254:1 1302:1 1319:1 1338:1 1340:1 1361:1 1368:1 1370:1 1398:3
-1 528:1 623:1 631:4 715:2 1102:2 1230:2 1289:1 1319:2 1361:1 1368:4 1398:5
-1 528:2 631:1 1289:2 1368:1 1398:2
-1 528:1 623:1 631:1 844:1 1041:1 1289:1 1361:1 1368:1 1398:3
-1 175:1 241:1 288:1 623:1 631:1 635:1 1102:1 1125:1 1254:1 1302:1 1319:1 1338:1 1340:1 1361:1 1368:1 1370:1 1398:3
-1 631:1 681:1 761:1 902:1 1264:1 1368:1 1398:2
-1 146:1 336:1 360:1 373:1 382:1 415:1 503:1 528:1 713:1 729:1 789:1 852:1 938:1 940:1 949:1 1080:1 1084:1 1098:1 1134:1 1140:1 1162:1 1222:1 1228:1 1236:1 1273:1 1289:1 1295:1 1332:1 1357:1 1358:1 1391:1 1396:1 1398:2
-1 241:1 390:1 457:1 562:1 616:1 623:1 631:1 715:1 829:1 1102:1 1125:1 1230:1 1252:1 1302:1 1314:1 1319:1 1340:1 1359:1 1361:1 1368:1 1398:1 1400:1
-1 528:1 623:1 631:1 1102:1 1289:1 1319:1 1361:1 1368:1 1398:2
-1 528:1 623:1 631:1 1102:1 1289:1 1319:1 1361:1 1368:1 1398:2
-1 631:1 635:1 715:1 1102:1 1230:1 1319:1 1368:1 1370:1 1398:2
-1 175:1 241:1 288:1 344:1 484:1 495:1 623:1 631:1 713:1 715:1 832:1 1102:1 1125:1 1177:1 1228:1 1230:1 1254:1 1262:1 1269:1 1302:1 1319:1 1320:1 1338:1 1340:1 1361:1 1363:1 1368:1 1375:1 1398:2
-1 175:1 241:1 288:1 344:1 484:1 495:1 623:1 631:1 713:1 715:1 832:1 1102:1 1125:1 1177:1 1228:1 1230:1 1254:1 1262:1 1269:1 1302:1 1319:1 1320:1 1338:1 1340:1 1361:1 1363:1 1368:1 1375:1 1398:2
-1 631:1 1102:1 1319:1 1368:1 1398:3
-1 175:1 241:1 288:1 623:1 631:1 635:1 1102:1 1125:1 1254:1 1302:1 1319:1 1338:1 1340:1 1361:1 1368:1 1370:1 1398:4
-1 528:1 623:1 631:1 1102:1 1289:1 1319:1 1361:1 1368:1 1398:2
-1 137:1 146:1 247:1 274:1 336:1 373:1 415:1 453:1 461:1 503:1 510:1 528:1 729:1 789:1 812:1 824:1 826:1 852:1 871:1 882:1 938:1 940:1 949:1 1002:1 1006:1 1027:1 1031:1 1035:1 1068:1 1076:1 1077:1 1084:1 1102:1 1107:1 1134:1 1162:1 1222:1 1236:1 1243:1 1251:1 1257:1 1273:1 1284:1 1289:1 1292:1 1310:1 1319:1 1326:1 1332:1 1345:1 1357:1 1358:1 1391:1 1398:1 1400:142
-1 241:1 528:1 623:1 631:1 871:1 1002:1 1102:1 1289:1 1302:1 1319:1 1345:1 1361:1 1368:1 1398:2 1400:2
-1 631:1 1102:1 1319:1 1368:1 1398:3
-1 711:1 1227:1 1398:1
-1 711:1 1227:1 1398:1
-1 241:1 528:1 631:1 1289:1 1302:1 1368:1 1398:3
-1 528:1 631:1 1102:1 1289:1 1319:1 1368:1 1398:1
-1 146:1 247:1 274:1 312:1 336:1 373:1 415:1 503:1 528:1 729:1 789:1 813:1 852:1 938:1 940:1 949:1 1031:1 1035:1 1068:1 1076:1 1098:1 1104:1 1134:1 1144:1 1162:1 1222:1 1236:1 1257:1 1273:1 1284:1 1289:1 1310:1 1326:1 1332:1 1348:1 1357:1 1358:1 1391:1 1398:3
-1 288:1 336:1 495:1 528:1 623:1 631:1 706:1 713:1 790:1 1021:1 1102:1 1125:1 1221:1 1228:1 1269:1 1275:1 1289:1 1319:1 1338:1 1340:1 1358:1 1361:1 1368:1 1398:1
-1 631:1 790:1 1125:1 1275:1 1340:1 1368:1 1398:1
-1 631:1 635:1 1102:1 1319:1 1368:1 1370:1 1398:2
-1 457:1 1252:1 1398:3
-1 631:1 829:1 1102:1 1314:1 1319:1 1368:1 1398:4
-1 241:1 528:2 631:1 1102:1 1175:1 1289:2 1302:1 1319:1 1368:1 1374:1 1398:3
-1 457:1 1252:1 1398:2
-1 175:1 288:1 528:2 616:1 631:1 706:1 1102:1 1221:1 1254:1 1289:2 1319:1 1338:1 1359:1 1368:1 1398:3
-1 288:1 631:1 635:1 678:1 1102:1 1319:1 1338:1 1368:1 1370:1 1398:3
-1 711:1 1227:1 1398:1
-1 711:1 1227:1 1398:1
-1 175:1 241:1 271:1 288:1 344:1 623:1 631:1 635:1 636:1 678:1 706:1 715:1 780:1 804:1 829:1 853:1 996:1 1023:1 1102:1 1125:1 1175:1 1221:1 1230:1 1234:1 1254:1 1285:1 1302:1 1314:1 1319:1 1324:1 1333:1 1338:1 1340:1 1361:1 1363:1 1368:1 1370:1 1372:1 1374:1 1398:1 1400:1025
-1 172:1 175:1 241:1 270:1 288:1 317:1 322:1 489:1 561:1 623:2 631:6 635:1 706:1 715:3 758:1 866:1 1102:3 1125:1 1175:1 1188:1 1221:1 1230:3 1254:1 1261:1 1302:1 1319:3 1338:1 1340:1 1354:1 1361:2 1368:6 1370:1 1374:1 1398:4 1400:1
-1 175:1 241:1 288:1 623:1 631:1 635:1 706:1 715:1 1023:1 1102:1 1125:1 1183:1 1221:1 1230:1 1254:1 1302:1 1319:1 1338:1 1340:1 1361:1 1368:1 1370:1 1381:1 1398:5
-1 288:1 528:2 623:1 631:1 635:1 706:1 1102:1 1221:1 1289:2 1319:1 1338:1 1361:1 1368:1 1370:1 1398:3
-1 241:1 288:1 528:1 631:1 715:1 1102:1 1230:1 1289:1 1302:1 1319:1 1338:1 1368:1 1398:2
-1 125:1 160:1 195:1 431:1 483:1 513:1 631:1 681:1 761:1 805:1 855:1 918:1 1210:1 1264:1 1368:1 1398:2
-1 711:1 1227:1 1398:1
-1 172:1 175:2 194:1 241:1 288:2 322:1 345:1 489:1 528:1 551:1 561:1 623:2 631:6 635:1 715:3 758:1 866:1 1102:3 1125:1 1175:1 1188:2 1230:3 1254:2 1261:1 1289:1 1302:1 1319:3 1322:1 1338:2 1340:1 1361:2 1368:6 1370:1 1374:1 1398:4 1400:1
-1 125:1 160:1 195:1 431:1 513:1 631:1 681:1 761:1 805:1 855:1 918:1 1210:1 1264:1 1368:1 1398:1
-1 262:1 472:1 631:1 1102:1 1318:1 1319:1 1368:1 1398:1
-1 175:1 241:1 288:1 623:1 631:1 635:1 1102:1 1125:1 1254:1 1302:1 1319:1 1338:1 1340:1 1361:1 1368:1 1370:1 1398:3
-1 528:2 623:1 631:1 1102:1 1289:2 1319:1 1361:1 1368:1 1398:3
-1 175:1 241:1 259:1 271:1 288:1 588:1 623:1 631:1 635:1 706:1 996:1 1102:1 1106:1 1151:1 1175:1 1221:1 1234:1 1254:1 1302:1 1317:1 1319:1 1324:1 1338:1 1361:1 1368:1 1370:1 1374:1 1398:2
-1 175:1 241:1 259:1 271:1 288:1 623:1 631:1 635:1 706:1 715:1 996:1 1102:1 1175:1 1221:1 1230:1 1234:1 1254:1 1302:1 1317:1 1319:1 1324:1 1338:1 1361:1 1368:1 1370:1 1374:1 1398:4
-1 175:1 241:1 259:1 271:1 288:1 588:1 623:1 631:1 635:1 706:1 996:1 1102:1 1106:1 1151:1 1175:1 1221:1 1234:1 1254:1 1302:1 1317:1 1319:1 1324:1 1338:1 1361:1 1368:1 1370:1 1374:1 1398:2
-1 175:1 241:1 259:1 271:1 288:1 488:1 588:1 623:1 631:1 635:1 706:1 996:1 1102:1 1106:1 1151:1 1175:1 1221:1 1234:1 1254:1 1302:1 1317:1 1319:1 1324:1 1338:1 1361:1 1368:1 1370:1 1374:1 1398:4
-1 457:1 1252:1 1398:3
-1 175:1 241:1 288:1 623:1 631:1 635:1 636:1 706:1 715:1 864:1 996:1 1102:1 1125:1 1175:1 1183:1 1221:1 1230:1 1234:1 1254:1 1302:1 1319:1 1338:1 1340:1 1342:1 1361:1 1368:1 1370:1 1372:1 1374:1 1381:1 1398:2
-1 457:1 1252:1 1398:3
-1 175:1 259:1 288:1 528:1 551:1 623:1 631:1 706:1 761:1 1041:1 1102:1 1175:1 1221:1 1254:1 1264:1 1289:1 1317:1 1319:1 1322:1 1338:1 1361:1 1368:1 1374:1 1398:2 1400:202
-1 175:1 241:1 288:1 623:1 631:1 635:1 1102:1 1125:1 1254:1 1302:1 1319:1 1338:1 1340:1 1361:1 1368:1 1370:1 1398:3
-1 631:1 715:1 918:1 1102:1 1230:1 1319:1 1368:1 1398:4
-1 175:1 256:1 288:1 623:2 631:5 635:1 706:1 715:2 1102:2 1125:1 1221:1 1230:2 1254:1 1316:1 1319:2 1338:1 1340:1 1361:2 1368:5 1370:1 1398:7
-1 457:1 1252:1 1398:3
-1 457:1 1252:1 1398:2
-1 262:1 288:1 442:1 617:1 623:1 631:1 1102:1 1318:1 1319:1 1338:1 1360:1 1361:1 1368:1 1398:1
-1 528:1 631:1 922:1 1289:1 1368:1 1398:7
-1 528:2 631:1 1079:1 1102:1 1175:1 1289:2 1294:1 1319:1 1368:1 1374:1 1398:3
-1 175:1 241:1 288:1 623:1 631:1 635:1 706:1 715:1 758:1 829:1 1102:1 1125:1 1221:1 1230:1 1254:1 1261:1 1302:1 1314:1 1319:1 1338:1 1340:1 1361:1 1368:1 1370:1 1398:1
-1 175:1 241:1 288:1 528:2 551:1 623:1 631:1 636:1 1102:1 1175:1 1254:1 1289:2 1302:1 1319:1 1322:1 1338:1 1361:1 1368:1 1372:1 1374:1 1398:2
-1 175:1 241:1 288:1 623:1 631:1 635:1 1102:1 1125:1 1254:1 1302:1 1319:1 1338:1 1340:1 1361:1 1368:1 1370:1 1398:3
-1 167:1 175:1 241:1 262:1 288:1 418:1 532:1 603:1 617:1 623:1 625:1 631:1 635:1 659:1 706:1 715:1 1086:1 1102:1 1197:1 1221:1 1230:1 1254:1 1302:1 1318:1 1319:1 1338:1 1360:1 1361:1 1368:1 1370:1 1398:1 1400:1
-1 241:1 262:1 288:1 623:1 631:1 715:1 1102:1 1230:1 1302:1 1318:1 1319:1 1338:1 1361:1 1368:1 1398:1
-1 262:1 495:1 623:1 631:1 713:1 1228:1 1269:1 1318:1 1361:1 1368:1 1398:2
-1 262:1 616:1 623:1 631:1 1079:1 1080:1 1197:1 1294:1 1295:1 1318:1 1359:1 1361:1 1368:1 1398:3
-1 167:1 175:1 237:1 241:1 262:1 288:1 418:1 532:1 603:1 617:1 623:1 625:1 631:1 635:1 659:1 661:1 686:1 706:1 715:1 758:1 829:1 864:1 1102:1 1197:1 1221:1 1230:1 1254:1 1261:1 1302:1 1314:1 1318:1 1319:1 1338:1 1342:1 1360:1 1361:1 1368:1 1370:1 1398:2
-1 167:1 175:1 241:1 262:1 288:1 418:1 532:1 603:1 617:1 625:1 631:1 635:1 659:1 715:1 1102:1 1197:1 1230:1 1254:1 1302:1 1318:1 1319:1 1338:1 1360:1 1368:1 1370:1 1398:2
-1 175:1 241:1 262:1 288:1 453:1 623:1 631:1 713:1 715:1 849:1 1079:1 1102:1 1175:1 1228:1 1230:1 1251:1 1254:1 1294:1 1302:1 1318:1 1319:1 1329:1 1338:1 1361:1 1368:1 1374:1 1398:1 1400:30
-1 241:1 262:1 617:1 623:1 631:1 715:1 1102:1 1230:1 1302:1 1318:1 1319:1 1360:1 1361:1 1368:1 1398:1
-1 175:1 241:1 262:1 288:1 617:1 623:1 631:1 635:1 715:1 758:1 829:1 1102:1 1230:1 1254:1 1261:1 1302:1 1314:1 1318:1 1319:1 1338:1 1360:1 1361:1 1368:1 1370:1 1398:1
-1 175:1 241:1 262:1 288:1 532:1 603:1 617:1 623:1 625:1 631:1 659:1 694:1 715:1 758:1 829:1 864:1 1102:1 1197:1 1220:1 1230:1 1254:1 1261:1 1302:1 1314:1 1318:1 1319:1 1338:1 1342:1 1360:1 1361:1 1368:1 1398:1 1400:11
-1 241:1 262:1 288:1 551:1 623:1 631:1 713:1 715:1 1079:1 1102:1 1228:1 1230:1 1294:1 1302:1 1318:1 1319:1 1322:1 1338:1 1361:1 1368:1 1398:1
-1 457:1 1252:1 1398:4
-1 175:1 241:1 288:1 453:1 623:1 631:1 635:1 636:1 715:1 758:1 829:1 1102:1 1230:1 1251:1 1254:1 1261:1 1302:1 1314:1 1319:1 1338:1 1361:1 1368:1 1370:1 1372:1 1398:1
-1 457:1 1252:1 1398:2
-1 711:1 1227:1 1398:1
-1 175:1 288:1 623:1 631:1 635:1 706:1 715:1 829:1 1057:1 1102:1 1175:1 1221:1 1230:1 1254:1 1274:1 1314:1 1319:1 1338:1 1361:1 1368:1 1370:1 1374:1 1398:6
-1 175:1 623:1 631:1 706:1 1102:1 1125:1 1221:1 1254:1 1319:1 1340:1 1361:1 1368:1 1398:1
-1 288:1 488:1 528:1 623:1 626:1 631:1 700:1 844:1 1289:1 1338:1 1361:1 1368:1 1398:2
-1 175:1 623:2 631:4 635:1 681:1 706:1 715:2 761:2 1102:2 1175:1 1221:1 1230:2 1254:1 1264:2 1319:2 1361:2 1368:4 1370:1 1374:1 1398:6
-1 175:1 241:1 288:1 623:1 631:1 635:1 1102:1 1125:1 1254:1 1302:1 1319:1 1338:1 1340:1 1361:1 1368:1 1370:1 1398:3
-1 623:2 631:2 635:1 715:1 1102:2 1230:1 1319:2 1361:2 1368:2 1370:1 1398:6
-1 241:1 551:1 623:1 631:1 765:1 1102:1 1302:1 1319:1 1322:1 1361:1 1368:1 1398:3
-1 241:1 551:1 623:1 631:1 765:1 1102:1 1302:1 1319:1 1322:1 1361:1 1368:1 1398:3
-1 125:1 160:1 431:1 513:1 631:1 681:1 761:1 805:1 918:1 1210:1 1264:1 1368:1 1398:2
-1 631:1 654:1 720:1 779:1 1036:1 1078:1 1368:1 1398:1
-1 235:1 241:1 263:1 306:1 334:1 422:1 631:1 654:1 907:1 1102:1 1175:1 1302:1 1319:1 1347:1 1368:1 1374:1 1398:2
-1 457:1 1252:1 1398:2
-1 241:1 555:1 631:1 715:1 1230:1 1302:1 1328:1 1368:1 1398:2
-1 241:1 288:1 623:1 631:1 715:1 829:1 1102:1 1230:1 1302:1 1314:1 1319:1 1338:1 1361:1 1368:1 1398:1
-1 288:1 616:1 623:1 631:1 829:1 849:1 1080:1 1125:1 1295:1 1314:1 1329:1 1338:1 1340:1 1359:1 1361:1 1368:1 1398:1
-1 288:1 528:1 631:1 1102:1 1289:1 1319:1 1338:1 1368:1 1398:2
-1 175:1 241:1 288:1 623:2 631:1 635:1 706:1 715:3 1102:2 1125:1 1221:1 1230:3 1254:1 1302:1 1319:2 1338:1 1340:1 1361:2 1368:1 1370:1 1398:12
-1 631:1 1102:1 1319:1 1368:1 1398:1
-1 146:1 198:1 395:1 415:1 528:1 555:1 623:1 631:1 715:1 729:1 871:1 887:1 1134:1 1149:1 1222:1 1230:1 1236:1 1289:1 1328:1 1345:1 1361:1 1368:1 1398:1
-1 138:1 146:1 148:1 228:1 247:1 257:1 274:1 336:1 373:1 395:1 415:1 503:1 528:1 555:1 624:1 640:1 715:1 718:1 729:1 746:1 789:1 832:1 852:1 910:1 924:1 938:1 940:1 949:1 969:1 1006:1 1027:1 1031:1 1035:1 1068:1 1076:1 1084:1 1107:1 1134:1 1149:1 1162:1 1222:1 1230:1 1236:1 1238:1 1243:1 1256:1 1257:1 1273:1 1284:1 1286:1 1289:1 1310:1 1320:1 1326:1 1328:1 1332:1 1357:1 1358:1 1364:1 1391:1 1398:1
-1 175:1 241:1 288:1 304:1 457:1 623:1 631:1 715:1 829:1 1078:1 1102:1 1230:1 1252:1 1254:1 1302:1 1314:1 1319:1 1338:1 1361:1 1368:1 1398:1
-1 175:1 241:1 288:2 623:2 631:4 635:1 706:1 715:3 996:1 1057:1 1102:2 1125:1 1175:1 1221:1 1230:3 1234:1 1254:1 1274:1 1302:1 1319:2 1338:2 1340:1 1361:2 1368:4 1370:1 1374:1 1398:6
-1 241:1 551:1 631:1 715:1 918:1 1078:1 1102:1 1139:1 1175:1 1230:1 1302:1 1319:1 1322:1 1368:1 1374:1 1398:1 1400:75
-1 180:1 631:1 1175:1 1368:1 1374:1 1398:2
-1 175:1 320:1 631:1 1102:1 1254:1 1319:1 1368:1 1398:1
-1 146:1 148:1 157:1 223:1 274:1 354:1 373:1 382:1 415:1 421:1 480:1 503:1 510:1 528:1 722:1 729:1 746:1 789:1 852:1 882:1 938:1 940:1 949:1 1031:1 1064:1 1068:1 1077:1 1079:1 1084:1 1098:1 1107:1 1126:1 1128:1 1134:1 1144:1 1162:1 1222:1 1236:1 1238:1 1239:1 1256:1 1257:1 1273:1 1282:1 1284:1 1289:1 1294:1 1326:1 1332:1 1348:1 1357:1 1369:1 1391:1 1396:1 1398:2
-1 457:1 1252:1 1398:3
-1 631:1 1102:1 1319:1 1368:1 1398:1
-1 175:1 241:1 288:1 623:1 631:1 635:1 1102:1 1125:1 1254:1 1302:1 1319:1 1338:1 1340:1 1361:1 1368:1 1370:1 1398:2
-1 175:1 288:1 528:1 623:1 631:1 829:1 1102:1 1254:1 1289:1 1314:1 1319:1 1338:1 1361:1 1368:1 1398:3
-1 241:1 288:1 336:1 528:1 623:1 631:1 635:1 715:1 829:1 1102:1 1230:1 1289:1 1302:1 1314:1 1319:1 1338:1 1358:1 1361:1 1368:1 1370:1 1398:2
-1 457:1 1252:1 1398:3
-1 175:1 288:1 623:2 631:4 635:1 715:2 1102:2 1125:1 1230:2 1254:1 1319:2 1338:1 1340:1 1361:2 1368:4 1370:1 1398:6
-1 175:1 623:2 631:3 635:1 715:1 1102:2 1230:1 1254:1 1319:2 1361:2 1368:3 1370:1 1398:6
-1 129:1 336:1 421:1 528:1 631:1 682:1 829:1 853:1 1079:1 1102:1 1125:1 1289:1 1294:1 1314:1 1319:1 1333:1 1340:1 1358:1 1368:1 1398:2
-1 623:2 631:2 635:1 715:1 1102:2 1230:1 1319:2 1361:2 1368:2 1370:1 1398:8
-1 288:1 528:1 623:1 631:1 1102:1 1289:1 1319:1 1338:1 1361:1 1368:1 1398:4
-1 288:1 631:1 1102:1 1319:1 1338:1 1368:1 1398:2
-1 146:1 395:1 415:1 503:1 528:1 631:1 729:1 852:1 1134:1 1222:1 1236:1 1273:1 1289:1 1332:1 1368:1 1398:2
-1 175:1 241:1 288:1 551:1 623:1 631:1 635:1 678:1 706:1 1102:1 1221:1 1254:1 1302:1 1319:1 1322:1 1338:1 1361:1 1368:1 1370:1 1398:2
-1 288:1 336:1 528:1 623:1 631:1 635:1 1102:1 1289:1 1319:1 1338:1 1358:1 1361:1 1368:1 1370:1 1398:2
-1 366:1 631:1 1368:1 1398:3
-1 528:2 631:1 1289:2 1368:1 1398:2
-1 528:2 631:1 1289:2 1368:1 1398:2
-1 623:2 631:2 635:1 715:1 1102:2 1230:1 1319:2 1361:2 1368:2 1370:1 1398:7
-1 528:2 631:1 1289:2 1368:1 1398:2
-1 528:2 631:1 1289:2 1368:1 1398:2
-1 528:2 631:1 748:1 761:1 931:1 979:1 1264:1 1289:2 1368:1 1398:6
-1 259:1 528:1 631:1 1289:1 1317:1 1368:1 1398:3
-1 241:1 288:1 623:1 631:6 715:3 1102:2 1230:3 1302:1 1319:2 1338:1 1361:1 1368:6 1398:5
-1 175:1 241:1 288:1 528:1 623:1 631:1 681:1 761:1 1041:1 1102:1 1175:1 1254:1 1264:1 1289:1 1302:1 1319:1 1338:1 1361:1 1368:1 1374:1 1398:2
-1 366:1 631:1 1368:1 1398:3
-1 241:1 336:1 340:1 453:1 528:1 623:1 631:1 715:1 832:1 1102:1 1230:1 1251:1 1289:1 1302:1 1319:1 1320:1 1358:1 1361:1 1368:1 1398:1
-1 146:1 241:1 395:1 415:1 503:1 528:1 631:1 699:1 715:1 729:1 852:1 938:1 940:1 949:1 1068:1 1084:1 1102:1 1134:1 1162:1 1222:1 1230:1 1236:1 1273:1 1284:1 1289:1 1302:1 1319:1 1332:1 1357:1 1368:1 1391:1 1398:1
-1 241:1 324:1 336:1 354:1 405:1 433:1 453:1 528:1 555:1 623:1 631:1 715:1 832:1 911:1 924:1 952:1 969:1 1102:1 1230:1 1251:1 1289:1 1302:1 1319:1 1320:1 1328:1 1358:1 1361:1 1362:1 1368:1 1369:1 1398:1 1400:18
-1 648:1 1398:1
-1 631:1 1368:1 1398:1
-1 528:1 631:1 771:1 1102:1 1289:1 1319:1 1368:1 1398:2
-1 175:1 623:1 631:1 635:1 1102:1 1254:1 1319:1 1361:1 1368:1 1370:1 1398:4
-1 175:1 241:1 288:1 623:1 631:1 635:1 1102:1 1125:1 1254:1 1302:1 1319:1 1338:1 1340:1 1361:1 1368:1 1370:1 1398:2
-1 146:1 415:1 503:1 528:1 729:1 826:1 852:1 956:1 1134:1 1222:1 1236:1 1273:1 1289:1 1332:1 1398:2
-1 217:1 278:1 288:1 292:1 631:1 1079:1 1102:1 1151:1 1173:1 1175:1 1294:1 1319:1 1338:1 1368:1 1374:1 1398:1
-1 175:1 241:1 288:1 623:1 631:1 635:1 1102:1 1125:1 1254:1 1302:1 1319:1 1338:1 1340:1 1361:1 1368:1 1370:1 1398:3
-1 623:2 631:2 635:1 715:1 1102:2 1230:1 1319:2 1361:2 1368:2 1370:1 1398:6
-1 175:1 551:1 623:2 631:4 635:1 706:1 715:2 1102:2 1221:1 1230:2 1254:1 1319:2 1322:1 1361:2 1368:4 1370:1 1398:6
-1 175:1 241:1 288:1 623:1 631:1 706:1 1102:1 1125:1 1221:1 1254:1 1302:1 1319:1 1338:1 1340:1 1361:1 1368:1 1398:2
-1 457:1 1252:1 1398:3
-1 146:1 215:1 336:1 373:1 395:1 415:1 461:1 503:1 528:1 729:1 746:1 789:1 852:1 938:1 949:1 988:1 1006:1 1031:1 1068:1 1084:1 1098:1 1134:1 1162:1 1222:1 1223:1 1236:1 1243:1 1256:1 1257:1 1273:1 1284:1 1289:1 1332:1 1357:1 1358:1 1391:1 1398:2
-1 138:1 146:1 157:1 162:1 199:1 228:1 247:1 274:1 312:1 323:1 324:1 336:1 354:1 355:1 373:1 382:1 415:1 461:1 495:1 503:1 505:1 510:1 528:1 541:1 640:1 646:1 667:1 717:1 729:1 746:1 789:1 792:1 812:1 826:1 832:1 852:1 938:1 940:1 949:1 958:1 1031:1 1064:1 1068:1 1076:1 1077:1 1084:1 1134:1 1144:1 1150:1 1162:1 1222:1 1236:1 1247:1 1256:1 1257:1 1269:1 1273:1 1276:1 1284:1 1286:1 1289:1 1292:1 1309:1 1310:1 1320:1 1326:1 1332:1 1348:1 1350:1 1357:1 1358:1 1369:1 1373:1 1391:1 1396:1 1398:4
-1 137:1 146:1 162:1 228:1 247:1 274:1 323:1 336:1 355:1 373:1 415:1 461:1 503:1 505:1 528:1 717:1 729:1 789:1 852:1 1031:1 1068:1 1076:1 1084:1 1134:1 1150:1 1162:1 1222:1 1236:1 1247:1 1257:1 1273:1 1284:1 1286:1 1289:1 1310:1 1326:1 1332:1 1350:1 1357:1 1358:1 1373:1 1398:4
-1 121:1 146:1 157:1 274:1 324:1 336:1 373:1 395:1 415:1 461:1 503:1 528:1 570:1 690:1 715:1 729:1 789:1 812:1 852:1 940:1 949:1 1027:1 1031:1 1068:1 1076:1 1084:1 1134:1 1144:1 1219:1 1222:1 1230:1 1236:1 1257:1 1273:1 1284:1 1289:1 1292:1 1326:1 1332:1 1339:1 1348:1 1358:1 1391:1 1398:4
-1 175:1 288:1 623:1 631:1 635:1 706:1 715:1 1102:1 1125:1 1175:1 1221:1 1230:1 1254:1 1319:1 1338:1 1340:1 1361:1 1368:1 1370:1 1374:1 1398:5
-1 146:1 157:1 274:1 336:1 354:1 373:1 382:1 395:1 415:1 503:1 528:1 632:1 715:1 729:1 746:1 789:1 832:1 852:1 938:1 940:1 949:1 988:1 1006:1 1031:1 1064:1 1068:1 1076:1 1084:1 1098:1 1134:1 1144:1 1162:1 1222:1 1223:1 1230:1 1236:1 1243:1 1256:1 1257:1 1273:1 1284:1 1289:1 1320:1 1326:1 1332:1 1348:1 1357:1 1358:1 1369:1 1391:1 1396:1 1398:1
-1 175:1 484:1 528:1 623:1 631:1 635:1 1102:1 1125:1 1254:1 1262:1 1289:1 1319:1 1340:1 1361:1 1368:1 1370:1 1398:2
-1 175:1 241:1 288:1 336:1 340:1 528:1 623:1 631:1 635:1 706:1 713:1 715:1 758:1 829:1 864:1 871:1 1021:1 1079:1 1102:1 1175:1 1221:1 1228:1 1230:1 1254:1 1261:1 1289:1 1294:1 1302:1 1314:1 1319:1 1338:1 1342:1 1345:1 1358:1 1361:1 1368:1 1370:1 1374:1 1398:1
-1 175:1 528:1 551:1 623:1 631:1 1079:1 1102:1 1254:1 1289:1 1294:1 1319:1 1322:1 1361:1 1368:1 1398:2
-1 336:1 528:1 631:1 829:1 1079:1 1102:1 1125:1 1289:1 1294:1 1314:1 1319:1 1340:1 1358:1 1368:1 1398:2
-1 631:1 1368:1 1398:1
-1 129:1 336:1 421:1 528:1 623:1 624:1 631:1 653:1 829:1 1079:1 1102:1 1125:1 1289:1 1294:1 1314:1 1319:1 1340:1 1358:1 1361:1 1364:1 1368:1 1398:1
-1 175:1 623:1 631:1 706:1 1079:1 1102:1 1125:1 1221:1 1254:1 1294:1 1319:1 1340:1 1361:1 1368:1 1398:1
-1 175:1 241:1 288:1 435:1 528:1 623:1 631:1 715:1 829:1 1102:1 1230:1 1254:1 1289:1 1302:1 1314:1 1319:1 1338:1 1361:1 1368:1 1398:1
-1 457:1 1252:1 1398:5
-1 457:1 1252:1 1398:3
-1 127:1 146:1 247:1 257:1 274:1 336:1 355:1 373:1 382:1 395:1 415:1 437:1 461:1 498:1 503:1 528:1 529:1 539:1 665:1 708:1 713:1 715:1 722:1 729:1 770:1 789:1 792:1 832:1 852:1 875:1 938:1 940:1 949:1 951:1 988:1 1027:1 1031:1 1035:1 1064:1 1068:1 1076:1 1084:1 1099:1 1115:1 1134:1 1140:1 1144:1 1154:1 1162:1 1222:1 1223:1 1228:1 1230:1 1236:1 1239:1 1241:1 1257:1 1273:1 1276:1 1284:1 1289:1 1291:1 1307:1 1310:1 1320:1 1326:1 1331:1 1332:1 1348:1 1357:1 1358:1 1373:1 1391:1 1392:1 1395:1 1396:1 1398:2
-1 134:1 146:1 148:1 274:1 336:1 354:1 373:1 415:1 484:1 503:1 528:1 632:1 729:1 789:1 812:1 826:1 832:1 852:1 938:1 940:1 949:1 1031:1 1035:1 1068:1 1076:1 1084:1 1134:1 1144:1 1162:1 1222:1 1224:1 1236:1 1238:1 1257:1 1262:1 1273:1 1284:1 1289:1 1292:1 1320:1 1326:1 1332:1 1348:1 1357:1 1358:1 1369:1 1391:1 1398:2
-1 175:1 631:1 681:1 761:1 1011:1 1102:1 1254:1 1264:1 1319:1 1368:1 1398:3
-1 623:3 631:4 635:1 715:1 1102:2 1230:1 1319:2 1361:3 1368:4 1370:1 1398:5
-1 528:1 631:1 1102:1 1289:1 1319:1 1368:1 1398:5
-1 175:1 241:1 288:1 528:1 623:1 631:1 635:1 706:1 715:1 1102:1 1175:1 1221:1 1230:1 1254:1 1289:1 1302:1 1319:1 1338:1 1361:1 1368:1 1370:1 1374:1 1398:2
-1 457:1 1252:1 1398:3
-1 146:1 257:1 274:1 395:1 415:1 437:1 461:1 503:1 528:1 539:1 716:1 729:1 852:1 938:1 1068:1 1084:1 1115:1 1134:1 1222:1 1231:1 1236:1 1241:1 1273:1 1284:1 1289:1 1307:1 1326:1 1331:1 1332:1 1398:2
-1 175:1 241:1 288:1 623:1 631:1 635:1 1102:1 1125:1 1254:1 1302:1 1319:1 1338:1 1340:1 1361:1 1368:1 1370:1 1398:3
-1 175:1 241:1 288:1 623:1 631:1 635:1 1102:1 1125:1 1254:1 1302:1 1319:1 1338:1 1340:1 1361:1 1368:1 1370:1 1398:2
-1 146:1 157:1 247:1 274:1 312:1 336:1 373:1 395:1 415:1 503:1 528:1 646:1 715:1 729:1 789:1 792:1 826:1 832:1 852:1 924:1 938:1 940:1 949:1 988:1 1027:1 1031:1 1035:1 1068:1 1077:1 1084:1 1107:1 1134:1 1144:1 1158:1 1162:1 1222:1 1223:1 1230:1 1236:1 1257:1 1273:1 1276:1 1284:1 1289:1 1310:1 1320:1 1326:1 1332:1 1348:1 1357:1 1358:1 1391:1 1398:2
-1 175:1 241:1 288:1 623:1 631:1 635:1 1102:1 1125:1 1254:1 1302:1 1319:1 1338:1 1340:1 1361:1 1368:1 1370:1 1398:3
-1 175:1 241:1 288:1 558:1 623:1 631:1 635:1 706:1 715:1 829:1 1102:1 1221:1 1230:1 1254:1 1302:1 1314:1 1319:1 1330:1 1338:1 1361:1 1368:1 1370:1 1398:2
-1 528:1 631:1 1102:1 1289:1 1319:1 1368:1 1398:5
-1 457:1 1252:1 1398:4
-1 241:1 288:1 336:1 484:1 528:1 616:1 623:1 631:1 829:1 832:1 1102:1 1125:1 1262:1 1289:1 1302:1 1314:1 1319:1 1320:1 1338:1 1340:1 1358:1 1359:1 1361:1 1368:1 1398:2
-1 241:1 288:1 336:1 344:1 495:1 528:1 616:1 623:1 631:1 635:1 713:1 715:1 804:1 829:1 911:1 1021:1 1080:1 1083:1 1102:1 1125:1 1160:1 1228:1 1230:1 1269:1 1285:1 1289:1 1295:1 1298:1 1302:1 1314:1 1319:1 1338:1 1340:1 1358:1 1359:1 1361:1 1362:1 1363:1 1368:1 1370:1 1398:1
-1 175:1 528:1 623:1 631:1 635:1 1102:1 1125:1 1254:1 1289:1 1319:1 1340:1 1361:1 1368:1 1370:1 1398:2
-1 146:1 241:1 336:1 395:1 415:1 437:1 503:1 528:1 631:1 715:1 729:1 852:1 1095:1 1102:1 1134:1 1211:1 1222:1 1230:1 1236:1 1241:1 1273:1 1289:1 1302:1 1315:1 1319:1 1332:1 1358:1 1368:1 1398:2
-1 457:1 1252:1 1398:4
-1 457:1 1252:1 1398:2
-1 457:1 1252:1 1398:3
-1 457:1 1252:1 1398:2
-1 175:1 241:1 288:1 558:1 623:1 631:1 635:1 706:1 715:1 829:1 1057:1 1102:1 1221:1 1230:1 1254:1 1274:1 1302:1 1314:1 1319:1 1330:1 1338:1 1361:1 1368:1 1370:1 1398:2
-1 146:1 247:1 415:1 437:1 503:1 528:1 539:1 729:1 852:1 988:1 1134:1 1222:1 1223:1 1236:1 1241:1 1273:1 1289:1 1307:1 1310:1 1332:1 1398:2
-1 146:1 274:1 395:1 415:1 461:1 503:1 528:1 729:1 852:1 938:1 1068:1 1084:1 1134:1 1211:1 1222:1 1236:1 1273:1 1284:1 1289:1 1326:1 1332:1 1398:1
-1 528:1 631:1 1102:1 1289:1 1319:1 1368:1 1398:4
-1 457:1 1252:1 1398:3
-1 175:1 241:1 288:1 623:1 631:1 635:1 1102:1 1125:1 1254:1 1302:1 1319:1 1338:1 1340:1 1361:1 1368:1 1370:1 1398:3
-1 457:1 1252:1 1398:3
-1 241:1 528:1 631:1 715:1 1230:1 1289:1 1302:1 1368:1 1398:2
-1 175:1 241:1 288:1 528:1 623:1 631:1 635:1 1102:1 1254:1 1289:1 1302:1 1319:1 1338:1 1361:1 1368:1 1370:1 1398:2
-1 175:1 241:1 528:1 623:1 631:1 635:1 1102:1 1254:1 1289:1 1302:1 1319:1 1361:1 1368:1 1370:1 1398:2
-1 175:1 241:1 288:1 623:1 631:1 635:1 678:1 1102:1 1254:1 1302:1 1319:1 1338:1 1361:1 1368:1 1370:1 1398:2
-1 175:1 241:1 623:1 631:1 635:1 1078:1 1102:1 1254:1 1302:1 1319:1 1361:1 1368:1 1370:1 1398:2
-1 175:1 241:1 288:1 623:1 631:1 635:1 1102:1 1254:1 1302:1 1319:1 1338:1 1361:1 1368:1 1370:1 1398:1
-1 175:1 241:1 288:1 551:1 623:1 631:1 635:1 706:1 715:1 853:1 1102:1 1125:1 1175:1 1221:1 1230:1 1254:1 1302:1 1319:1 1322:1 1333:1 1338:1 1340:1 1361:1 1368:1 1370:1 1374:1 1398:4
-1 241:1 288:1 528:1 631:1 715:1 1102:1 1230:1 1289:1 1302:1 1319:1 1338:1 1368:1 1398:2
-1 175:1 241:1 288:1 623:1 631:1 715:1 829:1 1079:1 1102:1 1230:1 1254:1 1294:1 1302:1 1314:1 1319:1 1338:1 1361:1 1368:1 1398:2
-1 1398:2
-1 137:1 138:1 146:1 228:1 274:1 294:1 336:1 354:1 355:1 373:1 415:1 461:1 480:1 503:1 509:1 510:1 528:1 542:1 632:1 640:1 646:1 717:1 724:1 729:1 746:1 772:1 789:1 793:1 832:1 852:1 882:1 938:1 940:1 949:1 988:1 1006:1 1027:1 1031:1 1034:1 1054:1 1068:1 1076:1 1077:1 1084:1 1133:1 1134:1 1140:1 1144:1 1162:1 1181:1 1196:1 1222:1 1223:1 1236:1 1243:1 1256:1 1257:1 1273:1 1284:1 1286:1 1289:1 1320:1 1326:1 1332:1 1344:1 1348:1 1357:1 1358:1 1369:1 1373:1 1380:1 1391:1 1398:1
-1 159:1 175:1 408:1 528:2 631:1 700:1 715:1 758:1 1102:1 1230:1 1245:1 1254:1 1261:1 1289:2 1319:1 1368:1 1398:2
-1 146:1 336:1 373:1 395:1 415:1 503:1 528:1 699:1 729:1 789:1 852:1 938:1 1031:1 1068:1 1084:1 1098:1 1134:1 1162:1 1222:1 1236:1 1257:1 1273:1 1284:1 1289:1 1332:1 1357:1 1358:1 1398:3
-1 175:1 241:1 256:1 288:1 558:1 623:1 631:1 635:1 636:1 706:1 715:1 758:1 829:1 1057:1 1079:1 1102:1 1175:1 1221:1 1230:1 1254:1 1261:1 1274:1 1294:1 1302:1 1314:1 1316:1 1319:1 1330:1 1338:1 1361:1 1368:1 1370:1 1372:1 1374:1 1398:1
-1 711:1 1227:1 1398:1
-1 457:1 1252:1 1398:4
-1 175:1 288:1 623:1 631:1 635:1 706:1 864:1 1102:1 1221:1 1254:1 1319:1 1338:1 1342:1 1361:1 1368:1 1370:1 1398:1
-1 175:1 241:1 288:2 623:2 631:4 635:1 706:1 715:2 1102:2 1125:1 1221:1 1230:2 1254:1 1302:1 1319:2 1338:2 1340:1 1361:2 1368:4 1370:1 1398:6
-1 175:1 241:1 288:1 623:1 631:1 635:1 706:1 715:1 1102:1 1125:1 1221:1 1230:1 1254:1 1302:1 1319:1 1338:1 1340:1 1361:1 1368:1 1370:1 1398:5
-1 175:1 241:1 288:1 623:1 631:1 635:1 706:1 715:1 829:1 864:1 1102:1 1221:1 1230:1 1254:1 1302:1 1314:1 1319:1 1338:1 1342:1 1361:1 1368:1 1370:1 1398:2
-1 528:1 631:1 829:1 1289:1 1314:1 1368:1 1398:2
-1 1398:2
-1 373:1 415:1 430:1 452:1 503:1 528:1 852:1 917:1 923:1 988:1 994:1 1031:1 1035:1 1068:1 1084:1 1088:1 1098:1 1101:1 1133:1 1144:1 1162:1 1222:1 1223:1 1232:1 1250:1 1257:1 1273:1 1284:1 1289:1 1303:1 1332:1 1344:1 1348:1 1357:1 1398:2 1400:2
-1 373:1 415:1 430:1 452:1 503:1 528:1 645:1 852:1 923:1 988:1 994:1 1031:1 1068:1 1084:1 1098:1 1101:1 1144:1 1222:1 1223:1 1232:1 1250:1 1257:1 1273:1 1284:1 1289:1 1332:1 1348:1 1398:3
-1 145:1 175:1 241:1 288:1 336:1 398:1 453:1 528:1 623:1 631:1 710:1 715:1 758:1 769:1 829:1 832:1 1102:1 1125:1 1175:1 1226:1 1230:1 1237:1 1251:1 1254:1 1261:1 1289:1 1302:1 1314:1 1319:1 1320:1 1338:1 1340:1 1358:1 1361:1 1368:1 1374:1 1398:2
-1 623:3 631:4 635:1 715:1 1102:2 1230:1 1319:2 1361:3 1368:4 1370:1 1398:4
-1 711:1 1227:1 1398:1
-1 457:1 1252:1 1398:3
-1 175:1 241:1 288:1 623:1 631:1 635:1 1102:1 1125:1 1254:1 1302:1 1319:1 1338:1 1340:1 1361:1 1368:1 1370:1 1398:3
-1 241:1 288:1 623:1 631:1 715:1 829:1 1102:1 1230:1 1302:1 1314:1 1319:1 1338:1 1361:1 1368:1 1398:2
-1 146:1 288:1 415:1 503:1 528:1 631:1 729:1 852:1 1102:1 1134:1 1222:1 1236:1 1273:1 1289:1 1319:1 1332:1 1338:1 1368:1 1398:2
-1 623:2 631:2 635:1 715:1 1102:2 1230:1 1319:2 1361:2 1368:2 1370:1 1398:7
-1 262:1 623:1 631:1 1318:1 1361:1 1368:1 1398:2 1400:3
-1 175:1 241:1 288:1 631:1 635:1 715:1 829:1 1102:1 1230:1 1254:1 1302:1 1314:1 1319:1 1338:1 1368:1 1370:1 1398:2
-1 175:1 288:1 528:2 631:1 706:1 1102:1 1221:1 1254:1 1289:2 1319:1 1338:1 1368:1 1398:3
-1 528:1 631:1 1189:1 1289:1 1368:1 1398:3
-1 241:1 288:1 336:1 344:1 528:1 623:1 629:1 631:1 713:1 715:1 829:1 1102:1 1228:1 1230:1 1289:1 1302:1 1314:1 1319:1 1338:1 1358:1 1361:1 1363:1 1368:1 1398:2
-1 241:1 288:1 344:1 528:1 623:1 631:1 635:1 713:1 715:1 829:1 1099:1 1102:1 1228:1 1230:1 1289:1 1302:1 1314:1 1319:1 1338:1 1361:1 1363:1 1368:1 1370:1 1398:2
-1 146:1 274:1 336:1 415:1 503:1 528:1 729:1 789:1 793:1 852:1 940:1 949:1 988:1 1027:1 1031:1 1068:1 1084:1 1134:1 1222:1 1223:1 1236:1 1257:1 1273:1 1284:1 1289:1 1326:1 1332:1 1358:1 1391:1 1398:2
-1 129:1 146:1 241:1 288:1 336:1 395:1 415:1 437:1 503:1 528:1 539:1 623:1 631:1 729:1 832:1 852:1 1095:1 1102:1 1134:1 1222:1 1236:1 1241:1 1273:1 1289:1 1302:1 1307:1 1315:1 1319:1 1320:1 1332:1 1338:1 1358:1 1361:1 1368:1 1398:3
-1 146:1 148:1 274:1 312:1 336:1 373:1 382:1 395:1 415:1 461:1 503:1 528:1 640:1 699:1 729:1 789:1 852:1 938:1 940:1 949:1 988:1 1006:1 1031:1 1068:1 1084:1 1098:1 1134:1 1144:1 1162:1 1222:1 1223:1 1236:1 1238:1 1243:1 1257:1 1273:1 1284:1 1289:1 1326:1 1332:1 1348:1 1357:1 1358:1 1391:1 1396:1 1398:2 1400:191
-1 146:1 148:1 274:1 312:1 338:1 373:1 415:1 430:1 461:1 503:1 505:1 528:1 722:1 729:1 789:1 852:1 901:1 938:1 940:1 949:1 1006:1 1027:1 1031:1 1068:1 1084:1 1098:1 1133:1 1134:1 1144:1 1162:1 1222:1 1236:1 1238:1 1239:1 1243:1 1257:1 1273:1 1284:1 1289:1 1326:1 1332:1 1344:1 1348:1 1357:1 1391:1 1398:1
-1 146:1 247:1 274:1 336:1 373:1 415:1 503:1 528:1 699:1 729:1 793:1 852:1 938:1 940:1 949:1 964:1 1008:1 1027:1 1031:1 1068:1 1076:1 1084:1 1134:1 1144:1 1162:1 1222:1 1236:1 1257:1 1273:1 1284:1 1289:1 1310:1 1326:1 1332:1 1348:1 1357:1 1358:1 1391:1 1398:1
-1 447:1 518:1 531:1 623:1 631:1 918:1 1079:1 1179:1 1294:1 1361:1 1368:1 1398:2
-1 447:1 623:1 631:1 754:1 759:1 1361:1 1368:1 1398:2
-1 241:1 528:1 631:1 1289:1 1302:1 1368:1 1398:2
-1 175:1 239:1 241:1 437:1 528:1 539:1 582:1 607:1 623:1 631:1 694:1 710:1 715:1 758:1 770:1 864:1 1057:1 1102:1 1115:1 1220:1 1226:1 1230:1 1241:1 1254:1 1261:1 1274:1 1289:1 1302:1 1304:1 1307:1 1319:1 1331:1 1342:1 1361:1 1368:1 1398:3
-1 175:1 241:1 288:1 336:1 514:1 528:1 551:1 623:1 631:1 715:1 722:1 829:1 849:1 911:1 1080:1 1102:1 1144:1 1230:1 1239:1 1254:1 1279:1 1289:1 1295:1 1302:1 1314:1 1319:1 1322:1 1329:1 1338:1 1348:1 1358:1 1361:1 1362:1 1368:1 1398:1
-1 528:1 623:1 631:1 1289:1 1361:1 1368:1 1398:3
-1 175:1 241:1 288:1 528:1 623:1 631:1 715:1 1102:1 1230:1 1254:1 1289:1 1302:1 1319:1 1338:1 1361:1 1368:1 1398:1
-1 528:1 631:1 1289:1 1368:1 1398:3
-1 175:1 241:1 528:1 623:1 631:1 715:1 758:1 829:1 1102:1 1230:1 1254:1 1261:1 1289:1 1302:1 1314:1 1319:1 1361:1 1368:1 1398:2 1400:1
-1 623:2 631:2 635:1 715:1 1102:2 1230:1 1319:2 1361:2 1368:2 1370:1 1398:6
-1 1398:1
-1 175:1 241:1 288:1 336:1 405:1 514:1 528:1 623:1 631:1 635:1 706:1 715:1 804:1 829:1 832:1 1021:1 1102:1 1175:1 1221:1 1230:1 1254:1 1279:1 1285:1 1289:1 1302:1 1314:1 1319:1 1320:1 1338:1 1358:1 1361:1 1368:1 1370:1 1374:1 1398:1
-1 457:1 1252:1 1398:3
-1 268:1 288:1 395:1 528:1 623:1 631:1 644:1 715:1 1230:1 1289:1 1338:1 1361:1 1368:1 1398:1
-1 175:1 623:2 631:5 635:1 715:2 1102:2 1125:1 1230:2 1254:1 1319:2 1340:1 1361:2 1368:5 1370:1 1398:6
-1 130:1 207:1 579:1 616:1 623:1 631:1 785:1 856:1 1079:1 1102:1 1103:1 1294:1 1319:1 1359:1 1361:1 1368:1 1398:1
-1 146:1 247:1 256:1 272:1 288:1 295:1 318:1 336:1 373:1 395:1 415:1 437:1 461:1 503:1 539:1 623:1 630:1 631:1 632:1 649:1 729:1 829:1 852:1 938:1 940:1 1048:1 1080:1 1115:1 1128:1 1134:1 1190:1 1222:1 1236:1 1241:1 1273:1 1295:1 1307:1 1310:1 1314:1 1316:1 1325:1 1331:1 1332:1 1338:1 1341:1 1352:1 1358:1 1361:1 1368:1 1382:1 1398:2
-1 146:1 247:1 272:1 274:1 295:1 318:1 336:1 355:1 373:1 382:1 395:1 415:1 437:1 461:1 503:1 539:1 570:1 630:1 729:1 746:1 789:1 852:1 938:1 940:1 949:1 1031:1 1068:1 1084:1 1134:1 1144:1 1162:1 1222:1 1236:1 1241:1 1256:1 1257:1 1273:1 1284:1 1307:1 1310:1 1325:1 1326:1 1332:1 1339:1 1341:1 1348:1 1352:1 1357:1 1358:1 1373:1 1391:1 1396:1 1398:2
-1 146:1 177:1 241:1 247:1 257:1 274:1 336:1 395:1 415:1 503:1 528:1 539:1 729:1 807:1 852:1 1027:1 1068:1 1115:1 1134:1 1222:1 1236:1 1273:1 1284:1 1287:1 1289:1 1302:1 1307:1 1310:1 1326:1 1331:1 1332:1 1358:1 1398:1 1400:3
-1 241:1 288:1 453:1 528:1 623:1 631:1 715:1 829:1 1102:1 1230:1 1251:1 1289:1 1302:1 1314:1 1319:1 1338:1 1361:1 1368:1 1398:2
-1 484:1 528:1 631:1 1102:1 1262:1 1289:1 1319:1 1368:1 1398:2
-1 249:1 274:1 336:1 347:1 373:1 415:1 452:1 461:1 473:1 503:1 528:1 645:1 646:1 715:1 717:1 746:1 852:1 923:1 970:1 994:1 1068:1 1084:1 1088:1 1101:1 1162:1 1215:1 1222:1 1230:1 1232:1 1250:1 1256:1 1273:1 1284:1 1289:1 1303:1 1326:1 1332:1 1357:1 1358:1 1367:1 1398:1
-1 528:1 631:1 1189:1 1289:1 1368:1 1398:3
-1 175:1 241:1 288:1 623:1 631:1 635:1 1102:1 1254:1 1302:1 1319:1 1338:1 1361:1 1368:1 1370:1 1398:2
-1 551:1 631:1 1322:1 1368:1 1398:2
-1 288:1 495:1 551:1 623:1 631:1 713:1 829:1 853:1 1102:1 1228:1 1269:1 1314:1 1319:1 1322:1 1333:1 1338:1 1361:1 1368:1 1398:1
-1 551:1 623:1 631:1 829:1 1102:1 1314:1 1319:1 1322:1 1361:1 1368:1 1398:1
-1 175:1 241:1 288:1 623:1 631:1 635:1 715:1 829:1 1102:1 1230:1 1254:1 1302:1 1314:1 1319:1 1338:1 1361:1 1368:1 1370:1 1398:3
-1 288:1 528:1 631:1 1289:1 1338:1 1368:1 1398:2
-1 528:1 631:1 1289:1 1368:1 1398:3
-1 457:1 1252:1 1398:2
-1 146:1 288:1 395:1 415:1 437:1 503:1 528:1 539:1 631:1 729:1 807:1 829:1 852:1 1134:1 1222:1 1236:1 1241:1 1273:1 1287:1 1289:1 1307:1 1314:1 1332:1 1338:1 1368:1 1398:2
-1 241:1 528:1 623:1 631:1 715:1 1102:1 1125:1 1230:1 1289:1 1302:1 1319:1 1340:1 1361:1 1368:1 1398:1 1400:1
-1 347:1 415:1 461:1 503:1 528:1 645:1 852:1 917:1 923:1 988:1 994:1 1031:1 1084:1 1101:1 1144:1 1222:1 1223:1 1232:1 1257:1 1273:1 1289:1 1332:1 1348:1 1367:1 1398:2 1400:81
-1 146:1 247:1 274:1 336:1 373:1 415:1 503:1 528:1 631:1 640:1 646:1 729:1 789:1 852:1 958:1 970:1 1027:1 1031:1 1068:1 1134:1 1215:1 1222:1 1236:1 1257:1 1273:1 1284:1 1289:1 1310:1 1326:1 1332:1 1358:1 1368:1 1398:3
-1 175:1 241:2 288:2 489:1 551:1 623:2 631:4 635:1 636:1 706:1 715:2 758:1 853:1 1102:2 1125:1 1221:1 1230:2 1254:1 1261:1 1302:2 1319:2 1322:1 1333:1 1338:2 1340:1 1361:2 1368:4 1370:1 1372:1 1398:5
-1 241:1 288:1 437:1 528:1 539:1 623:1 631:1 839:1 1241:1 1289:1 1302:1 1307:1 1323:1 1338:1 1361:1 1368:1 1398:2
-1 175:1 241:1 288:1 631:1 635:1 829:1 1102:1 1254:1 1302:1 1314:1 1319:1 1338:1 1368:1 1370:1 1398:2
-1 241:1 288:1 623:1 631:1 715:1 829:1 1102:1 1230:1 1302:1 1314:1 1319:1 1338:1 1361:1 1368:1 1398:1
-1 528:2 551:1 631:1 1289:2 1322:1 1368:1 1398:3
-1 146:1 355:1 395:1 415:1 503:1 528:1 729:1 852:1 1039:1 1068:1 1084:1 1134:1 1222:1 1236:1 1273:1 1284:1 1289:1 1332:1 1373:1 1398:2
-1 146:1 373:1 395:1 415:1 503:1 528:1 729:1 852:1 988:1 1084:1 1134:1 1162:1 1222:1 1223:1 1236:1 1273:1 1289:1 1332:1 1357:1 1398:3
-1 137:1 146:1 247:1 274:1 336:1 355:1 373:1 382:1 395:1 415:1 498:1 503:1 718:1 729:1 730:1 789:1 811:1 832:1 852:1 940:1 949:1 983:1 988:1 1035:1 1068:1 1076:1 1084:1 1134:1 1222:1 1223:1 1236:1 1273:1 1284:1 1310:1 1320:1 1326:1 1332:1 1358:1 1373:1 1391:1 1396:1 1398:3 1400:1
-1 175:1 288:1 336:1 395:1 528:1 623:1 631:1 635:1 683:1 715:1 829:1 849:1 1102:1 1230:1 1254:1 1289:1 1314:1 1319:1 1329:1 1338:1 1358:1 1361:1 1368:1 1370:1 1398:2
-1 146:1 228:1 247:1 257:1 274:1 336:1 355:1 373:1 392:1 402:1 415:1 461:1 503:1 505:1 528:1 544:1 583:1 716:1 729:1 770:1 789:1 850:1 852:1 908:1 938:1 940:1 949:1 956:1 988:1 1031:1 1068:1 1076:1 1077:1 1084:1 1115:1 1134:1 1144:1 1162:1 1222:1 1223:1 1231:1 1236:1 1257:1 1273:1 1284:1 1286:1 1289:1 1310:1 1326:1 1331:1 1332:1 1348:1 1357:1 1358:1 1373:1 1391:1 1397:1 1398:1
-1 623:3 631:4 635:1 715:1 1102:2 1230:1 1319:2 1361:3 1368:4 1370:1 1398:5
-1 175:1 210:1 241:1 288:1 610:1 623:1 631:1 635:1 706:1 791:1 1089:1 1102:1 1105:1 1221:1 1254:1 1302:1 1319:1 1338:1 1361:1 1368:1 1370:1 1398:2
-1 623:3 631:4 635:1 715:1 1102:2 1230:1 1319:2 1361:3 1368:4 1370:1 1398:5
-1 623:2 631:2 635:1 715:1 1102:2 1230:1 1319:2 1361:2 1368:2 1370:1 1398:7
-1 175:1 241:1 288:1 528:1 623:1 631:1 635:1 706:1 844:1 1102:1 1120:1 1221:1 1254:1 1289:1 1302:1 1319:1 1338:1 1361:1 1368:1 1370:1 1398:2
-1 288:1 344:1 528:1 623:1 631:1 1102:1 1289:1 1319:1 1338:1 1361:1 1363:1 1368:1 1398:1
-1 175:1 241:1 288:1 551:1 623:1 631:1 635:1 706:1 715:1 1079:1 1102:1 1125:1 1221:1 1230:1 1254:1 1294:1 1302:1 1319:1 1322:1 1338:1 1340:1 1361:1 1368:1 1370:1 1398:5
-1 528:1 551:1 631:1 1175:1 1289:1 1322:1 1368:1 1374:1 1398:4
-1 528:2 631:1 1289:2 1368:1 1398:2
-1 528:1 631:1 814:1 1289:1 1368:1 1398:5
-1 175:1 241:1 288:1 528:1 623:3 631:5 635:1 706:1 715:3 911:1 1102:3 1125:1 1221:1 1230:3 1254:1 1289:1 1302:1 1319:3 1338:1 1340:1 1361:3 1362:1 1368:5 1370:1 1398:4 1400:3
-1 146:1 274:1 336:1 415:1 461:1 503:1 528:1 729:1 832:1 852:1 938:1 940:1 949:1 1068:1 1084:1 1134:1 1222:1 1236:1 1273:1 1284:1 1289:1 1320:1 1326:1 1332:1 1358:1 1391:1 1398:1
-1 457:1 1252:1 1398:2
-1 146:1 314:1 336:1 373:1 415:1 503:1 528:1 640:1 729:1 789:1 852:1 933:1 1084:1 1134:1 1222:1 1236:1 1273:1 1289:1 1332:1 1358:1 1398:2
-1 175:1 288:1 528:1 623:1 631:1 635:1 636:1 1102:1 1175:1 1254:1 1289:1 1319:1 1338:1 1361:1 1368:1 1370:1 1372:1 1374:1 1398:4
-1 175:1 288:1 528:1 623:1 631:1 635:1 636:1 1102:1 1175:1 1254:1 1289:1 1319:1 1338:1 1361:1 1368:1 1370:1 1372:1 1374:1 1398:4
-1 175:1 241:1 261:1 262:1 288:1 623:1 631:1 715:1 987:1 1102:1 1230:1 1254:1 1302:1 1318:1 1319:1 1338:1 1361:1 1368:1 1398:2 1400:4
-1 1398:2
-1 631:1 1368:1 1398:1
-1 528:2 551:1 631:1 1289:2 1322:1 1368:1 1398:3
-1 528:2 551:1 623:1 631:1 1289:2 1322:1 1361:1 1368:1 1398:3 1400:256
-1 528:1 936:1 1289:1 1398:2
-1 528:1 623:1 631:1 1102:1 1289:1 1319:1 1361:1 1368:1 1398:2
-1 528:2 623:1 631:1 1289:2 1361:1 1368:1 1398:3
-1 457:1 1252:1 1398:3
-1 457:1 1252:1 1398:3
-1 457:1 1252:1 1398:3
-1 175:1 241:1 288:1 623:1 631:1 635:1 1102:1 1125:1 1254:1 1302:1 1319:1 1338:1 1340:1 1361:1 1368:1 1370:1 1398:2
-1 457:1 1252:1 1398:2
-1 623:1 631:1 1361:1 1368:1 1398:3 1400:46
-1 175:1 241:1 288:1 336:1 421:1 528:1 623:1 631:1 635:1 653:1 668:1 725:1 758:1 782:1 1102:1 1175:1 1242:1 1254:1 1261:1 1271:1 1289:1 1302:1 1319:1 1338:1 1358:1 1361:1 1368:1 1370:1 1374:1 1398:1
-1 623:2 631:2 635:1 715:1 1102:2 1230:1 1319:2 1361:2 1368:2 1370:1 1398:7
-1 457:1 1252:1 1398:3
-1 343:1 528:1 623:1 631:1 885:1 1102:1 1172:1 1289:1 1319:1 1361:1 1368:1 1398:2
-1 175:1 259:1 271:1 528:1 623:1 631:1 1041:1 1102:1 1254:1 1289:1 1317:1 1319:1 1324:1 1361:1 1368:1 1398:2
-1 146:1 148:1 274:1 395:1 415:1 461:1 503:1 528:1 570:1 715:1 729:1 852:1 938:1 949:1 988:1 1006:1 1102:1 1134:1 1162:1 1174:1 1222:1 1223:1 1230:1 1236:1 1238:1 1243:1 1273:1 1289:1 1319:1 1326:1 1332:1 1339:1 1357:1 1391:1 1398:1
-1 528:1 631:1 1102:1 1289:1 1319:1 1368:1 1398:6
-1 175:1 241:1 288:1 623:1 631:1 635:1 706:1 715:1 1023:1 1102:1 1125:1 1221:1 1230:1 1254:1 1302:1 1319:1 1338:1 1340:1 1361:1 1368:1 1370:1 1398:5
-1 711:1 1227:1 1398:1
-1 631:1 1102:1 1319:1 1368:1 1398:3
-1 175:1 241:1 288:1 623:1 631:1 635:1 1102:1 1125:1 1254:1 1302:1 1319:1 1338:1 1340:1 1361:1 1368:1 1370:1 1398:2
-1 262:1 631:1 1318:1 1368:1 1398:2
-1 623:2 631:2 635:1 715:1 1102:2 1230:1 1319:2 1361:2 1368:2 1370:1 1398:7
-1 175:1 241:1 256:1 288:1 558:1 623:1 631:1 635:1 636:1 715:1 758:1 761:1 829:1 864:1 1057:1 1102:1 1175:1 1230:1 1254:1 1261:1 1264:1 1274:1 1302:1 1314:1 1316:1 1319:1 1330:1 1338:1 1342:1 1361:1 1368:1 1370:1 1372:1 1374:1 1398:3
-1 711:1 1227:1 1398:1
-1 175:1 241:1 288:1 623:1 631:1 635:1 1102:1 1125:1 1254:1 1302:1 1319:1 1338:1 1340:1 1361:1 1368:1 1370:1 1398:2
-1 623:1 631:1 1102:1 1319:1 1361:1 1368:1 1398:1
-1 457:1 1252:1 1398:4
-1 711:1 1227:1 1398:1
-1 623:2 631:2 635:1 715:1 1102:2 1230:1 1319:2 1361:2 1368:2 1370:1 1398:7
-1 175:1 241:1 288:1 623:1 631:1 635:1 1102:1 1125:1 1254:1 1302:1 1319:1 1338:1 1340:1 1361:1 1368:1 1370:1 1398:3
