1 189:1 500:1 1181:1 1227:1 1252:1 1260:1 1289:2
1 189:1 439:1 500:1 1227:1 1260:1 1273:1 1289:3
1 189:1 439:1 1227:1 1273:1 1289:2
1 189:1 500:1 627:1 1227:1 1236:1 1260:1 1289:2
1 189:1 500:1 517:1 1181:1 1227:1 1252:1 1260:1 1279:1 1289:2
1 189:1 500:1 1227:1 1260:1 1289:3
1 189:1 500:1 1181:1 1227:1 1252:1 1260:1 1289:2
1 189:1 500:1 1227:1 1260:1 1289:2
1 189:1 332:1 439:1 500:1 580:1 627:1 963:1 1181:1 1224:1 1227:1 1236:1 1248:1 1252:1 1253:1 1260:1 1273:1 1289:4
1 189:1 439:1 500:1 576:1 627:1 963:1 1227:1 1236:1 1248:1 1250:1 1260:1 1273:1 1289:2
1 189:1 439:1 1227:1 1273:1 1289:2
1 189:1 500:1 517:1 1227:1 1260:1 1279:1 1289:2
1 189:1 247:1 439:1 461:1 500:1 627:1 963:1 1181:1 1214:1 1227:1 1236:1 1248:1 1252:1 1260:1 1273:1 1283:1 1289:3
1 189:1 439:1 500:1 576:1 743:1 1181:1 1227:1 1231:1 1250:1 1252:1 1260:1 1273:1 1289:2
1 189:1 500:1 1181:1 1227:1 1252:1 1260:1 1289:2
1 189:1 439:1 500:1 1227:1 1260:1 1273:1 1289:2
1 659:1 1280:1 1289:3
1 189:1 236:1 1227:1 1272:1 1289:3
1 189:1 439:1 500:1 1227:1 1260:1 1273:1 1289:3
1 162:1 189:1 247:1 1227:1 1271:1 1283:1 1289:2
1 189:1 1227:1 1289:2
1 189:1 439:1 500:1 517:1 743:1 963:1 1181:1 1227:1 1231:1 1248:1 1252:1 1260:1 1273:1 1279:1 1289:3
1 189:1 197:1 236:1 247:1 332:1 439:1 500:1 576:1 580:1 627:1 672:1 856:1 963:1 1181:1 1219:1 1224:1 1227:1 1235:1 1236:1 1248:1 1250:1 1252:1 1253:1 1260:1 1272:1 1273:1 1277:1 1283:1 1289:5 1291:2
1 189:1 439:1 500:1 1227:1 1260:1 1273:1 1289:3
1 189:1 236:1 247:1 439:1 500:1 963:1 1227:1 1248:1 1260:1 1272:1 1273:1 1283:1 1289:4
1 189:4 247:3 332:1 439:1 500:2 580:1 963:1 1181:2 1224:1 1227:4 1248:1 1252:2 1253:1 1260:2 1273:1 1283:3 1289:7
1 189:1 500:1 1227:1 1260:1 1289:2
1 659:1 1280:1 1289:5
1 189:1 500:1 1227:1 1260:1 1289:2
1 189:1 332:1 439:1 500:1 627:1 963:1 1181:1 1224:1 1227:1 1236:1 1248:1 1252:1 1260:1 1273:1 1289:3
1 1289:2
1 189:1 500:1 1227:1 1260:1 1289:2
1 189:1 500:1 517:1 1181:1 1227:1 1252:1 1260:1 1279:1 1289:2
1 189:1 236:1 247:1 439:1 500:1 580:1 963:1 1227:1 1248:1 1253:1 1260:1 1272:1 1273:1 1283:1 1289:4
1 189:1 247:1 293:1 332:1 500:1 580:1 1181:1 1224:1 1227:1 1252:1 1253:1 1260:1 1261:1 1283:1 1289:5 1291:3
1 189:1 500:1 1227:1 1260:1 1289:2
1 189:1 236:1 1227:1 1272:1 1289:6 1291:1
1 189:1 500:1 963:1 1227:1 1248:1 1260:1 1289:3
1 189:1 1227:1 1289:3
1 189:1 439:1 500:1 1181:1 1227:1 1252:1 1260:1 1273:1 1289:3
1 659:1 1280:1 1289:4
1 189:1 500:1 963:1 1227:1 1248:1 1260:1 1289:2 1291:1
1 189:1 236:1 247:1 332:1 439:1 500:1 627:1 963:1 1224:1 1227:1 1236:1 1248:1 1260:1 1272:1 1273:1 1283:1 1289:2
1 189:1 500:1 1227:1 1260:1 1289:2
1 189:1 247:1 293:1 332:1 500:1 580:1 1181:1 1224:1 1227:1 1252:1 1253:1 1260:1 1261:1 1283:1 1289:5 1291:3
1 189:1 439:1 500:1 1227:1 1260:1 1273:1 1289:1
1 189:1 1227:1 1289:3
1 189:1 439:1 500:1 576:1 580:1 627:1 672:1 675:1 734:1 880:1 963:1 1181:1 1218:1 1219:1 1225:1 1227:1 1228:1 1236:1 1248:1 1250:1 1252:1 1253:1 1260:1 1273:1 1289:4
1 189:1 1227:1 1289:2
1 189:1 439:1 500:1 1227:1 1260:1 1273:1 1289:2
1 189:1 439:1 500:1 1181:1 1227:1 1252:1 1260:1 1273:1 1289:2
1 189:1 1181:1 1227:1 1252:1 1289:2
1 189:1 439:1 1227:1 1273:1 1289:2
1
1 189:1 500:1 1227:1 1260:1 1289:2
1 189:1 439:1 500:1 576:1 580:1 627:1 672:1 675:1 734:1 880:1 963:1 1181:1 1218:1 1219:1 1225:1 1227:1 1228:1 1236:1 1248:1 1250:1 1252:1 1253:1 1260:1 1273:1 1289:4
1 189:1 439:1 500:1 1181:1 1227:1 1252:1 1260:1 1273:1 1289:2
1 189:1 1227:1 1289:2
1 189:1 461:1 1214:1 1227:1 1289:3 1291:1
1 189:1 439:1 517:1 1227:1 1273:1 1279:1 1289:2
1 189:1 439:1 500:1 1227:1 1260:1 1273:1 1289:2
1 189:1 500:1 517:1 963:1 1181:1 1227:1 1248:1 1252:1 1260:1 1279:1 1289:2
1 189:1 500:1 517:1 1227:1 1260:1 1279:1 1289:2
1 189:1 439:1 500:1 1227:1 1260:1 1273:1 1289:2
1 659:1 1280:1 1289:4
1 189:1 293:1 500:1 1181:1 1227:1 1252:1 1260:1 1261:1 1289:2
1 189:1 439:1 1227:1 1273:1 1289:2
1 189:1 1227:1 1289:2
1 189:1 439:1 500:1 1227:1 1260:1 1273:1 1289:2
1 1289:2
1 189:1 439:1 500:1 576:1 743:1 1181:1 1227:1 1231:1 1250:1 1252:1 1260:1 1273:1 1289:2
1 181:1 189:1 340:1 627:1 657:1 758:1 765:1 820:1 829:1 893:1 1051:1 1085:1 1216:1 1227:1 1229:1 1234:1 1236:1 1238:1 1239:1 1245:1 1247:1 1249:1 1254:1 1278:1 1289:2
1 189:1 439:1 500:1 1227:1 1260:1 1273:1 1289:2
1 189:1 500:1 1227:1 1260:1 1289:3
1 189:1 236:1 261:1 332:1 439:1 500:1 580:1 1181:1 1220:1 1224:1 1227:1 1252:1 1253:1 1260:1 1272:1 1273:1 1289:4
1 189:1 500:1 1181:1 1227:1 1252:1 1260:1 1289:2
1 189:1 500:1 1227:1 1260:1 1289:3
1 189:1 439:1 500:1 1227:1 1260:1 1273:1 1289:2
1 162:1 189:1 247:1 332:1 389:1 439:1 500:1 548:1 578:1 580:1 627:1 672:1 734:1 837:1 846:1 963:1 1181:1 1198:1 1218:1 1219:1 1223:1 1224:1 1227:1 1236:1 1248:1 1251:1 1252:1 1253:1 1258:1 1260:1 1267:1 1271:1 1273:1 1274:1 1283:1 1285:1 1289:2
1 189:1 500:1 627:1 1181:1 1227:1 1236:1 1252:1 1260:1 1289:2
1 659:1 1280:1 1289:4
1 189:1 439:1 500:1 1181:1 1227:1 1252:1 1260:1 1273:1 1289:2
1 189:1 439:1 500:1 1227:1 1260:1 1273:1 1289:2
1 189:1 1227:1 1289:3
1 162:1 189:1 247:1 1227:1 1271:1 1283:1 1289:2
1 659:1 1280:1 1289:3
1 189:1 439:1 500:1 1227:1 1260:1 1273:1 1289:2
1 189:1 500:1 517:1 963:1 1181:1 1227:1 1248:1 1252:1 1260:1 1279:1 1289:2
1 189:1 500:1 1181:1 1227:1 1252:1 1260:1 1289:2
1 189:1 500:1 963:1 1227:1 1248:1 1260:1 1289:3
1 189:1 439:1 500:1 1227:1 1260:1 1273:1 1289:3
1 189:1 236:1 1227:1 1272:1 1289:6
1 189:1 500:1 1181:1 1227:1 1252:1 1260:1 1289:2
1 189:1 500:1 1227:1 1260:1 1289:2
1 189:1 439:1 500:1 1227:1 1260:1 1273:1 1289:2
1 189:1 439:1 500:1 1227:1 1260:1 1273:1 1289:1
1 189:1 963:1 1227:1 1248:1 1289:1
1 189:1 1227:1 1289:2
1 189:1 439:1 1227:1 1273:1 1289:2
1 1289:3
1 150:1 189:1 1227:1 1262:1 1289:4
1 189:1 236:1 627:1 734:1 880:1 1218:1 1225:1 1227:1 1236:1 1272:1 1289:5
1 189:1 500:1 1181:1 1227:1 1252:1 1260:1 1289:2
1 189:1 236:1 439:1 500:1 963:1 1227:1 1248:1 1260:1 1272:1 1273:1 1289:4
1 189:1 500:1 1181:1 1227:1 1252:1 1260:1 1289:2
1 189:1 439:1 500:1 517:1 743:1 1227:1 1231:1 1260:1 1273:1 1279:1 1289:2
1 189:1 439:1 500:1 576:1 580:1 627:1 672:1 675:1 734:1 880:1 963:1 1181:1 1218:1 1219:1 1225:1 1227:1 1228:1 1236:1 1248:1 1250:1 1252:1 1253:1 1260:1 1273:1 1289:4
1 189:1 439:1 1227:1 1273:1 1289:2
1 150:1 189:1 247:1 339:1 432:1 500:1 517:1 548:1 555:1 576:1 627:1 963:1 1181:1 1198:1 1223:1 1227:1 1230:1 1236:1 1237:1 1248:1 1250:1 1252:1 1260:1 1262:1 1266:1 1274:1 1279:1 1283:1 1289:3 1291:1
1 189:1 439:1 500:1 1181:1 1227:1 1252:1 1260:1 1273:1 1289:2
1 189:1 236:1 1227:1 1272:1 1289:5 1291:1
1 189:1 627:1 1181:1 1227:1 1236:1 1252:1 1289:3
1 189:1 247:1 293:1 332:1 500:1 580:1 1181:1 1224:1 1227:1 1252:1 1253:1 1260:1 1261:1 1283:1 1289:5 1291:3
1 659:1 1280:1 1289:4
1 189:1 1227:1 1289:3
1 659:1 1280:1 1289:5
1 189:3 332:1 439:1 500:2 576:1 627:1 743:1 963:1 1224:1 1227:3 1231:1 1236:1 1248:1 1250:1 1260:2 1273:1 1289:6
1 189:1 439:1 500:1 1181:1 1227:1 1252:1 1260:1 1273:1 1289:3
1 189:1 500:1 1227:1 1260:1 1289:2
1 189:1 439:1 500:1 1227:1 1260:1 1273:1 1289:2
1 189:1 500:1 1227:1 1260:1 1289:2
1 162:1 189:1 332:1 672:1 837:1 987:1 1219:1 1224:1 1227:1 1258:1 1270:1 1271:1 1289:5 1291:1
1 189:1 439:1 1227:1 1273:1 1289:2
1 189:1 1227:1 1289:6
1 189:1 500:1 963:1 1181:1 1227:1 1248:1 1252:1 1260:1 1289:2
1 189:1 1227:1 1289:3
1 189:1 1227:1 1289:3
1 189:1 236:1 247:1 963:1 1227:1 1248:1 1272:1 1283:1 1289:3
1 189:1 500:1 1181:1 1227:1 1252:1 1260:1 1289:2
1 189:1 439:1 500:1 1227:1 1260:1 1273:1 1289:3
1 189:1 236:1 1227:1 1272:1 1289:5 1291:1
1 189:1 439:1 500:1 548:1 576:1 627:1 963:1 1181:1 1223:1 1227:1 1236:1 1248:1 1250:1 1252:1 1260:1 1273:1 1289:5
1 189:1 439:1 627:1 1227:1 1236:1 1273:1 1289:2
1 189:1 439:1 500:1 548:1 576:1 627:1 963:1 1181:1 1223:1 1227:1 1236:1 1248:1 1250:1 1252:1 1260:1 1273:1 1289:2
1 189:1 439:1 500:1 1181:1 1227:1 1252:1 1260:1 1273:1 1289:3
1 659:1 1280:1 1289:3
1 189:1 439:1 500:1 1181:1 1227:1 1252:1 1260:1 1273:1 1289:3
1 189:1 500:1 1227:1 1260:1 1289:2
1 189:1 439:1 500:1 517:1 743:1 963:1 1181:1 1227:1 1231:1 1248:1 1252:1 1260:1 1273:1 1279:1 1289:3
1 189:1 500:1 1181:1 1227:1 1252:1 1260:1 1289:3
1 189:1 500:1 517:1 963:1 1181:1 1227:1 1248:1 1252:1 1260:1 1279:1 1289:2
1 189:1 500:1 1181:1 1227:1 1252:1 1260:1 1289:2
1 189:1 247:1 439:1 500:1 580:1 963:1 1181:1 1227:1 1248:1 1252:1 1253:1 1260:1 1273:1 1283:1 1289:2
1 189:1 500:1 963:1 1227:1 1248:1 1260:1 1289:5
1 189:1 439:1 500:1 1227:1 1260:1 1273:1 1289:2
1 189:1 236:1 261:1 332:1 439:1 500:1 580:1 1181:1 1220:1 1224:1 1227:1 1252:1 1253:1 1260:1 1272:1 1273:1 1289:4
1 189:1 500:1 517:1 1181:1 1227:1 1252:1 1260:1 1279:1 1289:2
1 189:1 247:1 439:1 500:1 548:1 576:1 580:1 627:1 837:1 963:1 987:1 1181:1 1223:1 1227:1 1236:1 1248:1 1250:1 1252:1 1253:1 1258:1 1260:1 1270:1 1273:1 1283:1 1289:2 1291:158
1 659:1 1280:1 1289:4
1 189:1 500:1 1181:1 1227:1 1252:1 1260:1 1289:2
1 189:1 500:1 1181:1 1227:1 1252:1 1260:1 1289:2
1 189:1 236:1 1227:1 1272:1 1289:3
1 189:1 236:1 261:1 332:1 439:1 500:1 580:1 1181:1 1220:1 1224:1 1227:1 1252:1 1253:1 1260:1 1272:1 1273:1 1289:4
1 659:1 1280:1 1289:4
1 181:1 189:1 247:1 500:1 601:1 627:1 657:1 758:1 765:1 829:1 893:1 950:1 963:1 1051:1 1085:1 1181:1 1183:1 1216:1 1226:1 1227:1 1229:1 1236:1 1239:1 1245:1 1247:1 1248:1 1249:1 1252:1 1254:1 1255:1 1260:1 1278:1 1283:1 1286:1 1289:2 1291:5
1 659:1 1280:1 1289:6
1 189:1 332:1 439:1 500:1 627:1 963:1 1181:1 1224:1 1227:1 1236:1 1248:1 1252:1 1260:1 1273:1 1289:2
1 189:1 439:1 500:1 1227:1 1260:1 1273:1 1289:3
1 189:1 500:1 1181:1 1227:1 1252:1 1260:1 1289:2
1 189:1 439:1 500:1 1227:1 1260:1 1273:1 1289:3
1 659:1 1280:1 1289:4
1 189:1 439:1 500:1 1181:1 1227:1 1252:1 1260:1 1273:1 1289:3
1 189:1 439:1 1181:1 1227:1 1252:1 1273:1 1289:2
1 189:1 439:1 500:1 1227:1 1260:1 1273:1 1289:2
1 189:1 439:1 500:1 1181:1 1227:1 1252:1 1260:1 1273:1 1289:3
1 189:1 439:1 500:1 1181:1 1227:1 1252:1 1260:1 1273:1 1289:2
1 189:1 439:1 500:1 1227:1 1260:1 1273:1 1289:2
1 189:1 500:1 1227:1 1260:1 1289:2
1 189:1 500:1 743:1 1227:1 1231:1 1260:1 1289:2
1 189:1 236:1 1227:1 1272:1 1289:3
1 189:1 500:1 837:1 1181:1 1227:1 1252:1 1258:1 1260:1 1289:1
1 189:1 332:1 439:1 500:1 627:1 963:1 1181:1 1224:1 1227:1 1236:1 1248:1 1252:1 1260:1 1273:1 1289:3
1 189:1 439:1 500:1 1181:1 1227:1 1252:1 1260:1 1273:1 1289:3
1 189:1 500:1 627:1 1227:1 1236:1 1260:1 1289:2
1 150:1 189:1 326:1 500:1 576:1 627:1 837:1 846:1 880:1 963:1 1120:1 1181:1 1198:1 1215:1 1225:1 1227:1 1236:1 1248:1 1250:1 1252:1 1258:1 1260:1 1262:1 1264:1 1267:1 1274:1 1289:2 1291:8637
1 189:1 500:1 517:1 1181:1 1227:1 1252:1 1260:1 1279:1 1289:2
1 189:1 247:1 439:1 500:1 548:1 576:1 578:1 580:1 627:1 837:1 987:1 1181:1 1223:1 1227:1 1236:1 1250:1 1251:1 1252:1 1253:1 1258:1 1260:1 1270:1 1273:1 1283:1 1289:3 1291:158
1 189:1 236:1 247:1 439:1 500:1 580:1 963:1 1227:1 1248:1 1253:1 1260:1 1272:1 1273:1 1283:1 1289:2
1 659:1 1280:1 1289:4
1 189:1 500:1 517:1 1181:1 1227:1 1252:1 1260:1 1279:1 1289:2
1 189:1 247:1 439:1 461:1 500:1 627:1 963:1 1181:1 1214:1 1227:1 1236:1 1248:1 1252:1 1260:1 1273:1 1283:1 1289:3
1 189:1 500:1 1227:1 1260:1 1289:2
1 157:1 162:1 189:1 247:1 332:1 439:1 500:1 548:1 576:1 627:1 743:1 963:1 1181:1 1223:1 1224:1 1227:1 1231:1 1236:1 1248:1 1250:1 1252:1 1260:1 1268:1 1271:1 1273:1 1283:1 1289:3
1 189:1 1227:1 1289:2
1 189:1 500:1 517:1 963:1 1181:1 1227:1 1248:1 1252:1 1260:1 1279:1 1289:2
1 189:1 500:1 1181:1 1227:1 1252:1 1260:1 1289:2
1 189:1 500:1 1227:1 1260:1 1289:2
1 189:1 439:1 1227:1 1273:1 1289:2
1 189:1 332:1 439:1 500:1 580:1 627:1 963:1 1181:1 1224:1 1227:1 1236:1 1248:1 1252:1 1253:1 1260:1 1273:1 1289:4
1 150:1 189:1 247:1 339:1 432:1 500:1 517:1 548:1 555:1 576:1 627:1 963:1 1181:1 1198:1 1223:1 1227:1 1230:1 1236:1 1237:1 1248:1 1250:1 1252:1 1260:1 1262:1 1266:1 1274:1 1279:1 1283:1 1289:3 1291:1
1 189:1 1227:1 1289:4 1291:5
1 189:1 1227:1 1289:3
1 189:1 627:1 1181:1 1227:1 1236:1 1252:1 1289:3
1 189:1 500:1 1227:1 1260:1 1289:2
1 189:1 1227:1 1289:3
1 659:1 1280:1 1289:4
1 659:1 1280:1 1289:4
1 189:1 439:1 500:1 1227:1 1260:1 1273:1 1289:3
1 189:1 236:2 439:1 461:1 548:1 1181:1 1214:1 1223:1 1227:1 1252:1 1272:2 1273:1 1289:7
1 189:1 439:1 500:1 1181:1 1227:1 1252:1 1260:1 1273:1 1289:3
1 189:1 500:1 1181:1 1227:1 1252:1 1260:1 1289:2
1 189:1 500:1 1181:1 1227:1 1252:1 1260:1 1289:2
1 659:1 1280:1 1289:3
1 189:1 439:1 500:1 1227:1 1260:1 1273:1 1289:2
1 189:1 236:2 1227:1 1272:2 1289:7 1291:1
1 189:1 439:1 500:1 1181:1 1227:1 1252:1 1260:1 1273:1 1289:2
1 189:1 500:1 1181:1 1227:1 1252:1 1260:1 1289:3
1 189:1 1227:1 1289:3
1 189:1 439:1 500:1 963:1 1181:1 1227:1 1248:1 1252:1 1260:1 1273:1 1289:3
1 189:1 439:1 500:1 1181:1 1227:1 1252:1 1260:1 1273:1 1289:2
1 157:1 162:1 189:1 247:1 332:1 439:1 500:1 548:1 576:1 627:1 743:1 963:1 1181:1 1223:1 1224:1 1227:1 1231:1 1236:1 1248:1 1250:1 1252:1 1260:1 1268:1 1271:1 1273:1 1283:1 1289:3
1 189:1 236:1 627:1 734:1 880:1 1218:1 1225:1 1227:1 1236:1 1272:1 1289:4
1 189:1 247:1 332:1 500:1 627:1 672:1 963:1 1219:1 1224:1 1227:1 1236:1 1248:1 1260:1 1283:1 1289:2
1 189:1 439:1 500:1 517:1 743:1 963:1 1181:1 1227:1 1231:1 1248:1 1252:1 1260:1 1273:1 1279:1 1289:2
1 189:1 500:1 627:1 963:1 1181:1 1227:1 1236:1 1248:1 1252:1 1260:1 1289:2
1 189:2 963:1 1227:2 1248:1 1289:11
1 189:1 439:1 1181:1 1227:1 1252:1 1273:1 1289:3
1 189:1 332:1 439:1 500:1 627:1 963:1 1181:1 1224:1 1227:1 1236:1 1248:1 1252:1 1260:1 1273:1 1289:3
1 189:1 439:1 500:1 576:1 743:1 1181:1 1227:1 1231:1 1250:1 1252:1 1260:1 1273:1 1289:2
1 189:1 1227:1 1289:7
1 189:1 439:1 500:1 517:1 627:1 743:1 1181:1 1227:1 1231:1 1236:1 1252:1 1260:1 1273:1 1279:1 1289:2
1 189:1 439:1 500:1 1227:1 1260:1 1273:1 1289:1
1 189:1 439:1 500:1 1227:1 1260:1 1273:1 1289:2
1 659:1 1280:1 1289:3
1 189:1 439:1 500:1 963:1 1181:1 1227:1 1248:1 1252:1 1260:1 1273:1 1289:3
1 189:1 439:1 500:1 627:1 1181:1 1227:1 1236:1 1252:1 1260:1 1273:1 1289:2
1 189:1 247:1 326:1 432:1 500:1 837:1 880:1 963:1 1181:1 1215:1 1225:1 1227:1 1248:1 1252:1 1258:1 1260:1 1266:1 1283:1 1289:3
1 189:1 1227:1 1289:2
1 659:1 1280:1 1289:4
1 659:1 1280:1 1289:5
1 189:1 439:1 500:1 1227:1 1260:1 1273:1 1289:2
1 189:4 247:3 332:1 439:1 500:2 580:1 627:1 963:1 1181:2 1224:1 1227:4 1236:1 1248:1 1252:2 1253:1 1260:2 1273:1 1283:3 1289:6
1 189:1 247:1 439:1 500:1 580:1 963:1 1227:1 1248:1 1253:1 1260:1 1273:1 1283:1 1289:3
1 189:1 332:1 439:1 500:1 580:1 627:1 963:1 1181:1 1224:1 1227:1 1236:1 1248:1 1252:1 1253:1 1260:1 1273:1 1289:4
1 189:1 439:1 500:1 1227:1 1260:1 1273:1 1289:3
1 189:1 439:1 500:1 1181:1 1227:1 1252:1 1260:1 1273:1 1289:3
1 189:1 500:1 1181:1 1227:1 1252:1 1260:1 1289:2
1 189:1 439:1 963:1 1181:1 1227:1 1248:1 1252:1 1273:1 1289:2
1 189:1 332:1 439:1 500:1 580:1 627:1 963:1 1181:1 1224:1 1227:1 1236:1 1248:1 1252:1 1253:1 1260:1 1273:1 1289:3
1 189:1 236:1 261:1 332:1 439:1 500:1 580:1 1181:1 1220:1 1224:1 1227:1 1252:1 1253:1 1260:1 1272:1 1273:1 1289:4
1 189:1 332:1 439:1 500:1 627:1 963:1 1181:1 1224:1 1227:1 1236:1 1248:1 1252:1 1260:1 1273:1 1289:4
1 659:1 1280:1 1289:4
1 189:1 439:1 500:1 963:1 1181:1 1227:1 1248:1 1252:1 1260:1 1273:1 1289:3
1 189:1 236:1 1227:1 1272:1 1289:3
1 189:1 332:1 439:1 500:1 627:1 963:1 1181:1 1224:1 1227:1 1236:1 1248:1 1252:1 1260:1 1273:1 1289:2
1 189:1 439:1 500:1 1227:1 1260:1 1273:1 1289:2
1 659:1 1280:1 1289:4
1 189:1 439:1 500:1 1227:1 1260:1 1273:1 1289:3
1 189:1 627:1 1181:1 1227:1 1236:1 1252:1 1289:3
1 189:1 439:1 1227:1 1273:1 1289:2
1 659:1 1280:1 1289:3
1 189:1 439:1 500:1 1181:1 1227:1 1252:1 1260:1 1273:1 1289:2
1 189:1 439:1 500:1 517:1 627:1 743:1 1181:1 1227:1 1231:1 1236:1 1252:1 1260:1 1273:1 1279:1 1289:2
1 659:1 1280:1 1289:5
1 189:1 439:1 500:1 1181:1 1227:1 1252:1 1260:1 1273:1 1289:1
1 189:1 247:1 332:1 439:1 500:1 580:1 627:1 675:1 743:1 963:1 1181:1 1224:1 1227:1 1228:1 1231:1 1236:1 1248:1 1252:1 1253:1 1260:1 1273:1 1283:1 1289:4
1 189:1 439:1 500:1 1181:1 1227:1 1252:1 1260:1 1273:1 1289:2
1 659:1 1280:1 1289:4
1 189:1 500:1 517:1 1181:1 1227:1 1252:1 1260:1 1279:1 1289:2
1 189:1 1227:1 1289:2
1 189:1 236:1 247:1 439:1 500:1 580:1 963:1 1227:1 1248:1 1253:1 1260:1 1272:1 1273:1 1283:1 1289:5
1 189:1 500:1 1227:1 1260:1 1289:2
1 189:1 439:1 500:1 517:1 627:1 743:1 1181:1 1227:1 1231:1 1236:1 1252:1 1260:1 1273:1 1279:1 1289:2
1 189:1 332:1 439:1 500:1 627:1 963:1 1181:1 1224:1 1227:1 1236:1 1248:1 1252:1 1260:1 1273:1 1289:2
1 189:1 500:1 1181:1 1227:1 1252:1 1260:1 1289:2 1291:1
1 189:1 1227:1 1289:7
1 189:1 1227:1 1289:2
1 189:1 1227:1 1289:2
1 189:1 439:1 1181:1 1227:1 1252:1 1273:1 1289:2
1 189:1 439:1 500:1 1227:1 1260:1 1273:1 1289:2
1 189:1 500:1 1181:1 1227:1 1252:1 1260:1 1289:2
1 189:1 439:1 500:1 1227:1 1260:1 1273:1 1289:3
1 189:1 439:1 500:1 517:1 1227:1 1260:1 1273:1 1279:1 1289:2
1 659:1 1280:1 1289:4
1 189:1 439:1 500:1 1227:1 1260:1 1273:1 1289:2
1 189:1 963:1 1227:1 1248:1 1289:1
1 189:1 500:1 627:1 963:1 1181:1 1227:1 1236:1 1248:1 1252:1 1260:1 1289:2
1 189:1 500:1 1181:1 1227:1 1252:1 1260:1 1289:2
1 659:1 1280:1 1289:2
1 189:1 500:1 1181:1 1227:1 1252:1 1260:1 1289:2
1 189:1 236:1 247:1 439:1 500:1 580:1 963:1 1227:1 1248:1 1253:1 1260:1 1272:1 1273:1 1283:1 1289:2
1 189:1 1227:1 1289:4
1 189:1 500:1 1181:1 1227:1 1252:1 1260:1 1289:2
1 189:1 439:1 500:1 1181:1 1227:1 1252:1 1260:1 1273:1 1289:3
1 189:1 439:1 500:1 1181:1 1227:1 1252:1 1260:1 1273:1 1289:3
1 189:1 332:1 439:1 500:1 1181:1 1224:1 1227:1 1252:1 1260:1 1273:1 1289:2
1 189:1 247:1 332:1 439:1 500:1 548:1 580:1 627:1 672:1 846:1 963:1 1115:1 1181:1 1219:1 1223:1 1224:1 1227:1 1236:1 1248:1 1252:1 1253:1 1256:1 1260:1 1267:1 1273:1 1283:1 1289:2
1 189:1 439:1 500:1 963:1 1181:1 1227:1 1248:1 1252:1 1260:1 1273:1 1289:2
1 189:1 1227:1 1289:3
1 659:1 1280:1 1289:3
1 189:1 439:1 500:1 1181:1 1227:1 1252:1 1260:1 1273:1 1289:2
1 157:1 162:1 189:1 247:1 332:1 439:1 500:1 548:1 576:1 627:1 743:1 963:1 1181:1 1223:1 1224:1 1227:1 1231:1 1236:1 1248:1 1250:1 1252:1 1260:1 1268:1 1271:1 1273:1 1283:1 1289:3
1 189:1 439:1 500:1 548:1 576:1 627:1 963:1 1181:1 1223:1 1227:1 1236:1 1248:1 1250:1 1252:1 1260:1 1273:1 1289:2
1 189:1 500:1 627:1 1181:1 1227:1 1236:1 1252:1 1260:1 1289:2
1 189:1 439:1 500:1 1227:1 1260:1 1273:1 1289:3
1 189:1 500:1 743:1 1227:1 1231:1 1260:1 1289:2
1 659:1 1280:1 1289:4
1 189:1 500:1 1227:1 1260:1 1289:2
1 189:1 500:1 517:1 963:1 1181:1 1227:1 1248:1 1252:1 1260:1 1279:1 1289:2
1 189:1 439:1 500:1 576:1 580:1 627:1 672:1 675:1 734:1 880:1 963:1 1181:1 1218:1 1219:1 1225:1 1227:1 1228:1 1236:1 1248:1 1250:1 1252:1 1253:1 1260:1 1273:1 1289:4
1 189:1 439:1 500:1 1181:1 1227:1 1252:1 1260:1 1273:1 1289:3
1 189:1 500:1 1227:1 1260:1 1289:3
1 189:1 332:1 439:1 500:1 580:1 627:1 963:1 1181:1 1224:1 1227:1 1236:1 1248:1 1252:1 1253:1 1260:1 1273:1 1289:3
1 189:1 236:1 247:1 332:1 439:1 500:1 627:1 963:1 1181:1 1224:1 1227:1 1236:1 1248:1 1252:1 1260:1 1272:1 1273:1 1283:1 1289:3
1 189:1 439:1 500:1 1181:1 1227:1 1252:1 1260:1 1273:1 1289:3
1 189:1 332:1 439:1 500:1 627:1 963:1 1181:1 1224:1 1227:1 1236:1 1248:1 1252:1 1260:1 1273:1 1289:3
1 189:1 500:1 1227:1 1260:1 1289:3
1 189:1 500:1 1227:1 1260:1 1289:2
1 189:1 439:1 1181:1 1227:1 1252:1 1273:1 1289:2
1 659:1 1280:1 1289:4
1 189:1 439:1 500:1 1181:1 1227:1 1252:1 1260:1 1273:1 1289:3
1 659:1 1280:1 1289:4
1 189:1 439:1 500:1 517:1 743:1 963:1 1181:1 1227:1 1231:1 1248:1 1252:1 1260:1 1273:1 1279:1 1289:2
1 189:1 439:1 500:1 1181:1 1227:1 1252:1 1260:1 1273:1 1289:3
1 189:1 332:1 439:1 500:1 627:1 963:1 1181:1 1224:1 1227:1 1236:1 1248:1 1252:1 1260:1 1273:1 1289:3
1 189:1 1227:1 1289:7
1 189:1 500:1 1227:1 1260:1 1289:3
1 659:1 1280:1 1289:5
1 189:1 500:1 1181:1 1227:1 1252:1 1260:1 1289:2
1 659:1 1280:1 1289:4
1 659:1 1280:1 1289:3
1 189:1 1227:1 1289:2
1 189:1 439:1 1181:1 1227:1 1252:1 1273:1 1289:2
1 1289:2
1 189:1 439:1 500:1 1227:1 1260:1 1273:1 1289:2
1 189:1 439:1 500:1 1181:1 1227:1 1252:1 1260:1 1273:1 1289:3
1 189:1 500:1 1181:1 1227:1 1252:1 1260:1 1289:2
1 189:1 332:1 500:1 548:1 627:1 963:1 1181:1 1223:1 1224:1 1227:1 1236:1 1248:1 1252:1 1260:1 1289:2
1 189:1 439:1 500:1 1227:1 1260:1 1273:1 1289:2
1 189:1 500:1 1181:1 1227:1 1252:1 1260:1 1289:2
1 181:1 189:1 247:1 500:1 601:1 627:1 657:1 758:1 765:1 829:1 893:1 950:1 963:1 1051:1 1085:1 1181:1 1183:1 1216:1 1226:1 1227:1 1229:1 1236:1 1239:1 1245:1 1247:1 1248:1 1249:1 1252:1 1254:1 1255:1 1260:1 1278:1 1283:1 1286:1 1289:2 1291:5
1 189:1 439:1 500:1 1227:1 1260:1 1273:1 1289:2
1 189:1 500:1 517:1 1181:1 1227:1 1252:1 1260:1 1279:1 1289:2
1 189:1 1227:1 1289:3
1 189:3 1227:3 1289:5
1 189:1 439:1 500:1 517:1 743:1 1181:1 1227:1 1231:1 1252:1 1260:1 1273:1 1279:1 1289:2
1 189:1 439:1 500:1 1227:1 1260:1 1273:1 1289:2
1 189:1 439:1 500:1 1227:1 1260:1 1273:1 1289:3
1 189:1 236:1 261:1 332:1 439:1 500:1 580:1 1181:1 1220:1 1224:1 1227:1 1252:1 1253:1 1260:1 1272:1 1273:1 1289:4
1 189:1 439:1 500:1 1181:1 1227:1 1252:1 1260:1 1273:1 1289:2
1 189:1 439:1 1227:1 1273:1 1289:2
1 189:1 439:1 500:1 517:1 743:1 1181:1 1227:1 1231:1 1252:1 1260:1 1273:1 1279:1 1289:2
1 189:1 439:1 500:1 517:1 1227:1 1260:1 1273:1 1279:1 1289:2
1 189:1 500:1 743:1 1227:1 1231:1 1260:1 1289:2
1 189:1 332:1 439:1 500:1 627:1 963:1 1181:1 1224:1 1227:1 1236:1 1248:1 1252:1 1260:1 1273:1 1289:3
1 189:1 439:1 500:1 1227:1 1260:1 1273:1 1289:2
1 189:1 236:1 1227:1 1272:1 1289:3
1 189:1 439:1 1227:1 1273:1 1289:2
1 189:1 439:1 500:1 1227:1 1260:1 1273:1 1289:3
1 659:1 1280:1 1289:4
1 189:1 500:1 1227:1 1260:1 1289:2
1 189:1 439:1 1181:1 1227:1 1252:1 1273:1 1289:2
1 189:1 247:1 500:1 576:1 627:1 734:1 837:1 963:1 1120:1 1181:1 1218:1 1227:1 1236:1 1248:1 1250:1 1252:1 1258:1 1260:1 1264:1 1283:1 1289:2 1291:178
1 189:1 332:1 439:1 500:1 580:1 627:1 963:1 1181:1 1224:1 1227:1 1236:1 1248:1 1252:1 1253:1 1260:1 1273:1 1289:4
1 189:1 439:1 517:1 1227:1 1273:1 1279:1 1289:2
1 189:1 500:1 1227:1 1260:1 1289:2
1 189:1 500:1 517:1 627:1 1181:1 1227:1 1236:1 1252:1 1260:1 1279:1 1289:2 1291:3
1 189:1 500:1 517:1 1181:1 1227:1 1252:1 1260:1 1279:1 1289:2
1 189:1 332:1 439:1 500:1 580:1 627:1 963:1 1181:1 1224:1 1227:1 1236:1 1248:1 1252:1 1253:1 1260:1 1273:1 1289:4
1 189:1 439:1 500:1 1181:1 1227:1 1252:1 1260:1 1273:1 1289:2
1 189:1 247:1 439:1 500:1 580:1 963:1 1181:1 1227:1 1248:1 1252:1 1253:1 1260:1 1273:1 1283:1 1289:2
1 189:1 1227:1 1289:6
1 189:1 439:1 500:1 1227:1 1260:1 1273:1 1289:3
1 189:1 247:1 439:1 500:1 548:1 627:1 837:1 963:1 1181:1 1223:1 1227:1 1236:1 1248:1 1252:1 1258:1 1260:1 1273:1 1283:1 1289:3
1 189:1 439:1 500:1 1181:1 1227:1 1252:1 1260:1 1273:1 1289:3
1 159:1 189:1 326:1 500:1 555:1 657:1 765:1 837:1 880:1 963:1 1051:1 1085:1 1120:1 1181:1 1183:1 1215:1 1225:1 1227:1 1229:1 1230:1 1247:1 1248:1 1252:1 1254:1 1255:1 1258:1 1260:1 1264:1 1269:1 1278:1 1289:2 1291:2685
1 659:1 1280:1 1289:4
1 189:1 672:1 1219:1 1227:1 1289:3
1 659:1 1280:1 1289:4
1 150:1 189:1 326:1 500:1 576:1 837:1 846:1 880:1 1120:1 1181:1 1198:1 1215:1 1225:1 1227:1 1250:1 1252:1 1258:1 1260:1 1262:1 1264:1 1267:1 1274:1 1289:1 1291:17255
1 189:1 439:1 500:1 1181:1 1227:1 1252:1 1260:1 1273:1 1289:2
1 189:1 500:1 1227:1 1260:1 1289:2
1 189:1 439:1 500:1 576:1 627:1 963:1 1227:1 1236:1 1248:1 1250:1 1260:1 1273:1 1289:2
1 189:1 1227:1 1289:6
1 189:1 236:1 439:1 500:1 963:1 1227:1 1248:1 1260:1 1272:1 1273:1 1289:4
1 189:1 379:1 627:1 1181:1 1227:1 1236:1 1252:1 1281:1 1289:2
1 189:1 439:1 500:1 517:1 743:1 1227:1 1231:1 1260:1 1273:1 1279:1 1289:2
1 189:1 236:1 247:1 439:1 500:1 963:1 1227:1 1248:1 1260:1 1272:1 1273:1 1283:1 1289:4
1 189:1 439:1 1227:1 1273:1 1289:2
1 189:1 439:1 500:1 1227:1 1260:1 1273:1 1289:3
1 189:1 439:1 1181:1 1227:1 1252:1 1273:1 1289:2
1 189:1 293:1 500:1 1181:1 1227:1 1252:1 1260:1 1261:1 1289:2
1 189:1 247:1 500:1 576:1 627:1 734:1 837:1 963:1 1120:1 1181:1 1218:1 1227:1 1236:1 1248:1 1250:1 1252:1 1258:1 1260:1 1264:1 1283:1 1289:2 1291:178
1 189:1 1227:1 1289:2
1 189:1 500:1 1181:1 1227:1 1252:1 1260:1 1289:2
1 189:1 439:1 500:1 576:1 627:1 963:1 1227:1 1236:1 1248:1 1250:1 1260:1 1273:1 1289:2
1 189:1 439:1 500:1 576:1 580:1 627:1 672:1 675:1 734:1 880:1 963:1 1181:1 1218:1 1219:1 1225:1 1227:1 1228:1 1236:1 1248:1 1250:1 1252:1 1253:1 1260:1 1273:1 1289:4
1 189:1 500:1 627:1 963:1 1181:1 1227:1 1236:1 1248:1 1252:1 1260:1 1289:2
1 189:1 236:1 1227:1 1272:1 1289:3
1 189:1 236:1 439:1 500:1 963:1 1227:1 1248:1 1260:1 1272:1 1273:1 1289:4
1 189:1 326:1 657:1 765:1 950:1 963:1 1051:1 1085:1 1181:1 1183:1 1215:1 1226:1 1227:1 1229:1 1247:1 1248:1 1252:1 1254:1 1255:1 1278:1 1289:3 1291:1647
1 189:1 500:1 1181:1 1227:1 1252:1 1260:1 1289:2
1 189:1 439:1 500:1 548:1 576:1 627:1 963:1 1181:1 1223:1 1227:1 1236:1 1248:1 1250:1 1252:1 1260:1 1273:1 1289:2
1 659:1 1280:1 1289:4
1 159:1 189:1 326:1 500:1 657:1 765:1 837:1 880:1 963:1 1051:1 1085:1 1120:1 1181:1 1183:1 1215:1 1225:1 1227:1 1229:1 1247:1 1248:1 1252:1 1254:1 1255:1 1258:1 1260:1 1264:1 1269:1 1278:1 1289:2 1291:2311
1 189:1 236:1 500:1 1227:1 1260:1 1272:1 1289:3
1 189:1 500:1 1181:1 1227:1 1252:1 1260:1 1289:2
1 659:1 1280:1 1289:3
1 189:1 247:1 439:1 500:1 580:1 963:1 1181:1 1227:1 1248:1 1252:1 1253:1 1260:1 1273:1 1283:1 1289:2
1 189:1 500:1 1227:1 1260:1 1289:2
1 189:1 236:1 1227:1 1272:1 1289:3
1 189:1 236:1 247:1 439:1 500:1 580:1 627:1 963:1 1181:1 1227:1 1236:1 1248:1 1252:1 1253:1 1260:1 1272:1 1273:1 1283:1 1289:9
1 189:1 439:1 500:1 576:1 627:1 963:1 1227:1 1236:1 1248:1 1250:1 1260:1 1273:1 1289:2
1 189:1 500:1 1227:1 1260:1 1289:2
1 189:1 439:1 500:1 517:1 1227:1 1260:1 1273:1 1279:1 1289:2
1 659:1 1280:1 1289:3
1 189:1 439:1 500:1 672:1 1181:1 1219:1 1227:1 1252:1 1260:1 1273:1 1289:2
1 189:1 500:1 743:1 1227:1 1231:1 1260:1 1289:2
1 189:1 1227:1 1289:2
1 189:1 439:1 1227:1 1273:1 1289:2
1 189:1 439:1 1227:1 1273:1 1289:2
1 189:1 500:1 743:1 1227:1 1231:1 1260:1 1289:2
1 659:1 1280:1 1289:3
1 1289:2
1 189:1 236:1 261:1 332:1 439:1 500:1 580:1 1181:1 1220:1 1224:1 1227:1 1252:1 1253:1 1260:1 1272:1 1273:1 1289:4
1 189:1 1227:1 1289:3
1 189:1 439:1 1227:1 1273:1 1289:2
1 659:1 1280:1 1289:4
1 189:1 1227:1 1289:3
1 189:1 500:1 1227:1 1260:1 1289:2
1 189:1 439:1 500:1 1227:1 1260:1 1273:1 1289:4
1 189:1 500:1 1181:1 1227:1 1252:1 1260:1 1289:2
1 659:1 1280:1 1289:4
1 189:1 247:1 332:1 439:1 500:1 580:1 734:1 743:1 963:1 1181:1 1218:1 1224:1 1227:1 1231:1 1248:1 1252:1 1253:1 1260:1 1273:1 1283:1 1289:5
1 659:1 1280:1 1289:4
1 189:1 439:1 500:1 1181:1 1227:1 1252:1 1260:1 1273:1 1289:2
1 189:1 439:1 500:1 1181:1 1227:1 1252:1 1260:1 1273:1 1289:2
1 659:1 1280:1 1289:4
1 189:1 500:1 743:1 1227:1 1231:1 1260:1 1289:2
1 189:1 439:1 500:1 548:1 576:1 627:1 963:1 1181:1 1223:1 1227:1 1236:1 1248:1 1250:1 1252:1 1260:1 1273:1 1289:2
1 189:1 326:1 657:1 765:1 950:1 963:1 1051:1 1085:1 1181:1 1183:1 1215:1 1226:1 1227:1 1229:1 1247:1 1248:1 1252:1 1254:1 1255:1 1278:1 1289:3 1291:1551
1 189:4 247:1 332:1 439:1 500:2 627:1 1181:2 1224:1 1227:4 1236:1 1252:2 1260:2 1273:1 1283:1 1289:6
1 189:1 627:1 1181:1 1227:1 1236:1 1252:1 1289:3
1 189:1 500:1 1181:1 1227:1 1252:1 1260:1 1289:2
1 189:1 439:1 963:1 1181:1 1227:1 1248:1 1252:1 1273:1 1289:2
1 189:1 500:1 1181:1 1227:1 1252:1 1260:1 1289:2
1 189:1 439:1 500:1 963:1 1227:1 1248:1 1260:1 1273:1 1289:2
1 189:2 326:1 417:1 432:2 657:1 758:1 765:1 1051:1 1085:1 1181:1 1183:1 1215:1 1227:2 1229:1 1245:1 1246:1 1247:1 1252:1 1254:1 1255:1 1266:2 1278:1 1289:4
1 162:1 189:1 247:1 1227:1 1271:1 1283:1 1289:3
1 189:1 439:1 1227:1 1273:1 1289:2
1 189:1 439:1 500:1 576:1 627:1 963:1 1227:1 1236:1 1248:1 1250:1 1260:1 1273:1 1289:2
1 189:1 439:1 500:1 576:1 580:1 627:1 672:1 675:1 734:1 880:1 963:1 1181:1 1218:1 1219:1 1225:1 1227:1 1228:1 1236:1 1248:1 1250:1 1252:1 1253:1 1260:1 1273:1 1289:3
1 189:1 439:1 743:1 1181:1 1227:1 1231:1 1252:1 1273:1 1289:2
1 189:1 247:1 500:1 576:1 627:1 734:1 837:1 963:1 1120:1 1181:1 1218:1 1227:1 1236:1 1248:1 1250:1 1252:1 1258:1 1260:1 1264:1 1283:1 1289:2 1291:178
1 189:1 439:1 500:1 576:1 580:1 627:1 672:1 675:1 734:1 880:1 963:1 1181:1 1218:1 1219:1 1225:1 1227:1 1228:1 1236:1 1248:1 1250:1 1252:1 1253:1 1260:1 1273:1 1289:3
1 189:1 500:1 1181:1 1227:1 1252:1 1260:1 1289:2
1 659:1 1280:1 1289:3
1 189:1 247:1 439:1 500:1 580:1 963:1 1181:1 1227:1 1248:1 1252:1 1253:1 1260:1 1273:1 1283:1 1289:2
1 189:1 236:1 247:1 439:1 500:1 580:1 963:1 1227:1 1248:1 1253:1 1260:1 1272:1 1273:1 1283:1 1289:5
1 189:1 326:1 657:1 765:1 950:1 963:1 1051:1 1085:1 1181:1 1183:1 1215:1 1226:1 1227:1 1229:1 1247:1 1248:1 1252:1 1254:1 1255:1 1278:1 1289:4 1291:1499
1 189:1 439:1 500:1 1181:1 1227:1 1252:1 1260:1 1273:1 1289:2
1 189:1 500:1 963:1 1181:1 1227:1 1248:1 1252:1 1260:1 1289:3
1 181:1 189:1 326:1 432:1 657:1 765:1 820:1 837:1 838:1 1051:1 1085:1 1181:1 1215:1 1216:1 1217:1 1227:1 1229:1 1234:1 1247:1 1252:1 1254:1 1258:1 1259:1 1266:1 1278:1 1289:3
1 189:1 500:1 1227:1 1260:1 1289:3
1 189:1 439:1 1227:1 1273:1 1289:2
1 189:1 439:1 500:1 1181:1 1227:1 1252:1 1260:1 1273:1 1289:2
1 189:1 247:1 439:1 500:1 580:1 963:1 1181:1 1227:1 1248:1 1252:1 1253:1 1260:1 1273:1 1283:1 1289:2
1 189:1 500:1 517:1 963:1 1181:1 1227:1 1248:1 1252:1 1260:1 1279:1 1289:2
1 189:1 439:1 500:1 548:1 576:1 627:1 963:1 1181:1 1223:1 1227:1 1236:1 1248:1 1250:1 1252:1 1260:1 1273:1 1289:2
1 189:1 439:1 500:1 576:1 743:1 1181:1 1227:1 1231:1 1250:1 1252:1 1260:1 1273:1 1289:2
1 189:1 896:2 1227:1 1242:2 1289:2
1 189:1 500:1 743:1 1227:1 1231:1 1260:1 1289:2
1 189:1 500:1 1181:1 1227:1 1252:1 1260:1 1289:2
1 189:1 439:1 500:1 517:1 1227:1 1260:1 1273:1 1279:1 1289:2
1 181:1 189:1 326:1 657:1 765:1 950:1 963:1 1051:1 1085:1 1181:1 1183:1 1215:1 1216:1 1226:1 1227:1 1229:1 1247:1 1248:1 1252:1 1254:1 1255:1 1278:1 1289:2 1291:1
1 189:1 439:1 500:1 1227:1 1260:1 1273:1 1289:3
1 189:1 1227:1 1289:3
1 659:1 1280:1 1289:4
1 659:1 1280:1 1289:5
1 189:1 500:1 1227:1 1260:1 1289:2
1 189:1 500:1 1227:1 1260:1 1289:2
1 189:1 439:1 517:1 1227:1 1273:1 1279:1 1289:2
1 189:1 1227:1 1289:2
1 659:1 1280:1 1289:4
1 189:1 332:1 439:1 500:1 627:1 963:1 1181:1 1224:1 1227:1 1236:1 1248:1 1252:1 1260:1 1273:1 1289:4
1 189:1 439:1 500:1 1227:1 1260:1 1273:1 1289:3
1 189:1 439:1 500:1 1227:1 1260:1 1273:1 1289:3
1 162:1 189:1 439:1 500:1 627:1 734:1 837:1 963:1 1181:1 1218:1 1227:1 1236:1 1248:1 1252:1 1258:1 1260:1 1271:1 1273:1 1289:2
1 189:1 439:1 500:1 1181:1 1227:1 1252:1 1260:1 1273:1 1289:2
1 189:1 332:1 439:1 500:1 627:1 963:1 1181:1 1224:1 1227:1 1236:1 1248:1 1252:1 1260:1 1273:1 1289:4
1 659:1 1280:1 1289:4
1 659:1 1280:1 1289:5
1 189:1 1227:1 1289:3
1 189:1 500:1 963:1 1227:1 1248:1 1260:1 1289:3
1 189:1 439:1 500:1 963:1 1181:1 1227:1 1248:1 1252:1 1260:1 1273:1 1289:2
1 189:1 439:1 500:1 1227:1 1260:1 1273:1 1289:2
1 189:1 500:1 1227:1 1260:1 1289:3
1 189:1 1227:1 1289:2
1 157:1 162:1 189:1 247:1 332:1 439:1 500:1 548:1 576:1 578:1 627:1 734:1 856:1 963:1 1115:1 1181:1 1218:1 1223:1 1224:1 1227:1 1236:1 1248:1 1250:1 1251:1 1252:1 1256:1 1260:1 1268:1 1271:1 1273:1 1277:1 1283:1 1289:2
1 659:1 1280:1 1289:5
1 189:1 1227:1 1289:3
1 189:1 500:1 1227:1 1260:1 1289:2
1 189:1 326:1 500:1 657:1 765:1 950:1 963:1 1051:1 1085:1 1181:1 1183:1 1215:1 1226:1 1227:1 1229:1 1247:1 1248:1 1252:1 1254:1 1255:1 1260:1 1278:1 1289:3 1291:615
1 189:1 439:1 1227:1 1273:1 1289:2
1 189:1 500:1 1181:1 1227:1 1252:1 1260:1 1289:2
1 659:1 1280:1 1289:3
1 189:1 332:1 439:1 500:1 627:1 963:1 1181:1 1224:1 1227:1 1236:1 1248:1 1252:1 1260:1 1273:1 1289:3
1 189:1 1227:1 1289:2
1 157:1 162:1 189:1 247:1 332:1 439:1 500:1 548:1 576:1 627:1 743:1 963:1 1181:1 1223:1 1224:1 1227:1 1231:1 1236:1 1248:1 1250:1 1252:1 1260:1 1268:1 1271:1 1273:1 1283:1 1289:3
1 189:1 332:1 500:1 1224:1 1227:1 1260:1 1289:4
1 189:1 500:1 1227:1 1260:1 1289:2
1 189:1 236:1 1181:1 1227:1 1252:1 1272:1 1289:6
1 1289:2
1 189:1 500:1 1227:1 1260:1 1289:2
1 189:1 439:1 517:1 1227:1 1273:1 1279:1 1289:2
1 189:1 500:1 1227:1 1260:1 1289:2
1 162:1 189:1 247:1 332:1 339:1 379:1 439:1 445:1 500:1 517:1 576:1 627:1 672:1 734:1 743:1 837:1 880:1 963:1 1120:1 1181:1 1198:1 1218:1 1219:1 1224:1 1225:1 1227:1 1231:1 1236:1 1237:1 1248:1 1250:1 1252:1 1258:1 1260:1 1264:1 1271:1 1273:1 1274:1 1279:1 1281:1 1282:1 1283:1 1289:3
1 189:1 439:1 500:1 1227:1 1260:1 1273:1 1289:1
1 189:1 439:1 627:1 1227:1 1236:1 1273:1 1289:3
1 659:1 1280:1 1289:3
1 189:1 500:1 1227:1 1260:1 1289:2
1 134:1 189:1 236:1 627:1 687:1 838:1 1181:1 1227:1 1236:1 1241:1 1243:1 1252:1 1259:1 1272:1 1289:4
1 659:1 1280:1 1289:4
1 659:1 1280:1 1289:3
1 189:1 332:1 439:1 500:1 627:1 963:1 1181:1 1224:1 1227:1 1236:1 1248:1 1252:1 1260:1 1273:1 1289:3
1 659:1 1280:1 1289:4
1 189:1 439:1 500:1 517:1 743:1 1181:1 1227:1 1231:1 1252:1 1260:1 1273:1 1279:1 1289:2
1 189:1 500:1 743:1 1181:1 1227:1 1231:1 1252:1 1260:1 1289:2
1 189:1 500:1 743:1 1227:1 1231:1 1260:1 1289:2
1 189:1 439:1 500:1 576:1 627:1 963:1 1227:1 1236:1 1248:1 1250:1 1260:1 1273:1 1289:2
1 189:1 500:1 1227:1 1260:1 1289:2
1 659:1 1280:1 1289:3
1 189:1 236:1 261:1 332:1 439:1 500:1 580:1 1181:1 1220:1 1224:1 1227:1 1252:1 1253:1 1260:1 1272:1 1273:1 1289:4
1 189:1 439:1 500:1 1227:1 1260:1 1273:1 1289:2
1 189:1 332:1 439:1 500:1 580:1 627:1 963:1 1181:1 1224:1 1227:1 1236:1 1248:1 1252:1 1253:1 1260:1 1273:1 1289:3
1 189:2 236:1 432:1 627:1 837:1 838:1 963:1 1198:1 1217:1 1227:2 1236:1 1248:1 1258:1 1259:1 1266:1 1272:1 1274:1 1289:4
1 189:1 439:1 1181:1 1227:1 1252:1 1273:1 1289:2
1 189:1 439:1 500:1 517:1 743:1 1181:1 1227:1 1231:1 1252:1 1260:1 1273:1 1279:1 1289:2
1 659:1 1280:1 1289:3
1 189:1 439:1 1181:1 1227:1 1252:1 1273:1 1289:2
1 189:1 439:1 500:1 1181:1 1227:1 1252:1 1260:1 1273:1 1289:3
1 189:1 500:1 1181:1 1227:1 1252:1 1260:1 1289:2
1 189:1 247:1 389:1 439:1 500:1 517:1 548:1 576:1 578:1 580:1 627:1 812:1 818:1 837:1 963:1 987:1 1120:1 1181:1 1223:1 1227:1 1232:1 1233:1 1236:1 1248:1 1250:1 1251:1 1252:1 1253:1 1258:1 1260:1 1264:1 1270:1 1273:1 1279:1 1283:1 1285:1 1289:2 1291:3230
1 181:1 189:1 326:1 657:1 765:1 950:1 963:1 1051:1 1085:1 1181:1 1183:1 1215:1 1216:1 1226:1 1227:1 1229:1 1247:1 1248:1 1252:1 1254:1 1255:1 1278:1 1289:2 1291:1
1 189:1 500:1 743:1 1227:1 1231:1 1260:1 1289:2
1 189:2 439:1 500:1 672:1 1181:2 1219:1 1227:2 1252:2 1260:1 1273:1 1289:3
1 189:2 236:1 326:1 432:1 838:1 1181:1 1215:1 1217:1 1227:2 1252:1 1259:1 1266:1 1272:1 1289:5
1 189:1 332:1 439:1 500:1 1181:1 1224:1 1227:1 1252:1 1260:1 1273:1 1289:2
1 189:1 500:1 1181:1 1227:1 1252:1 1260:1 1289:2
1 189:1 1227:1 1289:7
1 189:1 197:1 236:1 247:1 332:1 439:1 500:1 576:1 580:1 627:1 672:1 856:1 963:1 1181:1 1219:1 1224:1 1227:1 1235:1 1236:1 1248:1 1250:1 1252:1 1253:1 1260:1 1272:1 1273:1 1277:1 1283:1 1289:5 1291:2
1 189:1 439:1 500:1 1227:1 1260:1 1273:1 1289:3
1 189:1 439:1 1227:1 1273:1 1289:2
1 189:1 439:1 1181:1 1227:1 1252:1 1273:1 1289:2
1 1289:2
1 189:1 500:1 517:1 1227:1 1260:1 1279:1 1289:2
1 189:1 500:1 1227:1 1260:1 1289:2
1 189:1 247:1 332:1 439:1 500:1 548:1 578:1 580:1 627:1 672:1 963:1 1181:1 1219:1 1223:1 1224:1 1227:1 1236:1 1248:1 1251:1 1252:1 1253:1 1260:1 1273:1 1283:1 1289:7
1 189:1 500:1 743:1 1181:1 1227:1 1231:1 1252:1 1260:1 1289:2
1 189:1 500:1 627:1 963:1 1181:1 1227:1 1236:1 1248:1 1252:1 1260:1 1289:2
1 189:1 439:1 500:1 627:1 1181:1 1227:1 1236:1 1252:1 1260:1 1273:1 1289:2
1 189:1 236:1 261:1 332:1 439:1 500:1 580:1 1181:1 1220:1 1224:1 1227:1 1252:1 1253:1 1260:1 1272:1 1273:1 1289:4
1 189:1 439:1 500:1 548:1 576:1 627:1 963:1 1181:1 1223:1 1227:1 1236:1 1248:1 1250:1 1252:1 1260:1 1273:1 1289:2
1 189:1 332:1 439:1 500:1 627:1 963:1 1181:1 1224:1 1227:1 1236:1 1248:1 1252:1 1260:1 1273:1 1289:3
1 189:1 500:1 1227:1 1260:1 1289:2
1 162:1 189:1 247:1 332:1 339:1 379:1 439:1 445:1 500:1 517:1 576:1 627:1 672:1 734:1 743:1 837:1 880:1 963:1 1120:1 1181:1 1198:1 1218:1 1219:1 1224:1 1225:1 1227:1 1231:1 1236:1 1237:1 1248:1 1250:1 1252:1 1258:1 1260:1 1264:1 1271:1 1273:1 1274:1 1279:1 1281:1 1282:1 1283:1 1289:3
1 189:1 332:1 439:1 500:1 580:1 627:1 963:1 1181:1 1224:1 1227:1 1236:1 1248:1 1252:1 1253:1 1260:1 1273:1 1289:3
1 659:1 1280:1 1289:4
1 189:1 500:1 1227:1 1260:1 1289:3
1 189:1 439:1 500:1 548:1 576:1 627:1 963:1 1181:1 1223:1 1227:1 1236:1 1248:1 1250:1 1252:1 1260:1 1273:1 1289:2
1 189:1 236:1 627:1 1227:1 1236:1 1272:1 1289:3
1 189:1 439:1 500:1 576:1 743:1 1181:1 1227:1 1231:1 1250:1 1252:1 1260:1 1273:1 1289:2
1 189:1 500:1 1227:1 1260:1 1289:2
1 659:1 1280:1 1289:3
1 189:1 439:1 500:1 1227:1 1260:1 1273:1 1289:2
1 189:1 1227:1 1289:4
1 189:1 332:1 500:1 1224:1 1227:1 1260:1 1289:3
1 189:1 439:1 1227:1 1273:1 1289:3
1 189:1 439:1 500:1 1227:1 1260:1 1273:1 1289:3
1 189:1 439:1 500:1 1181:1 1227:1 1252:1 1260:1 1273:1 1289:3
1 189:1 1227:1 1289:4
1 189:1 439:1 500:1 1227:1 1260:1 1273:1 1289:2
1 189:1 500:1 743:1 1181:1 1227:1 1231:1 1252:1 1260:1 1289:2
1 189:1 439:1 500:1 1227:1 1260:1 1273:1 1289:3
1 189:1 439:1 1227:1 1273:1 1289:2
1 189:1 1227:1 1289:3
1 189:1 439:1 517:1 1227:1 1273:1 1279:1 1289:2
1 189:1 439:1 500:1 1181:1 1227:1 1252:1 1260:1 1273:1 1289:3
1 189:1 332:1 439:1 500:1 580:1 627:1 963:1 1181:1 1224:1 1227:1 1236:1 1248:1 1252:1 1253:1 1260:1 1273:1 1289:3
1 189:1 439:1 500:1 1227:1 1260:1 1273:1 1289:2
1 189:1 500:1 627:1 1181:1 1227:1 1236:1 1252:1 1260:1 1289:2
1 189:1 247:1 332:1 500:1 627:1 672:1 963:1 1219:1 1224:1 1227:1 1236:1 1248:1 1260:1 1283:1 1289:2
1 189:1 500:1 1181:1 1227:1 1252:1 1260:1 1289:2
1 189:4 247:3 332:1 439:1 500:2 580:1 963:1 1181:2 1224:1 1227:4 1248:1 1252:2 1253:1 1260:2 1273:1 1283:3 1289:6
1 189:1 500:1 1227:1 1260:1 1289:3
1 189:1 439:1 500:1 1181:1 1227:1 1252:1 1260:1 1273:1 1289:3
1 189:1 439:1 672:1 1181:1 1219:1 1227:1 1252:1 1273:1 1289:2
1 189:1 500:1 1227:1 1260:1 1289:2
1 189:1 247:1 439:1 500:1 580:1 963:1 1227:1 1248:1 1253:1 1260:1 1273:1 1283:1 1289:4
1 189:1 439:1 500:1 1227:1 1260:1 1273:1 1289:3
1 189:1 500:1 1227:1 1260:1 1289:2
1 189:1 439:1 500:1 963:1 1181:1 1227:1 1248:1 1252:1 1260:1 1273:1 1289:2
1 189:1 439:1 627:1 1227:1 1236:1 1273:1 1289:2
1 659:1 1280:1 1289:4
1 189:1 236:1 247:1 439:1 500:1 580:1 963:1 1227:1 1248:1 1253:1 1260:1 1272:1 1273:1 1283:1 1289:4
1 189:1 500:1 1227:1 1260:1 1289:2
1 189:1 439:1 500:1 1227:1 1260:1 1273:1 1289:3
1 189:1 500:1 1181:1 1227:1 1252:1 1260:1 1289:2
1 189:2 500:1 1181:1 1227:2 1252:1 1260:1 1289:2
1 189:1 500:1 627:1 1227:1 1236:1 1260:1 1289:4
1 189:1 439:1 1181:1 1227:1 1252:1 1273:1 1289:2
1 189:1 500:1 517:1 963:1 1181:1 1227:1 1248:1 1252:1 1260:1 1279:1 1289:2
1 189:1 332:1 439:1 500:1 627:1 963:1 1181:1 1224:1 1227:1 1236:1 1248:1 1252:1 1260:1 1273:1 1289:2
1 189:1 500:1 963:1 1181:1 1227:1 1248:1 1252:1 1260:1 1289:2
1 189:1 332:1 439:1 500:1 627:1 963:1 1181:1 1224:1 1227:1 1236:1 1248:1 1252:1 1260:1 1273:1 1289:3
1 189:1 439:1 500:1 1227:1 1260:1 1273:1 1289:3
1 189:1 439:1 1181:1 1227:1 1252:1 1273:1 1289:3
1 189:1 1227:1 1289:3
1 659:1 1280:1 1289:3
1 189:1 1227:1 1289:4
1 659:1 1280:1 1289:3
1 189:1 247:1 439:1 445:1 500:1 580:1 627:1 672:1 963:1 1181:1 1219:1 1227:1 1236:1 1248:1 1252:1 1253:1 1260:1 1273:1 1282:1 1283:1 1289:5 1291:3
1 189:1 439:1 500:1 1181:1 1227:1 1252:1 1260:1 1273:1 1289:3
1 189:1 439:1 500:1 517:1 743:1 1181:1 1227:1 1231:1 1252:1 1260:1 1273:1 1279:1 1289:2
1 189:1 439:1 627:1 1227:1 1236:1 1273:1 1289:2
1 189:1 500:1 1227:1 1260:1 1289:4
1 189:1 1181:1 1227:1 1252:1 1289:2
1 659:1 1280:1 1289:4
1 189:1 439:1 500:1 963:1 1181:1 1227:1 1248:1 1252:1 1260:1 1273:1 1289:2
1 150:1 189:1 326:1 500:1 576:1 837:1 846:1 880:1 1120:1 1181:1 1198:1 1215:1 1225:1 1227:1 1250:1 1252:1 1258:1 1260:1 1262:1 1264:1 1267:1 1274:1 1289:1 1291:17255
1 189:1 500:1 963:1 1181:1 1227:1 1248:1 1252:1 1260:1 1289:2
1 189:1 439:1 500:1 576:1 743:1 1181:1 1227:1 1231:1 1250:1 1252:1 1260:1 1273:1 1289:4
1 659:1 1280:1 1289:4
1 189:1 439:1 500:1 517:1 743:1 1227:1 1231:1 1260:1 1273:1 1279:1 1289:2
1 189:1 236:1 261:1 332:1 439:1 500:1 580:1 1181:1 1220:1 1224:1 1227:1 1252:1 1253:1 1260:1 1272:1 1273:1 1289:4
1 189:1 439:1 500:1 1227:1 1260:1 1273:1 1289:3
1 189:1 500:1 1227:1 1260:1 1289:2
1 189:1 439:1 500:1 517:1 743:1 1181:1 1227:1 1231:1 1252:1 1260:1 1273:1 1279:1 1289:2
1 189:1 439:1 500:1 576:1 743:1 1181:1 1227:1 1231:1 1250:1 1252:1 1260:1 1273:1 1289:2
1 189:1 439:1 500:1 548:1 576:1 627:1 963:1 1181:1 1223:1 1227:1 1236:1 1248:1 1250:1 1252:1 1260:1 1273:1 1289:2
1 189:1 236:1 247:1 332:1 439:1 500:1 627:1 963:1 1224:1 1227:1 1236:1 1248:1 1260:1 1272:1 1273:1 1283:1 1289:2
1 189:1 236:1 1227:1 1272:1 1289:6 1291:1
1 189:1 332:1 439:1 500:1 580:1 627:1 963:1 1181:1 1224:1 1227:1 1236:1 1248:1 1252:1 1253:1 1260:1 1273:1 1289:3
1 659:1 1280:1 1289:4
1 189:1 236:1 261:1 332:1 439:1 500:1 580:1 1181:1 1220:1 1224:1 1227:1 1252:1 1253:1 1260:1 1272:1 1273:1 1289:4
1 659:1 1280:1 1289:4
1 189:1 500:1 1181:1 1227:1 1252:1 1260:1 1289:2
1 189:1 247:1 339:1 548:1 580:1 627:1 880:1 938:1 963:1 1181:1 1198:1 1223:1 1225:1 1227:1 1236:1 1237:1 1248:1 1252:1 1253:1 1274:1 1283:1 1287:1 1289:2
1 189:1 332:1 439:1 500:1 627:1 963:1 1181:1 1224:1 1227:1 1236:1 1248:1 1252:1 1260:1 1273:1 1289:3
1 189:1 439:1 500:1 1227:1 1260:1 1273:1 1289:3
1 189:1 439:1 1227:1 1273:1 1289:2
1 659:1 1280:1 1289:4
1 189:1 439:1 500:1 627:1 1181:1 1227:1 1236:1 1252:1 1260:1 1273:1 1289:2
1 189:1 439:1 1181:1 1227:1 1252:1 1273:1 1289:2
1 659:1 1280:1 1289:4
1 189:1 500:1 1227:1 1260:1 1289:2
1 659:1 1280:1 1289:4
1 189:1 439:1 500:1 1181:1 1227:1 1252:1 1260:1 1273:1 1289:2
1 189:1 236:1 1227:1 1272:1 1289:3
1 189:1 439:1 500:1 1181:1 1227:1 1252:1 1260:1 1273:1 1289:2
1 189:1 439:1 500:1 1227:1 1260:1 1273:1 1289:2
1 189:1 236:1 1227:1 1272:1 1289:3
1 189:1 247:1 332:1 439:1 500:1 627:1 963:1 1181:1 1224:1 1227:1 1236:1 1248:1 1252:1 1260:1 1273:1 1283:1 1289:2
1 189:2 439:1 500:1 548:1 576:1 627:1 963:1 1181:1 1223:1 1227:2 1236:1 1248:1 1250:1 1252:1 1260:1 1273:1 1289:8
1 189:3 236:1 247:1 439:1 500:2 580:1 963:1 1227:3 1248:1 1253:1 1260:2 1272:1 1273:1 1283:1 1289:10
1 189:1 1227:1 1289:3
1 134:1 189:1 236:1 627:1 687:1 838:1 1181:1 1227:1 1236:1 1241:1 1243:1 1252:1 1259:1 1272:1 1289:4
1 189:4 247:3 332:1 439:1 500:2 580:1 627:1 672:1 963:1 1181:2 1219:1 1224:1 1227:4 1236:1 1248:1 1252:2 1253:1 1260:2 1273:1 1283:3 1289:7
1 1289:2
1 189:1 439:1 500:1 1181:1 1227:1 1252:1 1260:1 1273:1 1289:3
1 189:1 439:1 500:1 548:1 576:1 627:1 963:1 1181:1 1223:1 1227:1 1236:1 1248:1 1250:1 1252:1 1260:1 1273:1 1289:2
1 189:1 439:1 500:1 1181:1 1227:1 1252:1 1260:1 1273:1 1289:3
1 189:1 247:1 439:1 461:1 500:1 627:1 963:1 1181:1 1214:1 1227:1 1236:1 1248:1 1252:1 1260:1 1273:1 1283:1 1289:3
1 189:1 500:1 1181:1 1227:1 1252:1 1260:1 1289:2
1 189:1 500:1 1181:1 1227:1 1252:1 1260:1 1289:2
1 189:1 500:1 1227:1 1260:1 1289:2
1 189:1 332:1 439:1 500:1 580:1 627:1 963:1 1181:1 1224:1 1227:1 1236:1 1248:1 1252:1 1253:1 1260:1 1273:1 1289:5
1 189:1 439:1 500:1 1227:1 1260:1 1273:1 1289:3
1 189:1 439:1 500:1 1181:1 1227:1 1252:1 1260:1 1273:1 1289:3
1 189:1 247:1 332:1 500:1 627:1 672:1 963:1 1219:1 1224:1 1227:1 1236:1 1248:1 1260:1 1283:1 1289:2
1 189:1 963:1 1181:1 1227:1 1248:1 1252:1 1289:2
1 189:1 500:1 1227:1 1260:1 1289:2
1 189:1 236:1 439:1 500:1 963:1 1227:1 1248:1 1260:1 1272:1 1273:1 1289:4
1 659:1 1280:1 1289:3
1 1289:2
1 189:1 439:1 500:1 517:1 743:1 963:1 1181:1 1227:1 1231:1 1248:1 1252:1 1260:1 1273:1 1279:1 1289:2
1 189:1 672:1 1219:1 1227:1 1289:3
1 189:1 236:1 1227:1 1272:1 1289:5 1291:1
1 189:1 837:1 1181:1 1227:1 1252:1 1258:1 1289:3
1 189:1 963:1 1227:1 1248:1 1289:1
1 189:1 340:1 601:1 657:1 765:1 820:1 1085:1 1221:1 1227:1 1229:1 1234:1 1238:1 1247:1 1278:1 1286:1 1289:2 1291:1
1 189:1 439:1 500:1 517:1 627:1 743:1 1181:1 1227:1 1231:1 1236:1 1252:1 1260:1 1273:1 1279:1 1289:2
1 189:1 1227:1 1289:1
1 189:1 500:1 1181:1 1227:1 1252:1 1260:1 1289:2
1 189:1 439:1 500:1 1227:1 1260:1 1273:1 1289:2
1 189:1 439:1 500:1 1227:1 1260:1 1273:1 1289:3
1 189:1 236:1 1227:1 1272:1 1289:6 1291:1
1 189:1 439:1 517:1 1227:1 1273:1 1279:1 1289:2
1 659:1 1280:1 1289:3
1 134:1 189:1 236:1 627:1 687:1 838:1 1181:1 1227:1 1236:1 1241:1 1243:1 1252:1 1259:1 1272:1 1289:4
1 189:1 500:1 1227:1 1260:1 1289:2
1 189:1 236:1 439:1 500:1 963:1 1227:1 1248:1 1260:1 1272:1 1273:1 1289:4
1 189:1 439:1 1227:1 1273:1 1289:2
1 189:2 326:1 417:1 432:1 657:1 758:1 765:1 1051:1 1085:1 1181:1 1183:1 1215:1 1227:2 1229:1 1245:1 1246:1 1247:1 1252:1 1254:1 1255:1 1266:1 1278:1 1289:5
1 189:1 439:1 500:1 576:1 627:1 743:1 963:1 1227:1 1231:1 1236:1 1248:1 1250:1 1260:1 1273:1 1289:2
1 189:1 247:1 439:1 500:1 580:1 963:1 1181:1 1227:1 1248:1 1252:1 1253:1 1260:1 1273:1 1283:1 1289:2
1 189:1 439:1 500:1 1181:1 1227:1 1252:1 1260:1 1273:1 1289:2
1 189:1 500:1 1181:1 1227:1 1252:1 1260:1 1289:2
1 189:6 247:2 332:1 439:1 500:2 580:1 672:1 1181:2 1219:1 1224:1 1227:6 1252:2 1253:1 1260:2 1273:1 1283:2 1289:6
1 189:1 236:1 247:1 439:1 500:1 580:1 963:1 1227:1 1248:1 1253:1 1260:1 1272:1 1273:1 1283:1 1289:4
1 189:1 896:2 1227:1 1242:2 1289:2
1 189:1 1227:1 1289:2
1 189:1 1227:1 1289:2
1 189:1 1227:1 1289:3
1 659:1 1280:1 1289:4
1 189:1 439:1 500:1 548:1 576:1 627:1 963:1 1181:1 1223:1 1227:1 1236:1 1248:1 1250:1 1252:1 1260:1 1273:1 1289:2
1 189:1 439:1 500:1 1227:1 1260:1 1273:1 1289:2
1 189:1 439:1 500:1 1227:1 1260:1 1273:1 1289:3
1 189:1 500:1 1227:1 1260:1 1289:2
1 189:1 439:1 500:1 517:1 627:1 1227:1 1236:1 1260:1 1273:1 1279:1 1289:2
1 189:1 500:1 1181:1 1227:1 1252:1 1260:1 1289:2
1 189:1 439:1 500:1 517:1 1227:1 1260:1 1273:1 1279:1 1289:2
1 189:1 500:1 1181:1 1227:1 1252:1 1260:1 1289:2
1 189:1 332:1 439:1 500:1 580:1 627:1 963:1 1181:1 1224:1 1227:1 1236:1 1248:1 1252:1 1253:1 1260:1 1273:1 1289:5
1 189:1 439:1 500:1 627:1 1181:1 1227:1 1236:1 1252:1 1260:1 1273:1 1289:2
1 189:1 332:1 439:1 500:1 580:1 627:1 963:1 1181:1 1224:1 1227:1 1236:1 1248:1 1252:1 1253:1 1260:1 1273:1 1289:4
1 189:4 247:2 332:1 439:1 500:2 580:1 627:1 1181:2 1224:1 1227:4 1236:1 1252:2 1253:1 1260:2 1273:1 1283:2 1289:6
1 189:1 500:1 1227:1 1260:1 1289:2
1 189:1 500:1 1181:1 1227:1 1252:1 1260:1 1289:2
1 189:1 500:1 1227:1 1260:1 1289:2
1 659:1 1280:1 1289:3
1 189:1 500:1 1181:1 1227:1 1252:1 1260:1 1289:2
1 189:1 439:1 500:1 517:1 1227:1 1260:1 1273:1 1279:1 1289:2
1 189:1 439:1 500:1 1227:1 1260:1 1273:1 1289:2
1 189:1 500:1 1181:1 1227:1 1252:1 1260:1 1289:2
1 189:1 332:1 439:1 500:1 627:1 963:1 1181:1 1224:1 1227:1 1236:1 1248:1 1252:1 1260:1 1273:1 1289:3
1 189:1 500:1 517:1 963:1 1181:1 1227:1 1248:1 1252:1 1260:1 1279:1 1289:2
1 1289:3
1 189:1 439:1 500:1 1227:1 1260:1 1273:1 1289:3
1 189:1 247:1 332:1 439:1 500:1 580:1 627:1 672:1 963:1 1181:1 1219:1 1224:1 1227:1 1236:1 1248:1 1252:1 1253:1 1260:1 1273:1 1283:1 1289:4 1291:12
1 659:1 1280:1 1289:4
1 189:1 439:1 1181:1 1227:1 1252:1 1273:1 1289:2
1 189:1 439:1 500:1 1181:1 1227:1 1252:1 1260:1 1273:1 1289:2
1 189:1 439:1 500:1 1181:1 1227:1 1252:1 1260:1 1273:1 1289:2
1 189:1 439:1 500:1 1227:1 1260:1 1273:1 1289:2
1 189:1 500:1 1181:1 1227:1 1252:1 1260:1 1289:2
1 189:1 439:1 500:1 1227:1 1260:1 1273:1 1289:3
1 189:1 500:1 627:1 1227:1 1236:1 1260:1 1289:3
1 189:1 1227:1 1289:2
1 189:1 1227:1 1289:6
1 189:1 500:1 1181:1 1227:1 1252:1 1260:1 1289:2
1 189:1 236:1 500:1 1227:1 1260:1 1272:1 1289:4
1 189:1 332:1 432:1 439:1 500:1 548:1 627:1 672:1 846:1 963:1 1181:1 1219:1 1223:1 1224:1 1227:1 1236:1 1248:1 1252:1 1260:1 1266:1 1267:1 1273:1 1289:3
1 189:1 1227:1 1289:2
1 189:1 236:1 1227:1 1272:1 1289:3
1 189:1 500:1 1181:1 1227:1 1252:1 1260:1 1289:2
1 189:1 439:1 500:1 517:1 743:1 1181:1 1227:1 1231:1 1252:1 1260:1 1273:1 1279:1 1289:2
1 189:1 439:1 500:1 548:1 576:1 627:1 963:1 1181:1 1223:1 1227:1 1236:1 1248:1 1250:1 1252:1 1260:1 1273:1 1289:5
1 189:1 1227:1 1289:2
1 659:1 1280:1 1289:4
1 189:1 439:1 743:1 1181:1 1227:1 1231:1 1252:1 1273:1 1289:2
1 189:1 1227:1 1289:2
1 189:4 247:3 332:1 439:1 500:3 580:1 627:2 963:1 1181:2 1224:1 1227:4 1236:2 1248:1 1252:2 1253:1 1260:3 1273:1 1283:3 1289:4 1291:3
1 189:1 439:1 500:1 1227:1 1260:1 1273:1 1289:2
1 157:1 162:1 189:1 247:1 332:1 439:1 500:1 548:1 576:1 627:1 743:1 963:1 1181:1 1223:1 1224:1 1227:1 1231:1 1236:1 1248:1 1250:1 1252:1 1260:1 1268:1 1271:1 1273:1 1283:1 1289:3
1 189:1 236:1 1227:1 1272:1 1289:6 1291:1
1 189:1 247:1 439:1 500:1 580:1 963:1 1181:1 1227:1 1248:1 1252:1 1253:1 1260:1 1273:1 1283:1 1289:2
1 189:1 500:1 1227:1 1260:1 1289:3
1 189:1 247:1 439:1 500:1 580:1 963:1 1181:1 1227:1 1248:1 1252:1 1253:1 1260:1 1273:1 1283:1 1289:2
1 189:1 896:2 1227:1 1242:2 1289:2
1 189:1 439:1 500:1 576:1 627:1 963:1 1227:1 1236:1 1248:1 1250:1 1260:1 1273:1 1289:2
1 189:1 439:1 500:1 1181:1 1227:1 1252:1 1260:1 1273:1 1289:2
1 189:1 500:1 1181:1 1227:1 1252:1 1260:1 1289:2
1 189:1 500:1 1227:1 1260:1 1289:2
1 189:1 439:1 500:1 517:1 627:1 1181:1 1227:1 1236:1 1252:1 1260:1 1273:1 1279:1 1289:2
1 181:1 189:1 247:1 332:1 439:1 500:1 627:1 657:1 765:1 950:1 963:1 1051:1 1085:1 1183:1 1216:1 1224:1 1226:1 1227:1 1229:1 1236:1 1247:1 1248:1 1254:1 1255:1 1260:1 1273:1 1278:1 1283:1 1289:4
1 189:1 500:1 963:1 1181:1 1227:1 1248:1 1252:1 1260:1 1289:2
1 189:1 439:1 1181:1 1227:1 1252:1 1273:1 1289:2
1 189:1 247:1 332:1 500:1 627:1 672:1 963:1 1219:1 1224:1 1227:1 1236:1 1248:1 1260:1 1283:1 1289:2
1 189:1 439:1 1227:1 1273:1 1289:2
1 189:1 439:1 500:1 548:1 576:1 627:1 963:1 1181:1 1223:1 1227:1 1236:1 1248:1 1250:1 1252:1 1260:1 1273:1 1289:2
1 189:1 247:1 332:1 439:1 500:1 627:1 963:1 1181:1 1224:1 1227:1 1236:1 1248:1 1252:1 1260:1 1273:1 1283:1 1289:2
1 189:1 247:1 439:1 461:1 500:1 627:1 963:1 1181:1 1214:1 1227:1 1236:1 1248:1 1252:1 1260:1 1273:1 1283:1 1289:3
1 189:1 439:1 500:1 1227:1 1260:1 1273:1 1289:3
1 189:1 500:1 743:1 1227:1 1231:1 1260:1 1289:2
1 189:1 500:1 1227:1 1260:1 1289:4
1 189:1 439:1 500:1 576:1 580:1 627:1 672:1 675:1 734:1 880:1 963:1 1181:1 1218:1 1219:1 1225:1 1227:1 1228:1 1236:1 1248:1 1250:1 1252:1 1253:1 1260:1 1273:1 1289:4
1 189:1 332:1 439:1 500:1 627:1 963:1 1181:1 1224:1 1227:1 1236:1 1248:1 1252:1 1260:1 1273:1 1289:3
1 157:1 162:1 189:1 247:1 332:1 439:1 500:1 548:1 576:1 627:1 743:1 963:1 1181:1 1223:1 1224:1 1227:1 1231:1 1236:1 1248:1 1250:1 1252:1 1260:1 1268:1 1271:1 1273:1 1283:1 1289:3
1 189:1 500:1 1227:1 1260:1 1289:2
1 189:1 236:1 500:1 1227:1 1260:1 1272:1 1289:4
1 189:1 500:1 743:1 1227:1 1231:1 1260:1 1289:2
1 189:1 439:1 500:1 576:1 743:1 1181:1 1227:1 1231:1 1250:1 1252:1 1260:1 1273:1 1289:2
1 189:1 500:1 1181:1 1227:1 1252:1 1260:1 1289:3
1 189:1 439:1 500:1 1181:1 1227:1 1252:1 1260:1 1273:1 1289:3
1 1289:3
1 659:1 1280:1 1289:3
1 189:1 1227:1 1289:3
1 189:1 439:1 517:1 1227:1 1273:1 1279:1 1289:2
1 189:1 439:1 517:1 1227:1 1273:1 1279:1 1289:2
1 659:1 1280:1 1289:3
1 189:1 236:1 247:1 332:1 439:1 500:1 627:1 963:1 1224:1 1227:1 1236:1 1248:1 1260:1 1272:1 1273:1 1283:1 1289:2
1 189:1 439:1 500:1 1181:1 1227:1 1252:1 1260:1 1273:1 1289:3
1 189:1 247:1 500:1 576:1 627:1 734:1 837:1 963:1 1120:1 1181:1 1218:1 1227:1 1236:1 1248:1 1250:1 1252:1 1258:1 1260:1 1264:1 1283:1 1289:2 1291:178
1 189:1 332:1 439:1 500:1 627:1 963:1 1181:1 1224:1 1227:1 1236:1 1248:1 1252:1 1260:1 1273:1 1289:3
1 189:1 500:1 1227:1 1260:1 1289:2
1 189:1 439:1 500:1 1181:1 1227:1 1252:1 1260:1 1273:1 1289:3
1 189:1 500:1 1181:1 1227:1 1252:1 1260:1 1289:3
1 189:1 439:1 500:1 1227:1 1260:1 1273:1 1289:2
1 189:1 439:1 517:1 963:1 1181:1 1227:1 1248:1 1252:1 1273:1 1279:1 1289:3
1 189:1 332:1 439:1 500:1 580:1 627:1 963:1 1181:1 1224:1 1227:1 1236:1 1248:1 1252:1 1253:1 1260:1 1273:1 1289:3
1 189:1 439:1 500:1 576:1 743:1 1181:1 1227:1 1231:1 1250:1 1252:1 1260:1 1273:1 1289:2
1 189:1 500:1 1227:1 1260:1 1289:2
1 189:5 197:1 247:2 332:1 439:1 500:3 580:1 627:1 743:1 963:1 1181:2 1224:1 1227:5 1231:1 1235:1 1236:1 1248:1 1252:2 1253:1 1260:3 1273:1 1283:2 1289:3
1 189:1 500:1 1181:1 1227:1 1252:1 1260:1 1289:2
1 189:1 319:1 1227:1 1288:1 1289:1
1 189:1 439:1 500:1 517:1 743:1 1181:1 1227:1 1231:1 1252:1 1260:1 1273:1 1279:1 1289:2
1 189:1 332:1 439:1 500:1 627:1 963:1 1181:1 1224:1 1227:1 1236:1 1248:1 1252:1 1260:1 1273:1 1289:3
1 659:1 1280:1 1289:4
1 189:1 247:1 389:1 439:1 500:1 517:1 548:1 576:1 578:1 580:1 627:1 812:1 818:1 837:1 963:1 987:1 1120:1 1181:1 1223:1 1227:1 1232:1 1233:1 1236:1 1248:1 1250:1 1251:1 1252:1 1253:1 1258:1 1260:1 1264:1 1270:1 1273:1 1279:1 1283:1 1285:1 1289:2 1291:3284
1 189:1 439:1 500:1 1181:1 1227:1 1252:1 1260:1 1273:1 1289:3
1 189:1 439:1 500:1 1181:1 1227:1 1252:1 1260:1 1273:1 1289:2
1 189:1 439:1 500:1 1227:1 1260:1 1273:1 1289:1
1 189:1 439:1 500:1 1227:1 1260:1 1273:1 1289:3
1 189:1 439:1 500:1 517:1 627:1 1227:1 1236:1 1260:1 1273:1 1279:1 1289:2
1 189:4 247:3 332:1 439:1 500:2 580:1 963:1 1181:2 1224:1 1227:4 1248:1 1252:2 1253:1 1260:2 1273:1 1283:3 1289:6
1 189:1 500:1 1227:1 1260:1 1289:2
1 150:1 189:1 326:1 500:1 576:1 837:1 846:1 880:1 1120:1 1181:1 1198:1 1215:1 1225:1 1227:1 1250:1 1252:1 1258:1 1260:1 1262:1 1264:1 1267:1 1274:1 1289:1 1291:17255
1 659:1 1280:1 1289:4
1 189:1 1181:1 1227:1 1252:1 1289:2
1 189:1 439:1 500:1 1227:1 1260:1 1273:1 1289:3
1 189:1 1227:1 1289:2
1 189:1 500:1 627:1 1227:1 1236:1 1260:1 1289:2
1 189:1 1227:1 1289:2
1 189:1 247:1 439:1 500:1 576:1 627:1 672:1 675:1 963:1 1181:1 1219:1 1227:1 1228:1 1236:1 1248:1 1250:1 1252:1 1260:1 1273:1 1283:1 1289:3
1 189:1 439:1 517:1 1227:1 1273:1 1279:1 1289:2
1 189:1 439:1 500:1 1181:1 1227:1 1252:1 1260:1 1273:1 1289:2
1 189:1 1227:1 1289:9
1 181:1 189:1 247:1 500:1 601:1 627:1 657:1 758:1 765:1 829:1 893:1 950:1 963:1 1051:1 1085:1 1181:1 1183:1 1216:1 1226:1 1227:1 1229:1 1236:1 1239:1 1245:1 1247:1 1248:1 1249:1 1252:1 1254:1 1255:1 1260:1 1278:1 1283:1 1286:1 1289:2 1291:5
1 189:1 247:1 439:1 500:1 548:1 672:1 837:1 963:1 1115:1 1181:1 1219:1 1223:1 1227:1 1248:1 1252:1 1256:1 1258:1 1260:1 1273:1 1283:1 1289:2
1 189:1 439:1 500:1 1181:1 1227:1 1252:1 1260:1 1273:1 1289:3
1 189:1 439:1 500:1 1227:1 1260:1 1273:1 1289:2
1 189:1 439:1 963:1 1227:1 1248:1 1273:1 1289:2
1 189:1 500:1 1181:1 1227:1 1252:1 1260:1 1289:2
1 189:1 1227:1 1289:2
1 189:1 500:1 1227:1 1260:1 1289:3
1 189:1 439:1 500:1 1227:1 1260:1 1273:1 1289:3
1 189:1 1227:1 1289:4
1 659:1 1280:1 1289:3
1 150:1 189:1 326:1 500:1 576:1 627:1 837:1 846:1 880:1 963:1 1120:1 1181:1 1198:1 1215:1 1225:1 1227:1 1236:1 1248:1 1250:1 1252:1 1258:1 1260:1 1262:1 1264:1 1267:1 1274:1 1289:2 1291:8535
1 189:1 439:1 1181:1 1227:1 1252:1 1273:1 1289:2
1 189:1 439:1 500:1 1181:1 1227:1 1252:1 1260:1 1273:1 1289:3
1 189:1 500:1 1181:1 1227:1 1252:1 1260:1 1289:2
1 189:1 439:1 517:1 963:1 1181:1 1227:1 1248:1 1252:1 1273:1 1279:1 1289:3
1 189:1 247:1 439:1 500:1 580:1 963:1 1227:1 1248:1 1253:1 1260:1 1273:1 1283:1 1289:3
1 189:1 1227:1 1289:3
1 189:1 500:1 517:1 1227:1 1260:1 1279:1 1289:2
1 659:1 1280:1 1289:4
1 189:1 236:1 247:1 439:1 500:1 580:1 963:1 1227:1 1248:1 1253:1 1260:1 1272:1 1273:1 1283:1 1289:4
1 189:1 500:1 1181:1 1227:1 1252:1 1260:1 1289:2
1 189:1 247:1 332:1 500:1 627:1 672:1 963:1 1219:1 1224:1 1227:1 1236:1 1248:1 1260:1 1283:1 1289:2
1 189:1 1227:1 1289:2
1 189:1 439:1 500:1 517:1 627:1 743:1 1181:1 1227:1 1231:1 1236:1 1252:1 1260:1 1273:1 1279:1 1289:2
1 189:1 500:1 963:1 1227:1 1248:1 1260:1 1289:3
1 189:1 439:1 1227:1 1273:1 1289:2
1 189:1 500:1 743:1 1227:1 1231:1 1260:1 1289:2
1 189:1 236:1 261:1 332:1 439:1 500:1 580:1 1181:1 1220:1 1224:1 1227:1 1252:1 1253:1 1260:1 1272:1 1273:1 1289:4
1 189:1 339:1 461:1 500:1 517:1 580:1 734:1 1181:1 1214:1 1218:1 1227:1 1237:1 1252:1 1253:1 1260:1 1279:1 1289:2 1291:13
1 189:1 439:1 1227:1 1273:1 1289:2
1 189:4 247:2 332:1 439:1 500:2 580:1 1181:2 1224:1 1227:4 1252:2 1253:1 1260:2 1273:1 1283:2 1289:6
1 189:1 236:1 247:1 332:1 439:1 500:1 627:1 963:1 1224:1 1227:1 1236:1 1248:1 1260:1 1272:1 1273:1 1283:1 1289:3
1 189:1 439:1 500:1 548:1 576:1 627:1 963:1 1181:1 1223:1 1227:1 1236:1 1248:1 1250:1 1252:1 1260:1 1273:1 1289:2
1 189:1 439:1 500:1 517:1 743:1 1181:1 1227:1 1231:1 1252:1 1260:1 1273:1 1279:1 1289:2
1 189:1 439:1 500:1 963:1 1181:1 1227:1 1248:1 1252:1 1260:1 1273:1 1289:2
1 189:1 236:1 1227:1 1272:1 1289:5 1291:1
1 189:1 439:1 500:1 1227:1 1260:1 1273:1 1289:2
1 659:1 1280:1 1289:4
1 189:1 500:1 517:1 1227:1 1260:1 1279:1 1289:2
1 189:1 439:1 500:1 517:1 1227:1 1260:1 1273:1 1279:1 1289:2
1 189:1 439:1 500:1 1227:1 1260:1 1273:1 1289:2
1 189:1 500:1 1227:1 1260:1 1289:2
1 189:1 439:1 500:1 1227:1 1260:1 1273:1 1289:3
1 150:1 189:1 326:1 500:1 576:1 837:1 846:1 880:1 1120:1 1181:1 1198:1 1215:1 1225:1 1227:1 1250:1 1252:1 1258:1 1260:1 1262:1 1264:1 1267:1 1274:1 1289:2 1291:17431
1 189:1 332:1 439:1 500:1 627:1 963:1 1181:1 1224:1 1227:1 1236:1 1248:1 1252:1 1260:1 1273:1 1289:2
1 189:1 439:1 1181:1 1227:1 1252:1 1273:1 1289:3
1 189:4 247:3 332:1 439:1 500:2 580:1 963:2 1120:1 1181:2 1224:1 1227:4 1248:2 1252:2 1253:1 1260:2 1264:1 1273:1 1283:3 1289:7
1 189:1 439:1 500:1 1227:1 1260:1 1273:1 1289:3
1 189:1 236:1 247:1 332:1 439:1 500:1 627:1 963:1 1224:1 1227:1 1236:1 1248:1 1260:1 1272:1 1273:1 1283:1 1289:2
1 659:1 1280:1 1289:4
1 157:1 162:1 189:1 247:1 332:1 439:1 500:1 548:1 576:1 578:1 627:1 743:1 856:1 963:1 1115:1 1181:1 1223:1 1224:1 1227:1 1231:1 1236:1 1248:1 1250:1 1251:1 1252:1 1256:1 1260:1 1268:1 1271:1 1273:1 1277:1 1283:1 1289:4
1 189:1 439:1 500:1 1227:1 1260:1 1273:1 1289:3
1 189:1 500:1 1227:1 1260:1 1289:2
1 189:1 1227:1 1289:4
1 189:1 500:1 627:1 963:1 1181:1 1227:1 1236:1 1248:1 1252:1 1260:1 1289:4
1 189:1 500:1 963:1 1227:1 1248:1 1260:1 1289:3
1 189:1 439:1 500:1 576:1 580:1 627:1 672:1 675:1 734:1 880:1 963:1 1181:1 1218:1 1219:1 1225:1 1227:1 1228:1 1236:1 1248:1 1250:1 1252:1 1253:1 1260:1 1273:1 1289:3
1 189:1 500:1 1181:1 1227:1 1252:1 1260:1 1289:2
1 659:1 1280:1 1289:3
1 189:1 500:1 1227:1 1260:1 1289:2
1 189:1 332:1 439:1 500:1 627:1 963:1 1181:1 1224:1 1227:1 1236:1 1248:1 1252:1 1260:1 1273:1 1289:4
1 189:1 439:1 500:1 517:1 743:1 963:1 1181:1 1227:1 1231:1 1248:1 1252:1 1260:1 1273:1 1279:1 1289:3
1 189:1 500:1 1227:1 1260:1 1289:3
1 189:1 500:1 627:1 963:1 1181:1 1227:1 1236:1 1248:1 1252:1 1260:1 1289:4
1 189:1 439:1 500:1 517:1 743:1 963:1 1181:1 1227:1 1231:1 1248:1 1252:1 1260:1 1273:1 1279:1 1289:2
1 189:1 1227:1 1289:2
1 659:1 1280:1 1289:3
1 189:1 500:1 627:1 963:1 1181:1 1227:1 1236:1 1248:1 1252:1 1260:1 1289:2
1 189:1 500:1 963:1 1227:1 1248:1 1260:1 1289:2
1 189:1 439:1 500:1 517:1 743:1 963:1 1181:1 1227:1 1231:1 1248:1 1252:1 1260:1 1273:1 1279:1 1289:3
1 189:1 500:1 743:1 1181:1 1227:1 1231:1 1252:1 1260:1 1289:2
1 189:1 1227:1 1289:2
1 189:1 500:1 1181:1 1227:1 1252:1 1260:1 1289:2
1 189:1 439:1 1227:1 1273:1 1289:2
1 189:1 1227:1 1289:2
1 189:1 439:1 1227:1 1273:1 1289:3
1 189:1 439:1 500:1 1181:1 1227:1 1252:1 1260:1 1273:1 1289:2
1 189:1 439:1 500:1 1181:1 1227:1 1252:1 1260:1 1273:1 1289:3
1 189:1 1227:1 1289:2
1 189:1 439:1 500:1 548:1 576:1 627:1 963:1 1181:1 1223:1 1227:1 1236:1 1248:1 1250:1 1252:1 1260:1 1273:1 1289:2
1 189:1 236:1 247:1 293:1 332:1 439:1 445:1 500:1 517:1 580:1 627:1 672:1 963:1 1181:1 1219:1 1224:1 1227:1 1236:1 1248:1 1252:1 1253:1 1260:1 1261:1 1272:1 1273:1 1279:1 1282:1 1283:1 1289:4 1291:3
1 189:1 500:1 1227:1 1260:1 1289:2
1 189:1 439:1 517:1 963:1 1181:1 1227:1 1248:1 1252:1 1273:1 1279:1 1289:3
1 659:1 1280:1 1289:4
1 189:1 500:1 1227:1 1260:1 1289:2
1 189:1 500:1 1227:1 1260:1 1289:2
1 189:1 500:1 1181:1 1227:1 1252:1 1260:1 1289:2
1 189:6 247:3 332:1 439:1 500:2 580:1 743:1 963:1 1181:2 1224:1 1227:6 1231:1 1248:1 1252:2 1253:1 1260:2 1273:1 1283:3 1289:5
1 189:1 500:1 743:1 1227:1 1231:1 1260:1 1289:2
1 189:1 439:1 500:1 517:1 743:1 963:1 1181:1 1227:1 1231:1 1248:1 1252:1 1260:1 1273:1 1279:1 1289:2
1 189:1 1227:1 1289:2
1 189:1 500:1 627:1 1227:1 1236:1 1260:1 1289:3
1 189:4 247:3 332:1 439:1 500:2 580:1 963:1 1181:2 1224:1 1227:4 1248:1 1252:2 1253:1 1260:2 1273:1 1283:3 1289:7
1 189:1 236:1 439:1 500:1 963:1 1227:1 1248:1 1260:1 1272:1 1273:1 1289:4
1 189:1 439:1 500:1 1181:1 1227:1 1252:1 1260:1 1273:1 1289:2
1 189:1 500:1 1181:1 1227:1 1252:1 1260:1 1289:2
1 189:1 439:1 517:1 963:1 1181:1 1227:1 1248:1 1252:1 1273:1 1279:1 1289:2
1 189:1 440:1 1181:1 1227:1 1252:1 1275:1 1289:2
1 189:1 439:1 500:1 517:1 1227:1 1260:1 1273:1 1279:1 1289:2
1 189:1 247:1 332:1 439:1 500:1 627:1 963:1 1181:1 1224:1 1227:1 1236:1 1248:1 1252:1 1260:1 1273:1 1283:1 1289:2
1 189:1 1227:1 1289:2
1 659:1 1280:1 1289:5
1 189:4 236:1 237:1 247:3 332:1 439:1 500:3 576:1 580:1 627:1 672:1 743:1 963:1 1181:2 1219:1 1224:1 1227:4 1231:1 1236:1 1248:1 1250:1 1252:2 1253:1 1260:3 1272:1 1273:1 1276:1 1283:3 1289:5
1 189:1 439:1 500:1 1227:1 1260:1 1273:1 1289:2
1 189:1 500:1 1227:1 1260:1 1289:3
1 157:1 162:1 189:1 247:1 332:1 439:1 500:1 548:1 576:1 578:1 627:1 743:1 856:1 963:1 1115:1 1181:1 1223:1 1224:1 1227:1 1231:1 1236:1 1248:1 1250:1 1251:1 1252:1 1256:1 1260:1 1268:1 1271:1 1273:1 1277:1 1283:1 1289:4
1 189:1 439:1 500:1 1181:1 1227:1 1252:1 1260:1 1273:1 1289:2
1 189:1 1227:1 1289:2
1 189:1 500:1 627:1 1181:1 1227:1 1236:1 1252:1 1260:1 1289:7
1 189:1 439:1 500:1 1181:1 1227:1 1252:1 1260:1 1273:1 1289:2
1 148:1 189:1 417:1 657:1 758:1 765:1 829:1 893:1 950:1 1051:1 1085:1 1183:1 1226:1 1227:1 1229:1 1239:1 1245:1 1246:1 1247:1 1249:1 1254:1 1255:1 1257:1 1278:1 1289:5
1 189:1 439:1 672:1 1181:1 1219:1 1227:1 1252:1 1273:1 1289:3
1 189:1 332:1 439:1 500:1 627:1 963:1 1181:1 1224:1 1227:1 1236:1 1248:1 1252:1 1260:1 1273:1 1289:4
1 189:1 439:1 500:1 1227:1 1260:1 1273:1 1289:3
1 189:1 332:1 439:1 500:1 1181:1 1224:1 1227:1 1252:1 1260:1 1273:1 1289:2
1 189:1 439:1 500:1 1227:1 1260:1 1273:1 1289:2
1 189:1 439:1 500:1 627:1 1227:1 1236:1 1260:1 1273:1 1289:2
1 189:1 500:1 1227:1 1260:1 1289:2
1 659:1 1280:1 1289:3
1 659:1 1280:1 1289:2
1 189:1 439:1 500:1 1227:1 1260:1 1273:1 1289:2
1 659:1 1280:1 1289:3
1 189:1 1227:1 1289:2
1 189:1 500:1 963:1 1227:1 1248:1 1260:1 1289:3
1 189:1 439:1 500:1 576:1 580:1 627:1 672:1 675:1 734:1 880:1 963:1 1181:1 1218:1 1219:1 1225:1 1227:1 1228:1 1236:1 1248:1 1250:1 1252:1 1253:1 1260:1 1273:1 1289:4
1 189:1 1227:1 1289:3
1 189:1 1227:1 1289:6
1 189:1 439:1 1181:1 1227:1 1252:1 1273:1 1289:3
1 189:1 332:1 439:1 500:1 580:1 627:1 963:1 1181:1 1224:1 1227:1 1236:1 1248:1 1252:1 1253:1 1260:1 1273:1 1289:3
1 189:1 578:1 1227:1 1251:1 1289:3
1 189:1 439:1 500:1 627:1 1227:1 1236:1 1260:1 1273:1 1289:2
1 189:1 439:1 500:1 672:1 1181:1 1219:1 1227:1 1252:1 1260:1 1273:1 1289:2
1 189:1 236:1 1227:1 1272:1 1289:3
1 189:1 1227:1 1289:3
1 189:1 332:1 439:1 500:1 627:1 963:1 1181:1 1224:1 1227:1 1236:1 1248:1 1252:1 1260:1 1273:1 1289:4
1 189:1 500:1 963:1 1181:1 1227:1 1248:1 1252:1 1260:1 1289:2
1 189:1 439:1 500:1 1227:1 1260:1 1273:1 1289:3
1 189:1 500:1 1227:1 1260:1 1289:2
1 189:1 439:1 500:1 576:1 627:1 963:1 1227:1 1236:1 1248:1 1250:1 1260:1 1273:1 1289:2
1 189:1 500:1 1181:1 1227:1 1252:1 1260:1 1289:2
1 189:1 439:1 1181:1 1227:1 1252:1 1273:1 1289:3
1 189:1 439:1 500:1 1227:1 1260:1 1273:1 1289:3
1 189:1 500:1 1227:1 1260:1 1289:2
1 189:1 1227:1 1289:2
1 659:1 1280:1 1289:3
1 659:1 1280:1 1289:4
1 189:1 339:1 500:1 1227:1 1237:1 1260:1 1289:2
1 189:1 236:1 247:1 439:1 500:1 963:1 1227:1 1248:1 1260:1 1272:1 1273:1 1283:1 1289:4
1 189:1 500:1 1227:1 1260:1 1289:2
1 189:1 439:1 1181:1 1227:1 1252:1 1273:1 1289:2
1 189:1 439:1 500:1 1227:1 1260:1 1273:1 1289:3
1 189:1 1227:1 1289:3
1 189:1 332:1 439:1 500:1 627:1 963:1 1181:1 1224:1 1227:1 1236:1 1248:1 1252:1 1260:1 1273:1 1289:3
1 189:1 439:1 500:1 517:1 743:1 1181:1 1227:1 1231:1 1252:1 1260:1 1273:1 1279:1 1289:2
1 189:1 1227:1 1289:3
1 659:1 1280:1 1289:3
1 189:1 439:1 500:1 576:1 743:1 1181:1 1227:1 1231:1 1250:1 1252:1 1260:1 1273:1 1289:2
1 189:1 439:1 500:1 1227:1 1260:1 1273:1 1289:2
1 189:1 1227:1 1289:3
1 157:1 162:1 189:1 247:1 332:1 439:1 500:1 548:1 576:1 627:1 743:1 963:1 1181:1 1223:1 1224:1 1227:1 1231:1 1236:1 1248:1 1250:1 1252:1 1260:1 1268:1 1271:1 1273:1 1283:1 1289:3
1 659:1 1280:1 1289:3
1 189:1 1227:1 1289:7
1 189:1 439:1 1181:1 1227:1 1252:1 1273:1 1289:2
1 189:1 236:1 261:1 332:1 439:1 500:1 580:1 1181:1 1220:1 1224:1 1227:1 1252:1 1253:1 1260:1 1272:1 1273:1 1289:4
1 189:1 439:1 500:1 1227:1 1260:1 1273:1 1289:4
1 189:1 500:1 743:1 1227:1 1231:1 1260:1 1289:2
1 189:3 500:1 627:1 734:1 1181:1 1218:1 1227:3 1236:1 1252:1 1260:1 1289:7
1 189:1 500:1 1181:1 1227:1 1252:1 1260:1 1289:2
1 659:1 1280:1 1289:4
1 189:1 1227:1 1289:3
1 189:1 332:1 439:1 500:1 576:1 627:1 743:1 963:1 1224:1 1227:1 1231:1 1236:1 1248:1 1250:1 1260:1 1273:1 1289:2
1 189:1 247:1 439:1 500:1 580:1 963:1 1181:1 1227:1 1248:1 1252:1 1253:1 1260:1 1273:1 1283:1 1289:2
1 189:1 439:1 1227:1 1273:1 1289:2
1 189:4 247:1 332:1 439:1 500:2 627:1 1181:2 1224:1 1227:4 1236:1 1252:2 1260:2 1273:1 1283:1 1289:7
1 189:1 439:1 500:1 1227:1 1260:1 1273:1 1289:2
1 189:1 500:1 1181:1 1227:1 1252:1 1260:1 1289:2
1 189:1 500:1 1227:1 1260:1 1289:2
1 189:1 439:1 1227:1 1273:1 1289:2
1 189:1 439:1 500:1 1181:1 1227:1 1252:1 1260:1 1273:1 1289:2
1 189:1 236:1 1227:1 1272:1 1289:3
1 189:1 379:1 500:1 544:1 548:1 627:1 734:1 1181:1 1218:1 1222:1 1223:1 1227:1 1236:1 1252:1 1260:1 1281:1 1289:2
1 189:1 500:1 1181:1 1227:1 1252:1 1260:1 1289:2
1 189:1 439:1 500:1 548:1 576:1 627:1 963:1 1181:1 1223:1 1227:1 1236:1 1248:1 1250:1 1252:1 1260:1 1273:1 1289:2
1 150:1 189:1 326:1 500:1 576:1 627:1 837:1 846:1 880:1 963:1 1120:1 1181:1 1198:1 1215:1 1225:1 1227:1 1236:1 1248:1 1250:1 1252:1 1258:1 1260:1 1262:1 1264:1 1267:1 1274:1 1289:1 1291:8637
1 189:1 439:1 500:1 576:1 580:1 627:1 672:1 675:1 734:1 880:1 963:1 1181:1 1218:1 1219:1 1225:1 1227:1 1228:1 1236:1 1248:1 1250:1 1252:1 1253:1 1260:1 1273:1 1289:4
1 189:1 439:1 500:1 548:1 576:1 627:1 963:1 1181:1 1223:1 1227:1 1236:1 1248:1 1250:1 1252:1 1260:1 1273:1 1289:2
1 189:1 439:1 500:1 1181:1 1227:1 1252:1 1260:1 1273:1 1289:2
1 189:1 500:1 1181:1 1227:1 1252:1 1260:1 1289:2
1 189:1 500:1 1227:1 1260:1 1289:2
1 189:1 439:1 500:1 517:1 743:1 963:1 1181:1 1227:1 1231:1 1248:1 1252:1 1260:1 1273:1 1279:1 1289:3
1 189:1 339:1 439:1 500:1 548:1 576:1 627:1 963:1 1181:1 1223:1 1227:1 1236:1 1237:1 1248:1 1250:1 1252:1 1260:1 1273:1 1289:3
1 189:1 247:1 332:1 439:1 445:1 500:1 576:1 580:1 627:1 672:1 675:1 734:1 963:1 1181:1 1218:1 1219:1 1224:1 1227:1 1228:1 1236:1 1248:1 1250:1 1252:1 1253:1 1260:1 1273:1 1282:1 1283:1 1289:4 1291:1737
1 189:1 500:1 1181:1 1227:1 1252:1 1260:1 1289:2
1 189:5 247:3 332:1 439:1 500:2 580:1 963:1 1120:1 1181:2 1224:1 1227:5 1248:1 1252:2 1253:1 1260:2 1264:1 1273:1 1283:3 1289:7
1 189:1 500:1 1227:1 1260:1 1289:2
1 189:1 439:1 500:1 963:1 1181:1 1227:1 1248:1 1252:1 1260:1 1273:1 1289:2
1 189:1 439:1 1227:1 1273:1 1289:2
1 189:1 439:1 1227:1 1273:1 1289:2
1 189:1 247:1 332:1 439:1 461:1 500:1 548:1 627:1 672:1 701:1 837:1 963:1 1120:1 1181:1 1214:1 1219:1 1223:1 1224:1 1227:1 1236:1 1248:1 1252:1 1258:1 1260:1 1263:1 1264:1 1273:1 1283:1 1289:1
1 189:1 247:1 439:1 461:1 500:1 627:1 963:1 1181:1 1214:1 1227:1 1236:1 1248:1 1252:1 1260:1 1273:1 1283:1 1289:3
1 162:1 189:1 247:1 1227:1 1271:1 1283:1 1289:2
1 189:1 247:1 500:1 576:1 627:1 734:1 837:1 963:1 1120:1 1181:1 1218:1 1227:1 1236:1 1248:1 1250:1 1252:1 1258:1 1260:1 1264:1 1283:1 1289:2 1291:178
1 659:1 1280:1 1289:5
1 189:1 439:1 500:1 517:1 743:1 963:1 1181:1 1227:1 1231:1 1248:1 1252:1 1260:1 1273:1 1279:1 1289:3
1 189:1 439:1 500:1 517:1 627:1 743:1 1181:1 1227:1 1231:1 1236:1 1252:1 1260:1 1273:1 1279:1 1289:2
1 189:1 439:1 500:1 1181:1 1227:1 1252:1 1260:1 1273:1 1289:2
1 189:1 236:1 247:1 439:1 500:1 963:1 1227:1 1248:1 1260:1 1272:1 1273:1 1283:1 1289:4
1 659:1 1280:1 1289:3
1 189:1 439:1 500:1 1181:1 1227:1 1252:1 1260:1 1273:1 1289:2
1 189:1 500:1 517:1 1227:1 1260:1 1279:1 1289:2
1 189:1 247:1 332:1 500:1 627:1 672:1 963:1 1219:1 1224:1 1227:1 1236:1 1248:1 1260:1 1283:1 1289:2
1 189:1 439:1 500:1 1181:1 1227:1 1252:1 1260:1 1273:1 1289:2
1 189:1 500:1 517:1 963:1 1181:1 1227:1 1248:1 1252:1 1260:1 1279:1 1289:2
1 189:1 500:1 1227:1 1260:1 1289:2
1 189:1 439:1 500:1 517:1 743:1 1227:1 1231:1 1260:1 1273:1 1279:1 1289:2
1 189:1 439:1 500:1 576:1 580:1 627:1 672:1 675:1 734:1 880:1 963:1 1181:1 1218:1 1219:1 1225:1 1227:1 1228:1 1236:1 1248:1 1250:1 1252:1 1253:1 1260:1 1273:1 1289:3
1 189:1 500:1 963:1 1227:1 1248:1 1260:1 1289:3
1 189:1 500:1 1227:1 1260:1 1289:2
1 189:1 1227:1 1289:7
1 659:1 1280:1 1289:4
1 189:1 500:1 1181:1 1227:1 1252:1 1260:1 1289:2
1 189:3 439:1 500:2 576:1 627:1 963:1 1227:3 1236:1 1248:1 1250:1 1260:2 1273:1 1289:5
1 189:1 439:1 500:1 576:1 627:1 963:1 1227:1 1236:1 1248:1 1250:1 1260:1 1273:1 1289:2
1 189:1 500:1 517:1 963:1 1181:1 1227:1 1248:1 1252:1 1260:1 1279:1 1289:2
1 189:1 332:1 439:1 500:1 627:1 963:1 1181:1 1224:1 1227:1 1236:1 1248:1 1252:1 1260:1 1273:1 1289:4
1 189:1 439:1 500:1 627:1 1181:1 1227:1 1236:1 1252:1 1260:1 1273:1 1289:2
1 189:1 439:1 500:1 1227:1 1260:1 1273:1 1289:3
1 189:1 500:1 1227:1 1260:1 1289:2
1 189:1 439:1 1227:1 1273:1 1289:2
1 659:1 1280:1 1289:3
1 189:1 247:1 439:1 461:1 500:1 627:1 963:1 1181:1 1214:1 1227:1 1236:1 1248:1 1252:1 1260:1 1273:1 1283:1 1289:3
1 189:1 439:1 500:1 1227:1 1260:1 1273:1 1289:1
1 189:1 439:1 500:1 1181:1 1227:1 1252:1 1260:1 1273:1 1289:3
1 189:1 439:1 1227:1 1273:1 1289:2
1 659:1 1280:1 1289:4
1 189:1 197:1 202:1 247:1 293:1 332:1 439:1 500:1 548:1 576:1 580:1 627:1 672:1 880:1 938:1 963:1 1181:1 1219:1 1223:1 1224:1 1225:1 1227:1 1235:1 1236:1 1244:1 1248:1 1250:1 1252:1 1253:1 1260:1 1261:1 1273:1 1283:1 1287:1 1289:2 1291:10907
1 189:1 500:1 963:1 1227:1 1248:1 1260:1 1289:3
1 189:1 439:1 500:1 1227:1 1260:1 1273:1 1289:2
1 659:1 1280:1 1289:5
1 659:1 1280:1 1289:3
1 189:1 439:1 1227:1 1273:1 1289:2
1 189:1 500:1 963:1 1227:1 1248:1 1260:1 1289:4
1 189:4 247:3 332:1 439:1 500:2 580:1 963:1 1181:2 1224:1 1227:4 1248:1 1252:2 1253:1 1260:2 1273:1 1283:3 1289:5
1 189:1 332:1 439:1 500:1 627:1 963:1 1181:1 1224:1 1227:1 1236:1 1248:1 1252:1 1260:1 1273:1 1289:3
1 189:1 439:1 500:1 517:1 627:1 743:1 1181:1 1227:1 1231:1 1236:1 1252:1 1260:1 1273:1 1279:1 1289:2
1 189:1 236:1 971:1 1143:1 1181:1 1227:1 1252:1 1265:1 1272:1 1284:1 1289:5
1 189:1 332:1 439:1 500:1 627:1 963:1 1181:1 1224:1 1227:1 1236:1 1248:1 1252:1 1260:1 1273:1 1289:2
1 189:1 439:1 500:1 1181:1 1227:1 1252:1 1260:1 1273:1 1289:2
1 189:1 1227:1 1289:2
1 189:1 439:1 500:1 1181:1 1227:1 1252:1 1260:1 1273:1 1289:3
1 189:1 247:1 439:1 500:1 580:1 963:1 1181:1 1227:1 1248:1 1252:1 1253:1 1260:1 1273:1 1283:1 1289:2
1 189:1 500:1 743:1 1227:1 1231:1 1260:1 1289:2
1 189:1 332:1 439:1 500:1 580:1 627:1 963:1 1181:1 1224:1 1227:1 1236:1 1248:1 1252:1 1253:1 1260:1 1273:1 1289:5
1 189:1 500:1 1227:1 1260:1 1289:2
1 189:1 439:1 500:1 1181:1 1227:1 1252:1 1260:1 1273:1 1289:2
1 189:1 439:1 500:1 627:1 1227:1 1236:1 1260:1 1273:1 1289:2
1 189:1 500:1 1227:1 1260:1 1289:2
1 189:1 500:1 1227:1 1260:1 1289:2
1 189:1 439:1 500:1 1181:1 1227:1 1252:1 1260:1 1273:1 1289:3
1 189:1 332:1 439:1 500:1 627:1 963:1 1181:1 1224:1 1227:1 1236:1 1248:1 1252:1 1260:1 1273:1 1289:4
1 189:1 236:1 261:1 332:1 439:1 500:1 580:1 1181:1 1220:1 1224:1 1227:1 1252:1 1253:1 1260:1 1272:1 1273:1 1289:4
1 189:1 236:1 261:1 332:1 439:1 500:1 580:1 1181:1 1220:1 1224:1 1227:1 1252:1 1253:1 1260:1 1272:1 1273:1 1289:4
1 659:1 1280:1 1289:3
1 659:1 1280:1 1289:3
1 189:1 500:1 1181:1 1227:1 1252:1 1260:1 1289:2
1 189:1 439:1 500:1 548:1 576:1 627:1 963:1 1181:1 1223:1 1227:1 1236:1 1248:1 1250:1 1252:1 1260:1 1273:1 1289:2
1 189:1 439:1 1227:1 1273:1 1289:2
1 189:1 439:1 500:1 672:1 1219:1 1227:1 1260:1 1273:1 1289:3
1 189:1 439:1 500:1 548:1 576:1 627:1 963:1 1181:1 1223:1 1227:1 1236:1 1248:1 1250:1 1252:1 1260:1 1273:1 1289:5
1 189:1 236:1 247:1 332:1 439:1 500:1 627:1 963:1 1224:1 1227:1 1236:1 1248:1 1260:1 1272:1 1273:1 1283:1 1289:2
1 189:1 500:1 1227:1 1260:1 1289:2
1 189:1 500:1 1227:1 1260:1 1289:2
1 1289:3
1 189:1 247:1 389:1 439:1 500:1 517:1 548:1 576:1 578:1 580:1 627:1 812:1 818:1 837:1 963:1 987:1 1120:1 1181:1 1223:1 1227:1 1232:1 1233:1 1236:1 1248:1 1250:1 1251:1 1252:1 1253:1 1258:1 1260:1 1264:1 1270:1 1273:1 1279:1 1283:1 1285:1 1289:2 1291:59
1 659:1 1280:1 1289:5
1 189:1 439:1 1227:1 1273:1 1289:2
1 189:1 439:1 500:1 1181:1 1227:1 1252:1 1260:1 1273:1 1289:2
1 189:1 500:1 1181:1 1227:1 1252:1 1260:1 1289:2
1 189:1 439:1 500:1 1227:1 1260:1 1273:1 1289:3
1 1289:2
1 189:1 332:1 439:1 500:1 627:1 963:1 1181:1 1224:1 1227:1 1236:1 1248:1 1252:1 1260:1 1273:1 1289:3
1 189:1 439:1 500:1 548:1 576:1 627:1 963:1 1181:1 1223:1 1227:1 1236:1 1248:1 1250:1 1252:1 1260:1 1273:1 1289:2
1 189:1 439:1 500:1 517:1 743:1 963:1 1181:1 1227:1 1231:1 1248:1 1252:1 1260:1 1273:1 1279:1 1289:2
1 189:1 500:1 517:1 963:1 1181:1 1227:1 1248:1 1252:1 1260:1 1279:1 1289:2
1 659:1 1280:1 1289:4
1 189:1 440:1 1181:1 1227:1 1252:1 1275:1 1289:2
1 189:1 500:1 1181:1 1227:1 1252:1 1260:1 1289:2
1 189:1 500:1 517:1 1181:1 1227:1 1252:1 1260:1 1279:1 1289:2
1 189:1 500:1 743:1 1227:1 1231:1 1260:1 1289:2
1 189:1 439:1 500:1 517:1 1227:1 1260:1 1273:1 1279:1 1289:2
1 189:1 439:1 500:1 548:1 576:1 627:1 963:1 1181:1 1223:1 1227:1 1236:1 1248:1 1250:1 1252:1 1260:1 1273:1 1289:2
1 189:1 500:1 1227:1 1260:1 1289:2
1 189:1 439:1 1181:1 1227:1 1252:1 1273:1 1289:2
1 659:1 1280:1 1289:4
1 189:1 1227:1 1289:6
1 189:1 439:1 500:1 1181:1 1227:1 1252:1 1260:1 1273:1 1289:2
1 189:1 500:1 743:1 1227:1 1231:1 1260:1 1289:2
1 189:1 236:1 261:1 332:1 439:1 500:1 580:1 1181:1 1220:1 1224:1 1227:1 1252:1 1253:1 1260:1 1272:1 1273:1 1289:4
1 659:1 1280:1 1289:3
1 189:1 439:1 500:1 1181:1 1227:1 1252:1 1260:1 1273:1 1289:3
1 189:1 439:1 500:1 1181:1 1227:1 1252:1 1260:1 1273:1 1289:2
1 659:1 1280:1 1289:4
1 189:1 1227:1 1289:3
1 189:1 439:1 500:1 517:1 743:1 1227:1 1231:1 1260:1 1273:1 1279:1 1289:2
1 189:1 1227:1 1289:3
1 189:1 439:1 500:1 517:1 743:1 1181:1 1227:1 1231:1 1252:1 1260:1 1273:1 1279:1 1289:2
1 162:1 189:1 247:1 332:1 339:1 439:1 500:1 547:1 548:1 576:1 580:1 627:1 734:1 837:1 846:1 856:1 880:1 963:1 1120:1 1181:1 1218:1 1223:1 1224:1 1225:1 1227:1 1236:1 1237:1 1240:1 1248:1 1250:1 1252:1 1253:1 1258:1 1260:1 1264:1 1267:1 1271:1 1273:1 1277:1 1283:1 1289:2 1291:18
1 189:1 500:1 627:1 963:1 1227:1 1236:1 1248:1 1260:1 1289:2
1 189:1 500:1 734:1 1181:1 1218:1 1227:1 1252:1 1260:1 1289:5
1 189:1 247:1 293:1 332:1 500:1 580:1 1181:1 1224:1 1227:1 1252:1 1253:1 1260:1 1261:1 1283:1 1289:4 1291:3
1 189:1 500:1 743:1 1227:1 1231:1 1260:1 1289:2
1 189:1 439:1 500:1 963:1 1227:1 1248:1 1260:1 1273:1 1289:2
1 189:1 1227:1 1289:2
1 189:1 500:1 1181:1 1227:1 1252:1 1260:1 1289:2
1 189:1 439:1 963:1 1181:1 1227:1 1248:1 1252:1 1273:1 1289:2
1 659:1 1280:1 1289:5
-1 189:1 399:1 1227:1 1289:1
-1 189:1 399:1 1227:1 1289:1
-1 189:1 399:1 1227:1 1289:1
-1 189:1 399:1 1227:1 1289:1
-1 189:1 399:1 1227:1 1289:1
-1 189:1 399:1 1227:1 1289:1
-1 189:1 399:1 1227:1 1289:1
-1 189:1 399:1 1227:1 1289:1
-1 189:1 399:1 1227:1 1289:1
-1 189:1 236:1 439:1 500:1 627:1 837:1 1074:1 1120:1 1181:1 1227:1 1236:1 1252:1 1258:1 1260:1 1264:1 1272:1 1273:1 1289:2
-1 189:1 399:1 1227:1 1289:1
-1 189:1 399:1 1227:1 1289:1
-1 189:1 399:1 1227:1 1289:1
-1 189:1 399:1 439:1 500:1 987:1 1227:1 1260:1 1270:1 1273:1 1289:1
-1 189:1 399:1 1227:1 1289:1
-1 189:1 399:1 1227:1 1289:1
-1 189:1 399:1 474:1 1227:1 1289:1
-1 189:1 399:1 1227:1 1289:1
-1 189:1 399:1 1227:1 1289:1
-1 189:1 399:1 1227:1 1289:1
-1 189:1 399:1 1227:1 1289:1
-1 189:1 399:1 1227:1 1289:1
-1 189:1 399:1 474:1 996:1 1227:1 1289:1
-1 189:1 399:1 474:1 996:1 1227:1 1289:1
-1 189:1 399:1 474:1 1227:1 1289:1
-1 189:1 399:1 1227:1 1289:1
-1 189:1 332:1 439:1 500:1 548:1 627:1 760:1 905:1 987:1 1181:1 1223:1 1224:1 1227:1 1236:1 1252:1 1260:1 1270:1 1273:1 1289:2
-1 189:1 399:1 1111:1 1227:1 1289:2
-1 189:1 296:1 331:1 544:1 576:1 781:1 905:1 942:1 987:1 1222:1 1227:1 1250:1 1270:1 1289:1 1291:1
-1 189:1 236:1 500:1 627:1 963:1 1181:1 1227:1 1236:1 1248:1 1252:1 1260:1 1272:1 1289:3
-1 189:1 247:1 500:1 1227:1 1260:1 1283:1 1289:4
-1 189:1 236:1 247:1 500:1 1181:1 1227:1 1252:1 1260:1 1272:1 1283:1 1289:2
-1 189:1 236:1 247:1 332:1 439:1 445:1 500:1 627:1 672:1 963:1 1181:1 1219:1 1224:1 1227:1 1236:1 1248:1 1252:1 1260:1 1272:1 1273:1 1282:1 1283:1 1289:3
-1 189:1 236:1 247:1 332:1 500:1 627:1 672:1 963:1 1181:1 1219:1 1224:1 1227:1 1236:1 1248:1 1252:1 1260:1 1272:1 1283:1 1289:4
-1 659:1 1280:1 1289:3
-1 659:1 1280:1 1289:3
-1 135:1 152:1 189:1 247:1 439:1 446:1 500:1 627:1 846:1 963:1 993:1 1095:1 1153:1 1181:1 1227:1 1236:1 1248:1 1252:1 1260:1 1267:1 1273:1 1283:1 1289:1
-1 659:1 1280:1 1289:3
-1 189:1 293:1 439:1 500:1 580:1 672:1 926:1 1181:1 1219:1 1227:1 1252:1 1253:1 1260:1 1261:1 1273:1 1289:2
-1 189:1 236:1 247:1 293:1 332:1 439:1 445:1 500:1 627:1 672:1 963:1 1181:1 1219:1 1224:1 1227:1 1236:1 1248:1 1252:1 1260:1 1261:1 1272:1 1273:1 1282:1 1283:1 1289:1
-1 189:1 332:1 439:1 500:1 580:1 672:1 738:1 963:1 1219:1 1224:1 1227:1 1248:1 1253:1 1260:1 1273:1 1289:2
-1 189:1 202:1 247:1 332:1 439:1 500:1 627:1 672:1 856:1 963:1 1115:1 1181:1 1219:1 1224:1 1227:1 1236:1 1244:1 1248:1 1252:1 1256:1 1260:1 1273:1 1277:1 1283:1 1289:2
-1 1289:1
-1 134:1 212:1 232:1 236:1 258:1 352:1 447:1 467:1 483:1 768:1 814:1 838:1 860:1 920:1 989:1 1034:1 1124:1 1144:1 1182:1 1241:1 1259:1 1272:1 1289:1 1291:3
-1 189:1 1227:1 1289:3
-1 189:4 247:2 332:1 439:1 500:2 576:1 672:1 1181:2 1219:1 1224:1 1227:4 1250:1 1252:2 1260:2 1273:1 1283:2 1289:6
-1 189:4 247:2 332:1 439:1 500:2 580:1 627:2 1181:2 1224:1 1227:4 1236:2 1252:2 1253:1 1260:2 1273:1 1283:2 1289:6
-1 189:1 236:2 576:1 1227:1 1250:1 1272:2 1289:2
-1 152:1 189:1 500:1 627:1 1095:1 1181:1 1227:1 1236:1 1252:1 1260:1 1289:1
-1 134:1 212:1 232:1 236:1 258:1 352:1 447:1 467:1 483:1 561:1 620:1 656:1 768:1 814:1 838:1 860:1 920:1 944:1 989:1 1034:1 1087:1 1126:1 1144:1 1241:1 1259:1 1272:1 1289:2
-1 152:1 189:1 1175:1 1227:1 1289:1
-1 659:1 1280:1 1289:2
-1 189:1 236:1 283:1 500:1 1227:1 1260:1 1272:1 1289:2
-1 189:1 236:2 406:1 439:1 500:1 627:1 837:1 1181:1 1227:1 1236:1 1252:1 1258:1 1260:1 1272:2 1273:1 1289:2
-1 659:1 1280:1 1289:2
-1 659:1 1280:1 1289:2
-1 659:1 1280:1 1289:2
-1 189:1 236:1 330:1 439:1 500:1 672:1 1219:1 1227:1 1260:1 1272:1 1273:1 1289:2
-1 189:1 236:1 500:1 1227:1 1260:1 1272:1 1289:5
-1 189:1 247:1 293:1 332:1 381:1 439:1 461:1 500:1 580:1 627:1 672:1 750:1 963:1 1181:1 1214:1 1219:1 1224:1 1227:1 1236:1 1248:1 1252:1 1253:1 1260:1 1261:1 1273:1 1283:1 1289:1
-1 189:1 236:1 1227:1 1272:1 1289:2
-1 189:1 247:1 332:1 439:1 461:1 500:1 548:1 580:1 627:1 672:1 837:1 846:1 1181:1 1214:1 1219:1 1223:1 1224:1 1227:1 1236:1 1252:1 1253:1 1258:1 1260:1 1267:1 1273:1 1283:1 1289:1
-1 440:1 1275:1 1289:1
-1 189:1 236:1 1227:1 1272:1 1289:4
-1 189:1 236:1 500:1 1227:1 1260:1 1272:1 1289:4
-1 152:1 176:1 189:1 247:1 337:1 445:1 500:1 548:1 627:1 734:1 837:1 880:1 963:1 980:1 993:1 1095:1 1181:1 1218:1 1223:1 1225:1 1227:1 1236:1 1248:1 1252:1 1258:1 1260:1 1282:1 1283:1 1289:1
-1 189:1 236:1 247:1 439:1 500:1 627:1 963:1 1074:1 1227:1 1236:1 1248:1 1260:1 1272:1 1273:1 1283:1 1289:2
-1 659:1 1280:1 1289:3
-1 189:1 247:1 381:1 439:1 500:1 672:1 750:1 963:1 1181:1 1219:1 1227:1 1248:1 1252:1 1260:1 1273:1 1283:1 1289:1
-1 189:2 247:1 332:1 500:2 1181:2 1224:1 1227:2 1252:2 1260:2 1283:1 1289:7
-1 189:1 236:2 332:1 439:1 500:1 627:1 672:1 837:1 1181:1 1219:1 1224:1 1227:1 1236:1 1252:1 1258:1 1260:1 1272:2 1273:1 1289:5
-1 659:1 1280:1 1289:3
-1 659:1 1280:1 1289:2
-1 189:1 247:1 439:1 500:1 580:1 627:1 880:1 963:1 1181:1 1225:1 1227:1 1236:1 1248:1 1252:1 1253:1 1260:1 1273:1 1283:1 1289:2
-1 189:1 236:1 247:1 381:1 580:1 627:1 938:1 963:1 1181:1 1204:1 1227:1 1236:1 1248:1 1252:1 1253:1 1272:1 1283:1 1287:1 1289:1
-1 189:1 474:1 500:1 627:1 880:1 963:1 996:1 1181:1 1225:1 1227:1 1236:1 1248:1 1252:1 1260:1 1289:1
-1 659:1 1280:1 1289:4
-1 659:1 1280:1 1289:3
-1 189:1 247:1 332:1 439:1 500:1 627:1 672:1 963:1 1181:1 1219:1 1224:1 1227:1 1236:1 1248:1 1252:1 1260:1 1273:1 1283:1 1289:1 1291:1
-1 189:1 500:1 548:1 1223:1 1227:1 1260:1 1289:1
-1 440:1 1275:1 1289:1
-1 189:1 236:1 247:1 432:1 548:1 659:1 963:1 1181:1 1223:1 1227:1 1248:1 1252:1 1266:1 1272:1 1280:1 1283:1 1289:3 1291:4
-1 189:1 247:1 332:1 439:1 500:1 627:1 672:1 1181:1 1194:1 1219:1 1224:1 1227:1 1236:1 1252:1 1260:1 1273:1 1283:1 1289:11
-1 659:1 1280:1 1289:3
-1 659:1 1280:1 1289:2
-1 189:1 247:1 439:1 500:1 576:1 578:1 627:1 837:1 963:1 1181:1 1227:1 1236:1 1248:1 1250:1 1251:1 1252:1 1258:1 1260:1 1273:1 1283:1 1289:2
-1 189:1 439:1 500:1 627:1 963:1 1181:1 1227:1 1236:1 1248:1 1252:1 1260:1 1273:1 1289:2
-1 189:4 236:1 247:3 332:1 439:1 500:3 576:1 580:1 627:1 675:1 743:1 963:1 1181:2 1224:1 1227:4 1228:1 1231:1 1236:1 1248:1 1250:1 1252:2 1253:1 1260:3 1272:1 1273:1 1283:3 1289:5
-1 189:4 236:1 247:3 332:1 439:1 500:3 580:1 627:1 675:1 743:1 963:1 1181:2 1224:1 1227:4 1228:1 1231:1 1236:1 1248:1 1252:2 1253:1 1260:3 1272:1 1273:1 1283:3 1289:5
-1 659:1 1280:1 1289:3
-1 659:1 1280:1 1289:3
-1 134:1 221:1 232:1 236:1 258:1 309:1 467:1 570:1 620:1 714:1 768:1 806:1 814:1 838:1 920:1 1034:1 1056:1 1057:1 1124:1 1126:1 1161:1 1241:1 1259:1 1272:1 1289:1
-1 189:1 247:1 332:1 439:1 500:1 548:1 627:1 672:1 734:1 963:1 1115:1 1181:1 1218:1 1219:1 1223:1 1224:1 1227:1 1236:1 1248:1 1252:1 1256:1 1260:1 1273:1 1283:1 1289:2
-1 189:1 332:1 439:1 500:1 627:1 672:1 675:1 830:1 963:1 1181:1 1219:1 1224:1 1227:1 1228:1 1236:1 1248:1 1252:1 1260:1 1273:1 1289:2
-1 659:1 1280:1 1289:3
-1 189:1 236:1 675:1 1227:1 1228:1 1272:1 1289:6
-1 189:1 576:1 1227:1 1250:1 1289:2
-1 189:1 236:1 500:1 1058:1 1074:1 1227:1 1260:1 1272:1 1289:2
-1 189:1 576:1 949:1 969:1 1227:1 1250:1 1289:3
-1 162:1 189:1 247:1 439:1 500:1 548:1 576:1 627:1 672:1 963:1 1181:1 1219:1 1223:1 1227:1 1236:1 1248:1 1250:1 1252:1 1260:1 1271:1 1273:1 1283:1 1289:1
-1 189:1 252:1 325:1 462:1 534:1 648:1 905:1 945:1 987:1 1070:1 1111:1 1158:1 1175:1 1227:1 1270:1 1289:2
-1 189:1 247:1 332:1 439:1 500:1 548:1 576:1 580:1 627:1 672:1 734:1 963:1 1115:1 1181:1 1218:1 1219:1 1223:1 1224:1 1227:1 1236:1 1248:1 1250:1 1252:1 1253:1 1256:1 1260:1 1273:1 1283:1 1289:1
-1 189:1 1227:1 1289:2
-1 1289:4
-1 189:1 1181:1 1227:1 1252:1 1289:3
-1 189:1 247:1 500:1 963:1 1227:1 1248:1 1260:1 1283:1 1289:3
-1 189:1 332:1 339:1 400:1 439:1 500:1 627:1 963:1 1181:1 1224:1 1227:1 1236:1 1237:1 1248:1 1252:1 1260:1 1273:1 1289:3
-1 134:1 212:1 232:1 236:1 258:1 352:1 447:1 467:1 483:1 488:1 656:1 768:1 806:1 814:1 838:1 860:1 920:1 934:1 989:1 1034:1 1088:1 1241:1 1259:1 1272:1 1289:1
-1 134:1 232:1 236:1 258:1 432:1 467:1 535:1 620:1 768:1 806:1 838:1 887:1 920:1 1004:1 1034:1 1056:1 1151:1 1241:1 1259:1 1266:1 1272:1 1289:3
-1 128:1 134:1 153:1 232:1 236:1 258:1 432:1 461:1 467:1 483:1 514:1 535:1 620:1 654:1 768:1 806:1 838:1 860:1 920:1 944:1 1004:1 1010:1 1034:1 1056:1 1068:1 1151:1 1198:1 1214:1 1241:1 1259:1 1266:1 1272:1 1274:1 1289:2
-1 189:1 236:1 432:1 1181:1 1227:1 1252:1 1266:1 1272:1 1289:1
-1 189:1 247:1 332:1 439:1 500:1 548:1 672:1 963:1 1115:1 1181:1 1219:1 1223:1 1224:1 1227:1 1248:1 1252:1 1256:1 1260:1 1273:1 1283:1 1289:1
-1 189:1 247:1 500:1 659:1 764:1 1181:1 1227:1 1252:1 1260:1 1280:1 1283:1 1289:1
-1 134:1 212:1 232:1 236:1 258:1 467:1 495:1 768:1 838:1 860:1 920:1 989:1 1034:1 1144:1 1241:1 1259:1 1272:1 1289:2
-1 163:1 189:1 247:1 439:1 500:1 544:1 548:1 576:1 580:1 627:1 734:1 743:1 749:1 836:1 935:1 963:1 1028:1 1120:1 1181:1 1218:1 1222:1 1223:1 1227:1 1231:1 1236:1 1248:1 1250:1 1252:1 1253:1 1260:1 1264:1 1273:1 1283:1 1289:2 1291:919
-1 189:1 236:1 247:1 381:1 627:1 963:1 1181:1 1227:1 1236:1 1248:1 1252:1 1272:1 1283:1 1289:1
-1 134:1 189:1 232:1 247:1 417:1 432:1 467:1 483:1 484:1 500:1 656:1 657:1 768:1 838:1 860:1 891:1 963:1 989:1 1034:1 1181:1 1186:1 1227:1 1241:1 1246:1 1248:1 1252:1 1259:1 1260:1 1266:1 1278:1 1283:1 1289:2
-1 189:1 247:1 293:1 339:1 417:1 496:1 500:1 555:1 657:1 734:1 775:1 891:1 963:1 1181:1 1198:1 1218:1 1227:1 1230:1 1237:1 1246:1 1248:1 1252:1 1260:1 1261:1 1274:1 1278:1 1283:1 1289:1
-1 189:1 963:1 1181:1 1227:1 1248:1 1252:1 1289:1
-1 189:1 417:1 657:1 891:1 963:1 1181:1 1227:1 1246:1 1248:1 1252:1 1278:1 1289:1
-1 189:1 342:1 461:1 963:1 1181:1 1198:1 1214:1 1227:1 1248:1 1252:1 1274:1 1289:1
-1 189:1 417:1 500:1 657:1 846:1 891:1 1181:1 1227:1 1246:1 1252:1 1260:1 1267:1 1278:1 1289:1
-1 189:1 417:1 461:1 500:1 627:1 657:1 891:1 963:1 1181:1 1198:1 1214:1 1227:1 1236:1 1246:1 1248:1 1252:1 1260:1 1274:1 1278:1 1289:1
-1 659:1 1280:1 1289:3
-1 189:1 247:1 261:1 332:1 461:1 500:1 548:1 580:1 627:1 1181:1 1214:1 1220:1 1223:1 1224:1 1227:1 1236:1 1252:1 1253:1 1260:1 1283:1 1289:1 1291:3
-1 189:1 1227:1 1289:3
-1 189:2 247:1 332:1 500:2 1181:2 1224:1 1227:2 1252:2 1260:2 1283:1 1289:7
-1 189:1 432:1 576:1 837:1 1181:1 1227:1 1250:1 1252:1 1258:1 1266:1 1289:4
-1 189:1 236:1 500:1 627:1 1181:1 1227:1 1236:1 1252:1 1260:1 1272:1 1289:3
-1 189:1 236:1 500:1 627:1 1181:1 1227:1 1236:1 1252:1 1260:1 1272:1 1289:3
-1 189:5 217:1 247:3 332:1 439:1 500:2 576:1 580:1 627:2 672:1 675:1 854:1 963:2 1181:2 1219:1 1224:1 1227:5 1228:1 1236:2 1248:2 1250:1 1252:2 1253:1 1260:2 1273:1 1283:3 1289:6
-1 189:1 236:2 331:1 444:1 781:1 943:1 1084:1 1169:1 1227:1 1272:2 1289:3
-1 134:1 212:1 232:1 236:1 258:1 312:1 432:1 467:1 768:1 814:1 837:1 838:1 944:1 1034:1 1043:1 1120:1 1151:1 1241:1 1258:1 1259:1 1264:1 1266:1 1272:1 1289:2
-1 189:1 1227:1 1289:2
-1 189:3 247:1 332:1 439:1 500:2 963:1 1181:2 1224:1 1227:3 1248:1 1252:2 1260:2 1273:1 1283:1 1289:6
-1 659:1 1280:1 1289:3
-1 659:1 1280:1 1289:3
-1 189:1 426:1 905:1 987:1 1227:1 1270:1 1289:2
-1 189:1 236:1 500:1 1227:1 1260:1 1272:1 1289:5
-1 163:1 189:1 500:1 580:1 812:1 835:1 963:1 1181:1 1227:1 1232:1 1248:1 1252:1 1253:1 1260:1 1289:3
-1 181:1 189:1 356:1 420:1 500:1 657:1 754:1 765:1 815:1 820:1 950:1 1051:1 1085:1 1171:1 1183:1 1216:1 1226:1 1227:1 1229:1 1234:1 1247:1 1254:1 1255:1 1260:1 1278:1 1289:3
-1 189:1 236:2 1181:1 1227:1 1252:1 1272:2 1289:3
-1 189:1 236:1 319:1 500:1 672:1 847:1 1219:1 1227:1 1260:1 1272:1 1288:1 1289:2
-1 189:1 236:1 706:1 1227:1 1272:1 1289:2
-1 659:1 1280:1 1289:2
-1 659:1 1280:1 1289:2
-1 189:1 512:1 764:1 963:1 1181:1 1227:1 1248:1 1252:1 1289:1
-1 659:1 1280:1 1289:2
-1 189:1 512:1 570:1 659:1 764:1 837:1 963:1 1181:1 1227:1 1248:1 1252:1 1258:1 1280:1 1289:1 1291:9
-1 189:1 512:1 764:1 1181:1 1227:1 1252:1 1289:3 1291:26
-1 440:1 1275:1 1289:1
-1 134:1 232:1 236:1 352:1 447:1 467:1 768:1 838:1 860:1 920:1 1034:1 1107:1 1124:1 1144:1 1182:1 1241:1 1259:1 1272:1 1289:1
-1 659:1 1280:1 1289:4
-1 189:1 1227:1 1289:1
-1 157:1 189:1 236:1 432:1 500:1 548:1 627:1 1181:1 1223:1 1227:1 1236:1 1252:1 1260:1 1266:1 1268:1 1272:1 1289:1
-1 134:1 137:1 189:1 232:1 236:1 315:1 432:1 467:1 768:1 838:1 1034:1 1181:1 1186:1 1227:1 1241:1 1252:1 1259:1 1266:1 1272:1 1289:1
-1 189:1 439:1 500:1 576:1 966:1 1227:1 1250:1 1260:1 1273:1 1289:2
-1 440:1 1275:1 1289:1
-1 189:1 247:1 320:1 332:1 439:1 500:1 627:1 672:1 963:1 1115:1 1181:1 1219:1 1224:1 1227:1 1236:1 1248:1 1252:1 1256:1 1260:1 1273:1 1283:1 1289:2
-1 189:1 236:1 1181:1 1227:1 1252:1 1272:1 1289:2
-1 134:1 232:1 236:1 258:1 432:1 467:1 768:1 838:1 1034:1 1148:1 1241:1 1259:1 1266:1 1272:1 1289:2
-1 189:1 259:1 439:1 500:1 1227:1 1260:1 1273:1 1289:3
-1 189:1 500:1 548:1 576:1 627:1 650:1 666:1 672:1 794:1 963:1 976:1 1035:1 1140:1 1189:1 1219:1 1223:1 1227:1 1236:1 1248:1 1250:1 1260:1 1289:2 1291:3660
-1 189:4 247:1 332:1 500:2 1181:3 1224:1 1227:4 1252:3 1260:2 1283:1 1289:5
-1 189:4 247:1 332:1 500:2 1181:3 1224:1 1227:4 1252:3 1260:2 1283:1 1289:4
-1 189:1 325:1 462:1 474:1 648:1 905:1 945:1 987:1 996:1 1070:1 1111:1 1175:1 1227:1 1270:1 1289:1
-1 189:1 193:1 500:1 576:1 963:1 1044:1 1137:1 1181:1 1227:1 1248:1 1250:1 1252:1 1260:1 1289:2
-1 189:1 193:1 236:1 439:1 500:1 576:1 963:1 1074:1 1181:1 1227:1 1248:1 1250:1 1252:1 1260:1 1272:1 1273:1 1289:2
-1 189:2 247:1 332:1 500:2 1181:2 1224:1 1227:2 1252:2 1260:2 1283:1 1289:7
-1 134:1 221:1 232:1 236:1 258:1 278:1 309:1 432:1 467:1 483:1 610:1 620:1 684:1 768:1 806:1 814:1 838:1 920:1 989:1 1034:1 1057:1 1076:1 1110:1 1151:1 1161:1 1241:1 1259:1 1266:1 1272:1 1289:2
-1 659:1 1280:1 1289:4
-1 189:1 332:1 439:1 500:1 580:1 627:1 963:1 1181:1 1224:1 1227:1 1236:1 1248:1 1252:1 1253:1 1260:1 1273:1 1289:3
-1 189:1 332:1 439:1 500:1 580:1 627:1 963:1 1181:1 1224:1 1227:1 1236:1 1248:1 1252:1 1253:1 1260:1 1273:1 1289:3
-1 134:1 137:1 232:1 236:1 247:1 258:1 274:1 316:1 378:1 432:1 467:1 508:1 525:1 597:1 610:1 620:1 684:1 766:1 768:1 806:1 814:1 838:1 860:1 900:1 920:1 944:1 1034:1 1056:1 1068:1 1151:1 1167:1 1241:1 1259:1 1266:1 1272:1 1283:1 1289:3
-1 134:1 203:1 212:1 232:1 236:1 258:1 298:1 312:1 432:1 467:1 508:1 563:1 621:1 768:1 814:1 838:1 944:1 1034:1 1151:1 1167:1 1241:1 1259:1 1266:1 1272:1 1289:1
-1 189:1 236:1 432:1 500:1 963:1 1181:1 1227:1 1248:1 1252:1 1260:1 1266:1 1272:1 1289:2
-1 189:1 236:2 439:1 500:1 548:1 627:1 846:1 1223:1 1227:1 1236:1 1260:1 1267:1 1272:2 1273:1 1289:5
-1 134:1 232:1 236:1 274:1 352:1 432:1 467:1 483:1 610:1 620:1 684:1 768:1 806:1 814:1 823:1 838:1 860:1 920:1 944:1 954:1 989:1 1034:1 1126:1 1139:1 1144:1 1151:1 1241:1 1259:1 1266:1 1272:1 1289:2
-1 432:1 1266:1 1289:1
-1 189:1 236:1 500:1 837:1 1181:1 1227:1 1252:1 1258:1 1260:1 1272:1 1289:4
-1 432:1 1266:1 1289:1
-1 189:1 1227:1 1289:2
-1 432:1 1266:1 1289:1
-1 189:1 247:1 332:1 439:1 500:1 576:1 580:1 627:1 672:1 675:1 963:1 1181:1 1219:1 1224:1 1227:1 1228:1 1236:1 1248:1 1250:1 1252:1 1253:1 1260:1 1273:1 1283:1 1289:4
-1 189:1 439:1 500:1 555:1 627:1 734:1 880:1 935:1 963:1 1218:1 1225:1 1227:1 1230:1 1236:1 1248:1 1260:1 1273:1 1289:2 1291:2
-1 189:1 439:1 500:1 627:1 672:1 1181:1 1219:1 1227:1 1236:1 1252:1 1260:1 1273:1 1289:1
-1 189:1 236:1 247:1 500:1 963:1 1074:1 1227:1 1248:1 1260:1 1272:1 1283:1 1289:3
-1 659:1 1280:1 1289:2
-1 189:1 439:1 500:1 576:1 627:1 1181:1 1227:1 1236:1 1250:1 1252:1 1260:1 1273:1 1289:1
-1 189:1 247:1 332:1 439:1 500:1 517:1 548:1 580:1 627:1 672:1 880:1 963:1 1181:1 1219:1 1223:1 1224:1 1225:1 1227:1 1236:1 1248:1 1252:1 1253:1 1260:1 1273:1 1279:1 1283:1 1289:1
-1 659:1 1280:1 1289:3
-1 659:1 1280:1 1289:2
-1 189:1 259:1 332:1 439:1 500:1 672:1 1219:1 1224:1 1227:1 1260:1 1273:1 1289:3
-1 142:1 189:1 198:1 802:1 1190:1 1227:1 1289:4
-1 659:1 1280:1 1289:3
-1 659:1 1280:1 1289:2
-1 152:1 189:1 331:1 781:1 1227:1 1289:1
-1 189:4 247:2 332:1 439:1 500:2 627:1 1181:2 1224:1 1227:4 1236:1 1252:2 1260:2 1273:1 1283:2 1289:6
-1 189:4 247:3 332:1 379:1 439:1 500:2 576:1 580:1 627:1 734:1 963:1 1181:2 1218:1 1224:1 1227:4 1236:1 1248:1 1250:1 1252:2 1253:1 1260:2 1273:1 1281:1 1283:3 1289:6
-1 659:1 1280:1 1289:3
-1 189:1 830:1 1227:1 1289:2
-1 189:2 439:1 445:1 500:1 627:2 1097:1 1165:1 1227:2 1236:2 1260:1 1273:1 1282:1 1289:4
-1 189:1 500:1 576:1 580:1 627:1 1181:1 1227:1 1236:1 1250:1 1252:1 1253:1 1260:1 1289:2
-1 189:1 500:1 576:1 580:1 627:1 1181:1 1227:1 1236:1 1250:1 1252:1 1253:1 1260:1 1289:2
-1 659:1 1280:1 1289:3
-1 189:1 236:1 331:1 444:1 781:1 943:1 1227:1 1272:1 1289:2
-1 189:1 247:1 500:1 627:1 1227:1 1236:1 1260:1 1283:1 1289:3
-1 189:1 1227:1 1289:2
-1 181:1 189:1 247:1 332:1 340:1 356:1 420:1 439:1 500:1 548:1 576:1 580:1 601:1 627:1 657:1 743:1 765:1 815:1 820:1 829:1 842:1 846:1 856:1 950:1 963:1 1009:1 1051:1 1085:1 1181:1 1183:1 1205:1 1216:1 1223:1 1224:1 1226:1 1227:1 1229:1 1231:1 1234:1 1236:1 1238:1 1247:1 1248:1 1249:1 1250:1 1252:1 1253:1 1254:1 1255:1 1260:1 1267:1 1273:1 1277:1 1278:1 1283:1 1286:1 1289:2 1291:124
-1 148:1 181:1 189:1 247:1 287:1 332:1 339:1 340:1 356:1 389:1 415:1 420:1 432:1 439:1 461:1 494:1 500:1 517:1 548:1 576:1 580:1 601:1 627:1 643:1 657:1 734:1 743:1 754:1 757:1 758:1 765:1 799:1 820:1 824:1 829:1 836:1 837:1 842:1 846:1 856:1 871:1 880:1 893:1 950:1 963:1 1051:1 1073:1 1085:1 1159:1 1171:1 1181:1 1183:1 1214:1 1216:1 1218:1 1223:1 1224:1 1225:1 1226:1 1227:1 1229:1 1231:1 1234:1 1236:1 1237:1 1238:1 1239:1 1245:1 1247:1 1248:1 1249:1 1250:1 1252:1 1253:1 1254:1 1255:1 1257:1 1258:1 1260:1 1266:1 1267:1 1273:1 1277:1 1278:1 1279:1 1283:1 1285:1 1286:1 1289:4 1291:190
-1 181:1 189:1 432:1 657:1 765:1 820:1 1051:1 1085:1 1216:1 1227:1 1229:1 1234:1 1247:1 1254:1 1266:1 1278:1 1289:1
-1 162:1 189:1 247:1 332:1 432:1 439:1 500:1 548:1 627:1 837:1 880:1 963:1 1181:1 1223:1 1224:1 1225:1 1227:1 1236:1 1248:1 1252:1 1258:1 1260:1 1266:1 1271:1 1273:1 1283:1 1289:1
-1 189:1 247:1 332:1 439:1 500:1 548:1 627:1 672:1 963:1 1115:1 1181:1 1219:1 1223:1 1224:1 1227:1 1236:1 1248:1 1252:1 1256:1 1260:1 1273:1 1283:1 1289:3
-1 163:1 189:1 426:1 812:1 905:1 987:1 1111:1 1227:1 1232:1 1270:1 1289:2
-1 189:1 332:1 439:1 500:1 580:1 627:1 963:1 1181:1 1224:1 1227:1 1236:1 1248:1 1252:1 1253:1 1260:1 1273:1 1289:4
-1 189:1 332:1 439:1 500:1 580:1 627:1 963:1 1181:1 1224:1 1227:1 1236:1 1248:1 1252:1 1253:1 1260:1 1273:1 1289:4
-1 189:1 236:1 455:1 1074:1 1227:1 1272:1 1289:2
-1 189:2 247:1 332:1 500:2 1181:2 1224:1 1227:2 1252:2 1260:2 1283:1 1289:7
-1 189:1 236:2 1227:1 1272:2 1289:2
-1 189:1 307:1 969:1 1227:1 1289:2
-1 189:1 332:1 439:1 500:1 580:1 627:1 963:1 1181:1 1224:1 1227:1 1236:1 1248:1 1252:1 1253:1 1260:1 1273:1 1289:3
-1 1289:3
-1 189:1 1227:1 1289:2
-1 134:1 189:1 232:1 236:1 467:1 500:1 627:1 768:1 838:1 860:1 880:1 938:1 1034:1 1225:1 1227:1 1236:1 1241:1 1259:1 1260:1 1272:1 1287:1 1289:2
-1 189:2 247:1 332:1 500:2 1181:2 1224:1 1227:2 1252:2 1260:2 1283:1 1289:7
-1 189:1 576:1 1227:1 1250:1 1289:2
-1 189:1 236:1 255:1 439:1 497:1 500:1 507:1 627:1 905:1 987:1 1227:1 1236:1 1260:1 1270:1 1272:1 1273:1 1289:2
-1 189:1 236:2 1227:1 1272:2 1289:2
-1 189:1 236:1 332:1 500:1 627:1 860:1 986:1 1181:1 1224:1 1227:1 1236:1 1252:1 1260:1 1272:1 1289:3 1291:39
-1 189:1 236:1 332:1 439:1 500:1 578:1 627:1 672:1 1181:1 1219:1 1224:1 1227:1 1236:1 1251:1 1252:1 1260:1 1272:1 1273:1 1289:4
-1 189:1 247:1 500:1 614:1 856:1 963:1 1227:1 1248:1 1260:1 1277:1 1283:1 1289:2
-1 440:1 1275:1 1289:2
-1 134:1 232:1 236:1 352:1 467:1 656:1 768:1 838:1 1034:1 1241:1 1259:1 1272:1 1289:2
-1 134:1 232:1 236:1 352:1 467:1 483:1 656:1 768:1 838:1 860:1 1034:1 1144:1 1241:1 1259:1 1272:1 1289:2
-1 659:1 1280:1 1289:4
-1 189:1 236:1 332:1 500:1 1224:1 1227:1 1260:1 1272:1 1289:2
-1 189:1 247:1 332:1 439:1 500:1 576:1 580:1 627:1 672:1 743:1 856:1 963:1 1181:1 1219:1 1224:1 1227:1 1231:1 1236:1 1248:1 1250:1 1252:1 1253:1 1260:1 1273:1 1277:1 1283:1 1289:5
-1 189:2 247:1 332:1 500:2 1181:2 1224:1 1227:2 1252:2 1260:2 1283:1 1289:7
-1 189:2 247:1 332:1 500:2 1181:2 1224:1 1227:2 1252:2 1260:2 1283:1 1289:7
-1 659:1 1280:1 1289:3
-1 162:1 189:1 206:1 335:1 430:1 439:1 500:1 688:1 830:1 1227:1 1260:1 1271:1 1273:1 1289:1
-1 152:1 189:1 332:1 388:1 439:1 500:1 584:1 1039:1 1095:1 1108:1 1224:1 1227:1 1260:1 1273:1 1289:1
-1 189:3 247:1 332:1 439:1 500:2 576:1 963:1 1181:2 1224:1 1227:3 1248:1 1250:1 1252:2 1260:2 1273:1 1283:1 1289:6
-1 659:1 1280:1 1289:4
-1 189:2 247:1 332:1 500:2 1181:2 1224:1 1227:2 1252:2 1260:2 1283:1 1289:7
-1 189:1 324:1 332:1 351:1 439:1 500:1 580:1 675:1 696:1 963:1 1061:1 1181:1 1224:1 1227:1 1228:1 1248:1 1252:1 1253:1 1260:1 1273:1 1289:2
-1 189:1 247:1 332:1 339:1 439:1 461:1 500:1 517:1 548:1 580:1 627:1 672:1 734:1 750:1 837:1 846:1 880:1 938:1 963:1 1115:1 1120:1 1181:1 1198:1 1214:1 1218:1 1219:1 1223:1 1224:1 1225:1 1227:1 1236:1 1237:1 1248:1 1252:1 1253:1 1256:1 1258:1 1260:1 1264:1 1267:1 1273:1 1274:1 1279:1 1283:1 1287:1 1289:1
-1 189:1 215:1 247:1 339:1 396:1 439:1 500:1 548:1 578:1 580:1 627:1 824:1 836:1 837:1 846:1 880:1 935:1 963:1 1181:1 1198:1 1223:1 1225:1 1227:1 1236:1 1237:1 1248:1 1251:1 1252:1 1253:1 1258:1 1260:1 1267:1 1273:1 1274:1 1283:1 1289:1
-1 189:2 247:1 332:1 500:2 1181:2 1224:1 1227:2 1252:2 1260:2 1283:1 1289:7
-1 236:1 1272:1 1289:3
-1 189:1 236:1 332:1 438:1 439:1 500:1 576:1 627:1 672:1 675:1 963:1 1181:1 1219:1 1224:1 1227:1 1228:1 1236:1 1248:1 1250:1 1252:1 1260:1 1272:1 1273:1 1289:4
-1 134:1 212:1 221:1 232:1 236:1 258:1 309:1 326:1 352:1 387:1 432:1 439:1 441:1 442:1 447:1 448:1 467:1 470:1 483:1 500:1 563:1 600:1 627:1 654:1 656:1 668:1 700:1 751:1 768:1 806:1 836:1 838:1 860:1 873:1 880:1 920:1 934:1 944:1 989:1 994:1 1032:1 1034:1 1036:1 1056:1 1064:1 1077:1 1083:1 1087:1 1126:1 1136:1 1144:1 1151:1 1215:1 1225:1 1236:1 1241:1 1259:1 1260:1 1266:1 1272:1 1273:1 1289:2
-1 189:1 236:1 319:1 432:1 461:1 548:1 1181:1 1214:1 1223:1 1227:1 1252:1 1266:1 1272:1 1288:1 1289:2
-1 147:1 232:1 236:1 288:1 312:1 385:1 432:1 467:1 535:1 615:1 651:1 684:1 801:1 806:1 814:1 838:1 896:1 920:1 944:1 1027:1 1086:1 1242:1 1259:1 1266:1 1272:1 1289:2 1291:23
-1 189:1 236:1 247:1 332:1 370:1 439:1 500:1 963:1 1181:1 1224:1 1227:1 1248:1 1252:1 1260:1 1272:1 1273:1 1283:1 1289:2
-1 189:1 236:1 332:1 349:1 432:1 461:1 500:1 627:1 963:1 986:1 1181:1 1214:1 1224:1 1227:1 1236:1 1248:1 1252:1 1260:1 1266:1 1272:1 1289:1 1291:39
-1 134:1 151:1 189:1 232:1 236:1 467:1 569:1 627:1 768:1 838:1 860:1 1034:1 1047:1 1227:1 1236:1 1241:1 1259:1 1272:1 1289:3
-1 189:1 236:1 247:1 339:1 461:1 500:1 627:1 860:1 1181:1 1198:1 1214:1 1227:1 1236:1 1237:1 1252:1 1260:1 1272:1 1274:1 1283:1 1289:1
-1 189:1 236:1 349:1 352:1 500:1 548:1 627:1 656:1 798:1 819:1 963:1 986:1 1181:1 1223:1 1227:1 1236:1 1248:1 1252:1 1260:1 1272:1 1289:3 1291:39
-1 189:1 236:1 627:1 649:1 1227:1 1236:1 1272:1 1289:3
-1 162:1 189:1 439:1 500:1 517:1 548:1 627:1 675:1 734:1 750:1 837:1 846:1 963:1 1120:1 1181:1 1218:1 1223:1 1227:1 1228:1 1236:1 1248:1 1252:1 1258:1 1260:1 1264:1 1267:1 1271:1 1273:1 1279:1 1289:2
-1 189:2 247:1 332:1 500:2 1181:2 1224:1 1227:2 1252:2 1260:2 1283:1 1289:7
-1 440:1 1275:1 1289:1
-1 189:4 236:1 247:2 500:2 1181:1 1227:4 1252:1 1260:2 1272:1 1283:2 1289:5
-1 189:1 1227:1 1289:2
-1 189:1 1227:1 1289:2
-1 162:1 189:1 247:1 332:1 439:1 461:1 500:1 580:1 627:1 880:1 963:1 1181:1 1214:1 1224:1 1225:1 1227:1 1236:1 1248:1 1252:1 1253:1 1260:1 1271:1 1273:1 1283:1 1289:2
-1 236:1 1272:1 1289:3
-1 189:1 202:1 247:1 332:1 439:1 500:1 627:1 672:1 905:1 963:1 987:1 1115:1 1181:1 1219:1 1224:1 1227:1 1236:1 1244:1 1248:1 1252:1 1256:1 1260:1 1270:1 1273:1 1283:1 1289:2
-1 189:1 236:1 319:1 432:1 461:1 548:1 627:1 1181:1 1214:1 1223:1 1227:1 1236:1 1252:1 1266:1 1272:1 1288:1 1289:2
-1 659:1 1280:1 1289:3
-1 157:1 162:1 189:1 247:1 332:1 439:1 500:1 548:1 576:1 578:1 580:1 627:1 672:1 675:1 743:1 856:1 963:1 1043:1 1181:1 1219:1 1223:1 1224:1 1227:1 1228:1 1231:1 1236:1 1248:1 1250:1 1251:1 1252:1 1253:1 1260:1 1268:1 1271:1 1273:1 1277:1 1283:1 1289:1
-1 189:4 247:3 332:1 439:1 500:2 580:1 627:2 672:1 963:1 1181:2 1219:1 1224:1 1227:4 1236:2 1248:1 1252:2 1253:1 1260:2 1273:1 1283:3 1289:6
-1 189:1 236:2 675:1 1227:1 1228:1 1272:2 1289:3
-1 189:1 1227:1 1289:2
-1 189:1 1227:1 1289:2
-1 189:1 1227:1 1289:3
-1 659:1 1280:1 1289:3
-1 189:1 1227:1 1289:3
-1 189:1 236:1 1227:1 1272:1 1289:3
-1 189:1 236:2 439:1 500:1 627:1 675:1 963:1 1227:1 1228:1 1236:1 1248:1 1260:1 1272:2 1273:1 1289:2
-1 134:1 212:1 232:1 236:1 258:1 352:1 447:1 467:1 768:1 814:1 838:1 860:1 920:1 989:1 1034:1 1107:1 1124:1 1144:1 1182:1 1241:1 1259:1 1272:1 1289:1 1291:3
-1 189:1 1227:1 1289:3
-1 134:1 189:1 232:1 236:1 352:1 432:1 467:1 656:1 768:1 792:1 798:1 838:1 860:1 1034:1 1117:1 1181:1 1192:1 1227:1 1241:1 1252:1 1259:1 1266:1 1272:1 1289:1
-1 157:1 162:1 189:1 236:1 326:1 332:1 432:1 439:1 500:1 548:1 627:1 963:1 1215:1 1223:1 1224:1 1227:1 1236:1 1248:1 1260:1 1266:1 1268:1 1271:1 1272:1 1273:1 1289:2
-1 189:1 236:1 505:1 627:1 963:1 1227:1 1236:1 1248:1 1272:1 1289:3
-1 189:1 236:1 505:1 627:1 963:1 1227:1 1236:1 1248:1 1272:1 1289:3
-1 128:1 164:1 236:1 380:1 563:1 620:1 636:1 725:1 806:1 869:1 944:1 1010:1 1034:1 1047:1 1151:1 1272:1 1289:2
-1 189:1 332:1 439:1 500:1 548:1 576:1 580:1 627:1 658:1 672:1 963:1 1181:1 1219:1 1223:1 1224:1 1227:1 1236:1 1248:1 1250:1 1252:1 1253:1 1260:1 1273:1 1289:2 1291:69
-1 189:1 236:2 325:1 905:1 987:1 1175:1 1227:1 1270:1 1272:2 1289:3
-1 189:1 247:1 332:1 439:1 461:1 500:1 580:1 627:1 963:1 1181:1 1214:1 1224:1 1227:1 1236:1 1248:1 1252:1 1253:1 1260:1 1273:1 1283:1 1289:3
-1 189:1 236:2 500:1 672:1 1219:1 1227:1 1260:1 1272:2 1289:2
-1 659:1 1280:1 1289:3
-1 189:1 506:1 800:1 837:1 979:1 1181:1 1227:1 1252:1 1258:1 1289:1
-1 189:1 506:1 800:1 837:1 979:1 1181:1 1227:1 1252:1 1258:1 1289:1
-1 440:1 1275:1 1289:1
-1 189:1 236:2 247:1 439:1 500:1 576:1 578:1 627:1 672:1 837:1 963:1 1181:1 1219:1 1227:1 1236:1 1248:1 1250:1 1251:1 1252:1 1258:1 1260:1 1272:2 1273:1 1283:1 1289:2
-1 144:1 189:1 236:2 325:1 500:1 837:1 905:1 987:1 1175:1 1227:1 1258:1 1260:1 1270:1 1272:2 1289:2
-1 189:1 439:1 500:1 830:1 927:1 1062:1 1227:1 1260:1 1273:1 1289:1 1291:5
-1 134:1 164:1 189:1 232:1 236:1 293:1 432:1 445:1 467:1 500:1 768:1 823:1 837:1 838:1 1034:1 1047:1 1161:1 1181:1 1227:1 1241:1 1252:1 1258:1 1259:1 1260:1 1261:1 1266:1 1272:1 1282:1 1289:2
-1 134:1 212:1 232:1 236:1 258:1 432:1 467:1 500:1 509:1 513:1 684:1 768:1 806:1 823:1 838:1 920:1 989:1 1034:1 1151:1 1186:1 1241:1 1259:1 1260:1 1266:1 1272:1 1289:2
-1 189:1 236:1 432:1 1181:1 1227:1 1252:1 1266:1 1272:1 1289:1
-1 659:1 1280:1 1289:3
-1 189:1 500:1 627:1 837:1 1227:1 1236:1 1258:1 1260:1 1289:2
-1 189:2 247:1 332:1 500:2 1181:2 1224:1 1227:2 1252:2 1260:2 1283:1 1289:7
-1 659:1 1280:1 1289:2
-1 189:1 332:1 439:1 500:1 580:1 627:1 963:1 1181:1 1224:1 1227:1 1236:1 1248:1 1252:1 1253:1 1260:1 1273:1 1289:2
-1 189:5 247:2 332:1 439:1 500:2 580:1 1181:2 1224:1 1227:5 1252:2 1253:1 1260:2 1273:1 1283:2 1289:6
-1 189:1 236:1 963:1 1181:1 1227:1 1248:1 1252:1 1272:1 1289:1
-1 189:1 247:1 389:1 439:1 500:1 517:1 548:1 576:1 578:1 580:1 627:1 812:1 818:1 837:1 963:1 987:1 1120:1 1181:1 1223:1 1227:1 1232:1 1233:1 1236:1 1248:1 1250:1 1251:1 1252:1 1253:1 1258:1 1260:1 1264:1 1270:1 1273:1 1279:1 1283:1 1285:1 1289:2 1291:59
-1 189:1 236:1 439:1 500:1 836:1 1065:1 1181:1 1227:1 1252:1 1260:1 1272:1 1273:1 1289:1
-1 189:1 247:1 332:1 439:1 500:1 576:1 580:1 627:1 672:1 743:1 856:1 963:1 1181:1 1219:1 1224:1 1227:1 1231:1 1236:1 1248:1 1250:1 1252:1 1253:1 1260:1 1273:1 1277:1 1283:1 1289:5
-1 189:1 247:1 332:1 439:1 500:1 580:1 627:1 672:1 1181:1 1219:1 1224:1 1227:1 1236:1 1252:1 1253:1 1260:1 1273:1 1283:1 1289:5
-1 134:1 232:1 236:1 258:1 333:1 358:1 467:1 483:1 563:1 715:1 768:1 838:1 860:1 920:1 944:1 1034:1 1151:1 1241:1 1259:1 1272:1 1289:3
-1 659:1 1280:1 1289:4
-1 659:1 1280:1 1289:4
-1 189:1 1227:1 1289:2
-1 189:1 236:1 1143:1 1181:1 1227:1 1252:1 1272:1 1284:1 1289:3
-1 659:1 1280:1 1289:3
-1 659:1 1280:1 1289:3
-1 189:1 247:1 332:1 439:1 500:1 734:1 963:1 1181:1 1218:1 1224:1 1227:1 1248:1 1252:1 1260:1 1273:1 1283:1 1289:1
-1 189:5 247:2 332:1 439:1 500:2 580:1 672:1 1181:2 1219:1 1224:1 1227:5 1252:2 1253:1 1260:2 1273:1 1283:2 1289:7
-1 189:3 247:2 332:1 439:1 500:2 576:2 672:1 963:1 1181:1 1219:1 1224:1 1227:3 1248:1 1250:2 1252:1 1260:2 1273:1 1283:2 1289:6
-1 189:1 1227:1 1289:2
-1 189:4 247:3 332:1 439:1 500:2 576:1 580:1 963:1 1181:2 1224:1 1227:4 1248:1 1250:1 1252:2 1253:1 1260:2 1273:1 1283:3 1289:6
-1 189:4 247:3 332:1 439:1 500:2 576:1 580:1 672:1 963:1 1181:2 1219:1 1224:1 1227:4 1248:1 1250:1 1252:2 1253:1 1260:2 1273:1 1283:3 1289:6
-1 134:1 212:1 232:1 236:1 247:1 258:1 309:1 379:1 432:1 461:1 467:1 483:1 535:1 563:1 610:1 768:1 806:1 814:1 838:1 860:1 920:1 944:1 989:1 1034:1 1056:1 1151:1 1214:1 1241:1 1259:1 1266:1 1272:1 1281:1 1283:1 1289:2
-1 124:1 189:1 236:1 1227:1 1272:1 1289:8
-1 189:1 236:1 523:1 852:1 1125:1 1227:1 1272:1 1289:6
-1 189:1 236:2 439:1 500:1 987:1 1227:1 1260:1 1270:1 1272:2 1273:1 1289:2
-1 189:3 247:2 332:1 439:1 500:2 627:2 672:1 963:1 1181:2 1219:1 1224:1 1227:3 1236:2 1248:1 1252:2 1260:2 1273:1 1283:2 1289:6
-1 189:4 247:2 332:1 439:1 500:2 627:1 672:1 963:1 1181:2 1219:1 1224:1 1227:4 1236:1 1248:1 1252:2 1260:2 1273:1 1283:2 1289:6
-1 189:1 236:1 523:1 852:1 1125:1 1227:1 1272:1 1289:6
-1 189:1 332:1 439:1 500:1 672:1 1181:1 1219:1 1224:1 1227:1 1252:1 1260:1 1273:1 1289:1
-1 134:1 182:1 212:1 232:1 236:1 258:1 312:1 432:1 467:1 508:1 563:1 684:1 709:1 768:1 814:1 838:1 920:1 944:1 1034:1 1056:1 1057:1 1151:1 1241:1 1259:1 1266:1 1272:1 1289:2
-1 189:4 247:3 332:1 439:1 500:2 580:1 627:3 672:1 743:1 963:1 1181:2 1219:1 1224:1 1227:4 1231:1 1236:3 1248:1 1252:2 1253:1 1260:2 1273:1 1283:3 1289:6
-1 134:1 189:1 236:1 352:1 627:1 656:1 838:1 1034:1 1144:1 1181:1 1227:1 1236:1 1241:1 1252:1 1259:1 1272:1 1289:2
-1 659:1 1280:1 1289:3
-1 659:1 1280:1 1289:4
-1 659:1 1280:1 1289:3
-1 659:1 1280:1 1289:3
-1 659:1 1280:1 1289:3
-1 659:1 1280:1 1289:3
-1 659:1 1280:1 1289:3
-1 189:1 236:1 349:1 352:1 500:1 578:1 656:1 860:1 1144:1 1181:1 1227:1 1251:1 1252:1 1260:1 1272:1 1289:3
-1 189:1 439:1 500:1 627:1 963:1 1227:1 1236:1 1248:1 1260:1 1273:1 1289:1
-1 189:1 439:1 500:1 555:1 627:1 734:1 880:1 935:1 963:1 1218:1 1225:1 1227:1 1230:1 1236:1 1248:1 1260:1 1273:1 1289:2 1291:2
-1 440:1 1275:1 1289:1
-1 189:1 332:1 439:1 500:1 580:1 627:1 963:1 1181:1 1224:1 1227:1 1236:1 1248:1 1252:1 1253:1 1260:1 1273:1 1289:3
-1 189:1 236:1 439:1 500:1 576:1 1227:1 1250:1 1260:1 1272:1 1273:1 1289:2
-1 189:1 236:1 1227:1 1272:1 1289:2
-1 189:1 236:1 332:1 439:1 500:1 627:1 672:1 675:1 963:1 1181:1 1219:1 1224:1 1227:1 1228:1 1236:1 1248:1 1252:1 1260:1 1272:1 1273:1 1289:2
-1 189:1 236:1 439:1 500:1 1227:1 1260:1 1272:1 1273:1 1289:2
-1 659:1 1280:1 1289:2
-1 134:1 221:1 232:1 236:1 274:1 447:1 467:1 483:1 561:1 610:1 620:1 684:1 768:1 806:1 838:1 920:1 944:1 1034:1 1056:1 1087:1 1126:1 1186:1 1241:1 1259:1 1272:1 1289:3
-1 189:1 236:1 247:1 500:1 564:1 627:1 1058:1 1074:1 1082:1 1227:1 1236:1 1260:1 1272:1 1283:1 1289:2
-1 189:1 202:1 236:1 332:1 439:1 500:1 963:1 1074:1 1224:1 1227:1 1244:1 1248:1 1260:1 1272:1 1273:1 1289:3
-1 659:1 1280:1 1289:3
-1 189:1 236:1 500:1 627:1 1181:1 1227:1 1236:1 1252:1 1260:1 1272:1 1289:3
-1 189:1 1227:1 1289:1
-1 189:1 332:1 439:1 500:1 627:1 837:1 1224:1 1227:1 1236:1 1258:1 1260:1 1273:1 1289:2
-1 189:1 236:2 523:1 895:1 1227:1 1272:2 1289:5
-1 189:1 675:1 1227:1 1228:1 1289:2
-1 189:1 236:2 272:1 523:1 627:1 895:1 1227:1 1236:1 1272:2 1289:5
-1 189:1 332:1 439:1 500:1 576:1 627:1 1181:1 1224:1 1227:1 1236:1 1250:1 1252:1 1260:1 1273:1 1289:2
-1 189:1 236:2 1227:1 1272:2 1289:2
-1 162:1 189:1 247:1 293:1 332:1 339:1 439:1 461:1 498:1 500:1 548:1 880:1 938:1 963:1 1181:1 1214:1 1223:1 1224:1 1225:1 1227:1 1237:1 1248:1 1252:1 1260:1 1261:1 1271:1 1273:1 1283:1 1287:1 1289:1
-1 170:1 1289:3
-1 189:1 236:2 272:1 523:1 691:1 895:1 1227:1 1272:2 1289:6
-1 152:1 189:1 1227:1 1289:2
-1 659:1 1280:1 1289:4
-1 189:1 576:1 969:1 1227:1 1250:1 1289:2
-1 189:2 247:1 332:1 500:2 1181:2 1224:1 1227:2 1252:2 1260:2 1283:1 1289:7
-1 130:1 162:1 189:1 206:1 218:1 234:1 279:1 302:1 335:1 430:1 439:1 500:1 519:1 521:1 528:1 612:1 663:1 688:1 830:1 963:1 1149:1 1155:1 1177:1 1213:1 1227:1 1248:1 1260:1 1271:1 1273:1 1289:1
-1 189:1 969:1 1227:1 1289:2
-1 189:1 236:2 1121:1 1227:1 1272:2 1289:2
-1 189:2 247:1 332:1 500:2 1181:2 1224:1 1227:2 1252:2 1260:2 1283:1 1289:6
-1 189:7 247:3 332:1 439:1 500:2 576:1 580:1 627:3 672:1 743:1 963:1 1181:2 1219:1 1224:1 1227:7 1231:1 1236:3 1248:1 1250:1 1252:2 1253:1 1260:2 1273:1 1283:3 1289:6
-1 659:1 1280:1 1289:4
-1 189:1 500:1 576:1 1181:1 1227:1 1250:1 1252:1 1260:1 1289:3
-1 189:1 500:1 576:1 1181:1 1227:1 1250:1 1252:1 1260:1 1289:3
-1 189:1 247:1 332:1 439:1 500:1 548:1 580:1 627:1 672:1 856:1 963:1 1115:1 1181:1 1219:1 1223:1 1224:1 1227:1 1236:1 1248:1 1252:1 1253:1 1256:1 1260:1 1273:1 1277:1 1283:1 1289:1
-1 440:1 1275:1 1289:1
-1 134:1 212:1 232:1 236:1 258:1 309:1 401:1 467:1 678:1 684:1 766:1 768:1 806:1 814:1 838:1 920:1 934:1 989:1 1034:1 1056:1 1136:1 1151:1 1160:1 1241:1 1259:1 1272:1 1289:2
-1 159:1 169:1 189:1 236:1 238:1 247:1 432:1 439:1 461:1 500:1 555:1 734:1 750:1 775:1 836:1 880:1 963:1 1181:1 1214:1 1218:1 1225:1 1227:1 1230:1 1248:1 1252:1 1260:1 1266:1 1269:1 1272:1 1273:1 1283:1 1289:2
-1 159:1 189:1 236:1 238:1 247:1 261:1 293:1 332:1 432:1 439:1 461:1 500:1 555:1 580:1 627:1 750:1 775:1 799:1 836:1 880:1 890:1 963:1 1181:1 1214:1 1220:1 1224:1 1225:1 1227:1 1230:1 1236:1 1248:1 1252:1 1253:1 1260:1 1261:1 1266:1 1269:1 1272:1 1273:1 1283:1 1289:1
-1 189:1 332:1 439:1 500:1 627:1 1181:1 1224:1 1227:1 1236:1 1252:1 1260:1 1273:1 1289:3
-1 189:1 236:2 1227:1 1272:2 1289:2
-1 659:1 1280:1 1289:3
-1 659:1 1280:1 1289:2
-1 189:1 1227:1 1289:1
-1 189:1 236:1 500:1 732:1 1227:1 1260:1 1272:1 1289:2
-1 134:1 189:1 232:1 236:1 467:1 656:1 768:1 838:1 860:1 1034:1 1181:1 1186:1 1227:1 1241:1 1252:1 1259:1 1272:1 1289:3
-1 659:1 1280:1 1289:3
-1 134:1 189:1 232:1 236:1 332:1 439:1 467:1 500:1 768:1 838:1 848:1 860:1 963:1 1034:1 1181:1 1224:1 1227:1 1241:1 1248:1 1252:1 1259:1 1260:1 1272:1 1273:1 1289:1
-1 440:1 1275:1 1289:1
-1 659:1 1280:1 1289:3
-1 659:1 1280:1 1289:3
-1 134:1 232:1 236:1 312:1 432:1 467:1 560:1 563:1 620:1 701:1 768:1 837:1 838:1 920:1 1034:1 1057:1 1151:1 1241:1 1258:1 1259:1 1263:1 1266:1 1272:1 1289:2
-1 162:1 165:1 189:1 193:1 236:1 247:1 332:1 344:1 418:1 432:1 439:1 500:1 548:1 555:1 576:1 627:1 856:1 906:1 963:1 1181:1 1223:1 1224:1 1227:1 1230:1 1236:1 1248:1 1250:1 1252:1 1260:1 1266:1 1271:1 1272:1 1273:1 1277:1 1283:1 1289:1
-1 189:1 236:1 432:1 500:1 732:1 1227:1 1260:1 1266:1 1272:1 1289:1
-1 189:1 236:1 432:1 500:1 806:1 1227:1 1260:1 1266:1 1272:1 1289:2
-1 659:1 1280:1 1289:3
-1 189:1 236:1 432:1 500:1 1181:1 1227:1 1252:1 1260:1 1266:1 1272:1 1289:1
-1 134:1 236:1 258:1 432:1 467:1 538:1 838:1 1089:1 1148:1 1241:1 1259:1 1266:1 1272:1 1289:2
-1 189:1 236:1 432:1 500:1 1089:1 1148:1 1181:1 1227:1 1252:1 1260:1 1266:1 1272:1 1289:2
-1 189:1 236:1 247:1 332:1 370:1 439:1 500:1 963:1 1181:1 1224:1 1227:1 1248:1 1252:1 1260:1 1272:1 1273:1 1283:1 1289:2
-1 189:1 1227:1 1289:1
-1 189:1 236:1 432:1 500:1 548:1 580:1 837:1 1223:1 1227:1 1253:1 1258:1 1260:1 1266:1 1272:1 1289:2
-1 189:1 500:1 517:1 576:1 580:1 627:1 756:1 846:1 1181:1 1198:1 1227:1 1236:1 1250:1 1252:1 1253:1 1260:1 1267:1 1274:1 1279:1 1289:3 1291:2
-1 189:1 233:1 247:1 332:1 439:1 500:1 576:1 580:1 627:1 672:1 963:1 1181:1 1219:1 1224:1 1227:1 1236:1 1248:1 1250:1 1252:1 1253:1 1260:1 1273:1 1283:1 1289:5
-1 659:1 1280:1 1289:3
-1 189:1 236:1 247:1 323:1 352:1 432:1 500:1 627:1 656:1 963:1 1107:1 1144:1 1181:1 1227:1 1236:1 1248:1 1252:1 1260:1 1266:1 1272:1 1283:1 1289:1
-1 189:1 236:1 247:1 323:1 352:1 432:1 500:1 627:1 656:1 963:1 1107:1 1144:1 1181:1 1227:1 1236:1 1248:1 1252:1 1260:1 1266:1 1272:1 1283:1 1289:1
-1 134:1 189:1 232:1 236:1 352:1 447:1 467:1 483:1 768:1 814:1 838:1 860:1 920:1 963:1 1034:1 1107:1 1144:1 1182:1 1227:1 1241:1 1248:1 1259:1 1272:1 1289:1 1291:3
-1 189:1 236:1 326:1 432:1 461:1 500:1 585:1 880:1 890:1 1106:1 1109:1 1181:1 1214:1 1215:1 1225:1 1227:1 1252:1 1260:1 1266:1 1272:1 1289:3
-1 189:1 192:1 236:1 837:1 1181:1 1227:1 1252:1 1258:1 1272:1 1289:1
-1 189:1 236:1 523:1 852:1 1125:1 1227:1 1272:1 1289:6
-1 189:1 194:1 236:1 330:1 1227:1 1272:1 1289:3
-1 189:1 332:1 397:1 411:1 439:1 500:1 580:1 672:1 999:1 1219:1 1224:1 1227:1 1253:1 1260:1 1273:1 1289:2 1291:2
-1 189:1 236:1 244:1 500:1 1227:1 1260:1 1272:1 1289:2
-1 659:1 1280:1 1289:4
-1 189:5 247:3 332:1 439:1 500:2 580:1 627:1 672:1 963:1 1115:1 1181:2 1219:1 1224:1 1227:5 1236:1 1248:1 1252:2 1253:1 1256:1 1260:2 1273:1 1283:3 1289:6
-1 189:5 247:3 332:1 439:1 500:2 580:1 627:2 963:1 1181:2 1224:1 1227:5 1236:2 1248:1 1252:2 1253:1 1260:2 1273:1 1283:3 1289:6
-1 134:1 189:1 212:1 232:1 236:1 247:1 258:1 332:1 432:1 439:1 467:1 483:1 500:1 548:1 627:1 630:1 684:1 768:1 806:1 814:1 838:1 860:1 920:1 934:1 963:1 989:1 1034:1 1056:1 1151:1 1223:1 1224:1 1227:1 1236:1 1241:1 1248:1 1259:1 1260:1 1266:1 1272:1 1273:1 1283:1 1289:2
-1 189:1 236:1 500:1 627:1 1074:1 1227:1 1236:1 1260:1 1272:1 1289:3
-1 189:4 247:2 332:1 439:1 500:2 580:1 627:2 963:1 1181:2 1224:1 1227:4 1236:2 1248:1 1252:2 1253:1 1260:2 1273:1 1283:2 1289:6
-1 659:1 1280:1 1289:3
-1 189:1 236:1 500:1 1227:1 1260:1 1272:1 1289:2
-1 189:1 462:1 474:1 905:1 945:1 987:1 996:1 1070:1 1111:1 1175:1 1227:1 1270:1 1289:1
-1 189:1 236:1 432:1 500:1 548:1 580:1 837:1 1181:1 1223:1 1227:1 1252:1 1253:1 1258:1 1260:1 1266:1 1272:1 1289:2
-1 189:1 247:1 332:1 500:1 1181:1 1224:1 1227:1 1252:1 1260:1 1283:1 1289:5
-1 134:1 159:1 212:1 232:1 236:1 247:1 258:1 274:1 309:1 326:1 352:1 432:1 447:1 461:1 467:1 470:1 483:1 488:1 535:1 563:1 651:1 654:1 656:1 684:1 768:1 788:1 806:1 814:1 838:1 860:1 880:1 920:1 933:1 934:1 944:1 989:1 1034:1 1056:1 1072:1 1126:1 1141:1 1151:1 1176:1 1214:1 1215:1 1225:1 1241:1 1259:1 1266:1 1269:1 1272:1 1283:1 1289:3
-1 189:1 332:1 439:1 500:1 576:1 627:1 672:1 963:1 1181:1 1219:1 1224:1 1227:1 1236:1 1248:1 1250:1 1252:1 1260:1 1273:1 1289:4
-1 189:1 332:1 439:1 500:1 580:1 627:1 963:1 1181:1 1224:1 1227:1 1236:1 1248:1 1252:1 1253:1 1260:1 1273:1 1289:2
-1 189:1 236:1 500:1 627:1 1181:1 1227:1 1236:1 1252:1 1260:1 1272:1 1289:3
-1 134:1 212:1 232:1 236:1 258:1 352:1 447:1 467:1 483:1 495:1 620:1 656:1 768:1 806:1 838:1 860:1 920:1 989:1 1034:1 1087:1 1126:1 1144:1 1241:1 1259:1 1272:1 1289:2
-1 134:1 157:1 189:1 232:1 236:1 352:1 432:1 467:1 500:1 548:1 684:1 768:1 838:1 860:1 1034:1 1151:1 1181:1 1223:1 1227:1 1241:1 1252:1 1259:1 1260:1 1266:1 1268:1 1272:1 1289:2
-1 134:1 212:1 232:1 236:1 247:1 258:1 274:1 349:1 352:1 432:1 447:1 467:1 483:1 500:1 548:1 620:1 656:1 684:1 768:1 806:1 814:1 838:1 860:1 920:1 963:1 989:1 1024:1 1034:1 1087:1 1126:1 1144:1 1151:1 1223:1 1241:1 1248:1 1259:1 1260:1 1266:1 1272:1 1283:1 1289:3
-1 189:1 236:1 1227:1 1272:1 1289:2
-1 189:1 236:2 1227:1 1272:2 1289:2
-1 189:1 236:1 332:1 439:1 500:1 556:1 580:1 627:1 672:1 952:1 963:1 1181:1 1219:1 1224:1 1227:1 1236:1 1248:1 1252:1 1253:1 1260:1 1272:1 1273:1 1289:1
-1 189:1 236:1 261:1 332:1 439:1 500:1 580:1 1181:1 1220:1 1224:1 1227:1 1252:1 1253:1 1260:1 1272:1 1273:1 1289:2
-1 134:1 212:1 232:1 236:1 258:1 274:1 309:1 312:1 432:1 467:1 488:1 535:1 620:1 684:1 735:1 768:1 790:1 806:1 814:1 838:1 920:1 934:1 944:1 1034:1 1054:1 1056:1 1057:1 1068:1 1124:1 1136:1 1151:1 1241:1 1259:1 1266:1 1272:1 1289:2
-1 134:1 212:1 232:1 236:1 258:1 274:1 312:1 467:1 501:1 620:1 684:1 768:1 806:1 814:1 838:1 1034:1 1056:1 1151:1 1241:1 1259:1 1272:1 1289:3
-1 189:1 236:1 261:1 332:1 500:1 517:1 547:1 724:1 952:1 1181:1 1220:1 1224:1 1227:1 1240:1 1252:1 1260:1 1272:1 1279:1 1289:2
-1 189:1 236:2 1181:1 1227:1 1252:1 1272:2 1289:4
-1 189:1 397:1 500:1 577:1 782:1 1227:1 1260:1 1289:3 1291:2
-1 189:1 247:1 439:1 500:1 548:1 588:1 627:1 672:1 836:1 846:1 963:1 1115:1 1181:1 1219:1 1223:1 1227:1 1236:1 1248:1 1252:1 1256:1 1260:1 1267:1 1273:1 1283:1 1289:1
-1 189:1 332:1 500:1 627:1 803:1 1224:1 1227:1 1236:1 1260:1 1289:2
-1 189:1 202:1 247:1 332:1 439:1 500:1 672:1 836:1 963:1 1115:1 1181:1 1219:1 1224:1 1227:1 1244:1 1248:1 1252:1 1256:1 1260:1 1273:1 1283:1 1289:2
-1 659:1 1280:1 1289:3
-1 189:1 236:1 439:1 500:1 952:1 1227:1 1260:1 1272:1 1273:1 1289:2
-1 189:1 332:1 439:1 500:1 580:1 627:1 963:1 1181:1 1224:1 1227:1 1236:1 1248:1 1252:1 1253:1 1260:1 1273:1 1289:3
-1 189:1 236:1 500:1 580:1 627:1 952:1 963:1 1181:1 1227:1 1236:1 1248:1 1252:1 1253:1 1260:1 1272:1 1289:1
-1 440:1 1275:1 1289:1
-1 189:1 197:1 227:1 236:2 272:1 332:1 500:1 523:1 627:1 691:1 777:1 895:1 1224:1 1227:1 1235:1 1236:1 1260:1 1272:2 1289:5 1291:35
-1 189:1 247:1 270:1 332:1 439:1 445:1 500:1 576:1 580:1 627:1 672:1 963:1 1181:1 1219:1 1224:1 1227:1 1236:1 1248:1 1250:1 1252:1 1253:1 1260:1 1273:1 1282:1 1283:1 1289:5
-1 189:1 236:1 332:1 432:1 500:1 580:1 809:1 1181:1 1224:1 1227:1 1252:1 1253:1 1260:1 1266:1 1272:1 1289:2
-1 189:1 236:2 1227:1 1272:2 1289:3
-1 189:1 236:2 1227:1 1272:2 1289:2
-1 189:1 426:1 905:1 987:1 1227:1 1270:1 1289:2
-1 186:1 189:1 236:2 439:1 500:1 905:1 987:1 1227:1 1260:1 1270:1 1272:2 1273:1 1289:2
-1 189:1 236:1 916:1 1227:1 1272:1 1289:3
-1 440:1 1275:1 1289:1
-1 440:1 1275:1 1289:1
-1 659:1 1280:1 1289:3
-1 189:1 236:2 247:1 332:1 439:1 500:1 627:1 672:1 736:31 963:1 1181:1 1219:1 1224:1 1227:1 1236:1 1248:1 1252:1 1260:1 1272:2 1273:1 1283:1 1289:2
-1 134:1 212:1 232:1 236:1 258:1 312:1 432:1 467:1 508:1 535:1 684:1 766:1 768:1 806:1 814:1 838:1 920:1 944:1 1034:1 1056:1 1064:1 1151:1 1241:1 1259:1 1266:1 1272:1 1289:1
-1 659:1 1280:1 1289:3
-1 189:1 236:1 247:1 432:1 548:1 963:1 1181:1 1223:1 1227:1 1248:1 1252:1 1266:1 1272:1 1283:1 1289:1
-1 189:1 236:1 432:1 1148:1 1227:1 1266:1 1272:1 1289:2
-1 189:1 236:1 500:1 1074:1 1227:1 1260:1 1272:1 1289:2
-1 189:1 432:1 627:1 860:1 1227:1 1236:1 1266:1 1289:1
-1 189:1 500:1 672:1 1219:1 1227:1 1260:1 1289:4
-1 189:1 236:1 247:1 332:1 379:1 439:1 500:1 548:1 580:1 627:1 672:1 963:1 1058:1 1181:1 1219:1 1223:1 1224:1 1227:1 1236:1 1248:1 1252:1 1253:1 1260:1 1272:1 1273:1 1281:1 1283:1 1289:2
-1 163:1 189:1 202:1 237:1 332:1 439:1 500:1 580:1 627:1 672:1 963:1 1181:1 1219:1 1224:1 1227:1 1236:1 1244:1 1248:1 1252:1 1253:1 1260:1 1273:1 1276:1 1289:2
-1 134:1 189:1 232:1 236:1 439:1 467:1 500:1 548:1 768:1 838:1 1034:1 1223:1 1227:1 1241:1 1259:1 1260:1 1272:1 1273:1 1289:2
-1 134:1 189:1 232:1 236:1 247:1 467:1 768:1 838:1 860:1 1034:1 1227:1 1241:1 1259:1 1272:1 1283:1 1289:2
-1 659:1 1280:1 1289:2
-1 189:1 236:2 1227:1 1272:2 1289:2
-1 189:1 236:2 1227:1 1272:2 1289:2
-1 189:4 247:1 332:1 500:2 1181:3 1224:1 1227:4 1252:3 1260:2 1283:1 1289:4
-1 189:1 1227:1 1289:2
-1 659:1 1280:1 1289:3
-1 659:1 1280:1 1289:2
-1 134:1 189:1 232:1 236:1 247:1 258:1 339:1 432:1 467:1 476:1 500:1 548:1 627:1 768:1 838:1 880:1 938:1 963:1 989:1 1034:1 1047:1 1181:1 1198:1 1223:1 1225:1 1227:1 1236:1 1237:1 1241:1 1248:1 1252:1 1259:1 1260:1 1266:1 1272:1 1274:1 1283:1 1287:1 1289:1
-1 659:1 1280:1 1289:3
-1 189:1 1227:1 1289:1
-1 134:1 232:1 236:1 258:1 432:1 467:1 483:1 684:1 768:1 838:1 1034:1 1124:1 1241:1 1259:1 1266:1 1272:1 1289:2
-1 189:1 332:1 439:1 500:1 627:1 963:1 1181:1 1224:1 1227:1 1236:1 1248:1 1252:1 1260:1 1273:1 1289:2
-1 659:1 1280:1 1289:3
-1 659:1 1280:1 1289:3
-1 134:1 164:1 172:1 212:1 221:1 232:1 236:1 258:1 309:1 332:1 339:1 352:1 432:1 439:1 467:1 483:1 500:1 563:1 565:1 595:1 620:1 656:1 684:1 743:1 766:1 768:1 806:1 838:1 860:1 880:1 920:1 944:1 989:1 1034:1 1056:1 1124:1 1126:1 1142:1 1151:1 1198:1 1224:1 1225:1 1231:1 1237:1 1241:1 1259:1 1260:1 1266:1 1272:1 1273:1 1274:1 1289:3
-1 659:1 1280:1 1289:3
-1 189:1 236:1 1227:1 1272:1 1289:5
-1 659:1 1280:1 1289:2
-1 134:1 189:1 232:1 236:1 467:1 500:1 548:1 627:1 768:1 838:1 860:1 1034:1 1181:1 1223:1 1227:1 1236:1 1241:1 1252:1 1259:1 1260:1 1272:1 1289:2
-1 659:1 1280:1 1289:4
-1 236:1 526:1 1272:1 1289:1
-1 189:1 236:1 500:1 672:1 1219:1 1227:1 1260:1 1272:1 1289:2
-1 189:1 963:1 1227:1 1248:1 1289:2
-1 189:1 247:1 439:1 500:1 675:1 1181:1 1227:1 1228:1 1252:1 1260:1 1273:1 1283:1 1289:2
-1 189:1 247:1 332:1 439:1 500:1 580:1 627:1 743:1 963:1 1181:1 1224:1 1227:1 1231:1 1236:1 1248:1 1252:1 1253:1 1260:1 1273:1 1283:1 1289:4
-1 189:1 193:1 236:1 332:1 439:1 500:1 576:1 627:1 672:1 734:1 963:1 1181:1 1218:1 1219:1 1224:1 1227:1 1236:1 1248:1 1250:1 1252:1 1260:1 1272:1 1273:1 1289:2
-1 189:5 247:3 332:1 439:1 500:2 580:1 627:2 672:1 963:1 1181:3 1219:1 1224:1 1227:5 1236:2 1248:1 1252:3 1253:1 1260:2 1273:1 1283:3 1289:6
-1 189:1 332:1 439:1 445:1 500:1 548:1 576:1 627:1 672:1 837:1 1181:1 1219:1 1223:1 1224:1 1227:1 1236:1 1250:1 1252:1 1258:1 1260:1 1273:1 1282:1 1289:2
-1 189:1 293:1 332:1 439:1 445:1 500:1 548:1 576:1 627:1 672:1 837:1 1181:1 1219:1 1223:1 1224:1 1227:1 1236:1 1250:1 1252:1 1258:1 1260:1 1261:1 1273:1 1282:1 1289:2
-1 189:1 236:1 500:1 1181:1 1227:1 1252:1 1260:1 1272:1 1289:2
-1 189:1 439:1 500:1 580:1 672:1 1181:1 1219:1 1227:1 1252:1 1253:1 1260:1 1273:1 1289:2
-1 162:1 189:1 206:1 439:1 500:1 830:1 1227:1 1260:1 1271:1 1273:1 1289:1
-1 440:1 1275:1 1289:1
-1 162:1 163:1 189:1 247:1 332:1 439:1 461:1 500:1 548:1 580:1 627:1 672:1 693:1 734:1 830:1 963:1 1033:1 1181:1 1214:1 1218:1 1219:1 1223:1 1224:1 1227:1 1236:1 1248:1 1252:1 1253:1 1260:1 1271:1 1273:1 1283:1 1289:1
-1 659:1 1280:1 1289:3
-1 189:1 439:1 500:1 627:1 1181:1 1227:1 1236:1 1252:1 1260:1 1273:1 1289:2
-1 189:1 1227:1 1289:1
-1 189:4 247:2 332:1 439:1 500:2 576:1 672:1 1181:2 1219:1 1224:1 1227:4 1250:1 1252:2 1260:2 1273:1 1283:2 1289:6
-1 189:1 236:2 1227:1 1272:2 1289:2
-1 189:1 193:1 236:1 439:1 500:1 576:1 675:1 963:1 1058:1 1082:1 1181:1 1227:1 1228:1 1248:1 1250:1 1252:1 1260:1 1272:1 1273:1 1289:3 1291:9
-1 189:1 236:1 500:1 1074:1 1227:1 1260:1 1272:1 1289:2
-1 189:2 247:1 332:1 500:2 1181:2 1224:1 1227:2 1252:2 1260:2 1283:1 1289:6
-1 189:1 247:1 439:1 500:1 548:1 576:1 580:1 627:1 963:1 1181:1 1223:1 1227:1 1236:1 1248:1 1250:1 1252:1 1253:1 1260:1 1273:1 1283:1 1289:2
-1 189:1 500:1 544:1 1222:1 1227:1 1260:1 1289:2
-1 189:1 247:1 439:1 500:1 576:1 578:1 627:1 837:1 963:1 987:1 1181:1 1227:1 1236:1 1248:1 1250:1 1251:1 1252:1 1258:1 1260:1 1270:1 1273:1 1283:1 1289:2 1291:40
-1 181:1 189:1 332:1 340:1 439:1 500:1 548:1 601:1 627:1 657:1 734:1 758:1 765:1 820:1 829:1 893:1 950:1 1051:1 1085:1 1181:1 1183:1 1216:1 1218:1 1223:1 1224:1 1226:1 1227:1 1229:1 1234:1 1236:1 1238:1 1239:1 1245:1 1247:1 1249:1 1252:1 1254:1 1255:1 1260:1 1273:1 1278:1 1286:1 1289:2
-1 659:1 1280:1 1289:3
-1 189:1 217:1 236:1 330:1 439:1 500:1 672:1 1219:1 1227:1 1260:1 1272:1 1273:1 1289:2
-1 189:1 236:1 330:1 439:1 500:1 672:1 1219:1 1227:1 1260:1 1272:1 1273:1 1289:2
-1 189:1 236:1 330:1 439:1 500:1 672:1 1219:1 1227:1 1260:1 1272:1 1273:1 1289:2
-1 189:1 1227:1 1289:2
-1 189:1 332:1 439:1 500:1 580:1 627:1 963:1 1181:1 1224:1 1227:1 1236:1 1248:1 1252:1 1253:1 1260:1 1273:1 1289:2
-1 440:1 1275:1 1289:1
-1 189:3 247:1 332:1 439:1 445:1 500:2 580:1 627:1 672:1 963:1 1181:2 1219:1 1224:1 1227:3 1236:1 1248:1 1252:2 1253:1 1260:2 1273:1 1282:1 1283:1 1289:6
-1 189:1 236:1 500:1 1074:1 1227:1 1260:1 1272:1 1289:3
-1 134:1 189:1 232:1 236:1 247:1 352:1 432:1 467:1 500:1 548:1 656:1 768:1 814:1 838:1 860:1 944:1 1034:1 1144:1 1151:1 1181:1 1223:1 1227:1 1241:1 1252:1 1259:1 1260:1 1266:1 1272:1 1283:1 1289:3
-1 134:1 137:1 189:1 232:1 236:1 332:1 378:1 432:1 439:1 461:1 467:1 500:1 565:1 627:1 672:1 768:1 838:1 880:1 1034:1 1181:1 1214:1 1219:1 1224:1 1225:1 1227:1 1236:1 1241:1 1252:1 1259:1 1260:1 1266:1 1272:1 1273:1 1289:2
-1 162:1 189:1 206:1 332:1 430:1 439:1 500:1 627:1 672:1 688:1 830:1 1063:1 1181:1 1219:1 1224:1 1227:1 1236:1 1252:1 1260:1 1271:1 1273:1 1289:1
-1 189:1 247:1 500:1 548:1 764:1 846:1 963:1 1181:1 1223:1 1227:1 1248:1 1252:1 1260:1 1267:1 1283:1 1289:2
-1 189:1 236:1 247:1 500:1 580:1 963:1 1181:1 1227:1 1248:1 1252:1 1253:1 1260:1 1272:1 1283:1 1289:1 1291:1
-1 189:1 236:1 523:1 852:1 1125:1 1227:1 1272:1 1289:6
-1 659:1 1280:1 1289:5
-1 189:1 193:1 236:1 237:1 332:1 439:1 500:1 576:1 627:1 660:1 672:1 675:1 905:1 963:1 987:1 1058:1 1181:1 1219:1 1224:1 1227:1 1228:1 1236:1 1248:1 1250:1 1252:1 1260:1 1270:1 1272:1 1273:1 1276:1 1289:2 1291:61
-1 189:1 332:1 439:1 500:1 580:1 627:1 963:1 1181:1 1224:1 1227:1 1236:1 1248:1 1252:1 1253:1 1260:1 1273:1 1289:3
-1 375:1 432:1 1266:1 1289:2
-1 189:1 432:1 1227:1 1266:1 1289:1
-1 189:1 236:1 247:1 332:1 439:1 500:1 627:1 672:1 963:1 1181:1 1219:1 1224:1 1227:1 1236:1 1248:1 1252:1 1260:1 1272:1 1273:1 1283:1 1289:4
-1 189:1 236:1 565:1 1227:1 1272:1 1289:2
-1 189:1 439:1 500:1 672:1 1181:1 1219:1 1227:1 1252:1 1260:1 1273:1 1289:1
-1 659:1 1280:1 1289:3
-1 131:1 134:1 157:1 189:1 232:1 236:1 247:1 332:1 432:1 439:1 467:1 500:1 768:1 836:1 838:1 856:1 860:1 963:1 1034:1 1181:1 1224:1 1227:1 1241:1 1248:1 1252:1 1259:1 1260:1 1266:1 1268:1 1272:1 1273:1 1277:1 1283:1 1289:1
-1 189:1 236:1 247:1 500:1 963:1 1181:1 1227:1 1248:1 1252:1 1260:1 1272:1 1283:1 1289:2
-1 189:1 1066:1 1227:1 1289:2
-1 189:1 236:1 500:1 1227:1 1260:1 1272:1 1289:4
-1 189:1 236:2 675:1 837:1 1227:1 1228:1 1258:1 1272:2 1289:3
-1 189:1 233:1 500:1 963:1 1227:1 1248:1 1260:1 1289:2
-1 189:1 233:1 500:1 963:1 1227:1 1248:1 1260:1 1289:2
-1 189:1 236:1 331:1 500:1 550:1 781:1 943:1 1227:1 1260:1 1272:1 1289:3
-1 189:1 236:1 905:1 987:1 1011:1 1227:1 1270:1 1272:1 1289:2
-1 189:1 675:1 1181:1 1227:1 1228:1 1252:1 1289:2
-1 189:1 764:1 1181:1 1227:1 1252:1 1289:1
-1 189:1 236:2 675:1 1227:1 1228:1 1272:2 1289:3
-1 189:4 247:2 332:1 439:1 445:1 500:2 580:1 627:1 675:1 963:1 1181:2 1224:1 1227:4 1228:1 1236:1 1248:1 1252:2 1253:1 1260:2 1273:1 1282:1 1283:2 1289:6
-1 189:4 247:2 332:1 439:1 500:2 580:1 672:1 675:1 1181:2 1219:1 1224:1 1227:4 1228:1 1252:2 1253:1 1260:2 1273:1 1283:2 1289:6
-1 162:1 189:1 247:1 332:1 379:1 389:1 439:1 461:1 500:1 548:1 555:1 576:1 580:1 627:1 734:1 743:1 837:1 846:1 880:1 938:1 963:1 1120:1 1181:1 1214:1 1218:1 1223:1 1224:1 1225:1 1227:1 1230:1 1231:1 1236:1 1248:1 1250:1 1252:1 1253:1 1258:1 1260:1 1264:1 1267:1 1271:1 1273:1 1281:1 1283:1 1285:1 1287:1 1289:2
-1 659:1 1280:1 1289:3
-1 659:1 1280:1 1289:2
-1 189:4 247:2 283:1 500:2 1175:1 1181:1 1227:4 1252:1 1260:2 1283:2 1289:5
-1 189:4 247:3 332:1 439:1 500:2 580:1 672:1 905:1 963:1 987:2 1181:2 1219:1 1224:1 1227:4 1248:1 1252:2 1253:1 1260:2 1270:2 1273:1 1283:3 1289:6
-1 189:1 426:1 905:1 987:1 1060:1 1175:1 1227:1 1270:1 1289:4
-1 189:1 332:1 439:1 500:1 627:1 963:1 1181:1 1224:1 1227:1 1236:1 1248:1 1252:1 1260:1 1273:1 1289:2
-1 134:1 232:1 236:1 258:1 461:1 467:1 483:1 520:1 563:1 610:1 768:1 806:1 814:1 838:1 920:1 944:1 1034:1 1087:1 1151:1 1214:1 1241:1 1259:1 1272:1 1289:2
-1 189:1 236:1 1227:1 1272:1 1289:5
-1 189:1 236:2 1227:1 1272:2 1289:3
-1 659:1 1280:1 1289:4
-1 440:1 1275:1 1289:1
-1 131:1 134:1 212:1 229:1 232:1 236:1 251:1 258:1 286:1 289:1 333:1 352:1 358:1 401:1 432:1 441:1 447:1 467:1 483:1 485:1 495:1 500:1 561:1 591:1 620:1 654:1 656:1 768:1 806:1 838:1 850:1 860:1 887:1 920:1 944:1 989:1 1034:1 1036:1 1056:1 1064:1 1083:1 1087:1 1126:1 1144:1 1151:1 1241:1 1259:1 1260:1 1266:1 1272:1 1289:3
-1 134:1 212:1 232:1 236:1 258:1 467:1 620:1 768:1 806:1 838:1 920:1 989:1 1034:1 1241:1 1259:1 1272:1 1289:2
-1 659:1 1280:1 1289:2
-1 189:1 332:1 439:1 445:1 500:1 627:1 672:1 837:1 1181:1 1219:1 1224:1 1227:1 1236:1 1252:1 1258:1 1260:1 1273:1 1282:1 1289:1
-1 440:1 1275:1 1289:1
-1 189:2 247:1 332:1 500:2 1181:2 1224:1 1227:2 1252:2 1260:2 1283:1 1289:7
-1 162:1 189:1 236:1 247:1 264:1 320:1 332:1 432:1 439:1 500:1 627:1 860:1 1181:1 1224:1 1227:1 1236:1 1252:1 1260:1 1266:1 1271:1 1272:1 1273:1 1283:1 1289:2
-1 189:1 332:1 439:1 500:1 580:1 627:1 963:1 1181:1 1224:1 1227:1 1236:1 1248:1 1252:1 1253:1 1260:1 1273:1 1289:3
-1 440:1 1275:1 1289:1
-1 1289:3
-1 189:1 236:1 432:1 500:1 1227:1 1260:1 1266:1 1272:1 1289:2
-1 157:1 189:1 236:1 319:1 332:1 339:1 439:1 500:1 548:1 576:1 627:1 672:1 837:1 963:1 1120:1 1181:1 1219:1 1223:1 1224:1 1227:1 1236:1 1237:1 1248:1 1250:1 1252:1 1258:1 1260:1 1264:1 1268:1 1272:1 1273:1 1288:1 1289:4
-1 659:1 1280:1 1289:3
-1 189:4 247:2 332:1 439:1 500:2 580:1 627:1 1181:2 1224:1 1227:4 1236:1 1252:2 1253:1 1260:2 1273:1 1283:2 1289:6
-1 189:1 236:1 394:1 963:1 1227:1 1248:1 1272:1 1289:1
-1 247:1 702:1 963:1 997:1 1248:1 1283:1 1289:2
-1 189:1 236:2 1227:1 1272:2 1289:5
-1 189:1 500:1 627:1 1181:1 1227:1 1236:1 1252:1 1260:1 1289:3
-1 659:1 1280:1 1289:2
-1 134:1 212:1 232:1 236:1 258:1 312:1 432:1 467:1 484:1 535:1 563:1 610:1 684:1 697:1 768:1 806:1 838:1 858:1 860:1 900:1 920:1 1034:1 1056:1 1068:1 1126:1 1151:1 1241:1 1259:1 1266:1 1272:1 1289:3
-1 189:1 332:1 439:1 500:1 580:1 627:1 963:1 1181:1 1224:1 1227:1 1236:1 1248:1 1252:1 1253:1 1260:1 1273:1 1289:3
-1 659:1 1280:1 1289:3
-1 189:5 247:3 332:1 439:1 445:1 500:2 578:1 580:1 627:1 672:1 743:1 963:2 987:3 1181:2 1219:1 1224:1 1227:5 1231:1 1236:1 1248:2 1251:1 1252:2 1253:1 1260:2 1270:3 1273:1 1282:1 1283:3 1289:6
-1 659:1 1280:1 1289:3
-1 189:1 400:1 1227:1 1289:3
-1 189:1 426:1 739:1 863:1 905:1 987:1 1227:1 1270:1 1289:1
-1 189:1 426:1 863:1 905:1 987:1 1227:1 1270:1 1289:1
-1 189:1 426:1 739:1 863:1 905:1 987:1 1227:1 1270:1 1289:1
-1 152:1 177:1 189:1 424:1 500:1 907:1 981:1 1095:1 1227:1 1260:1 1289:1
-1 440:1 1275:1 1289:1
-1 189:1 1227:1 1289:2
-1 136:1 189:1 236:2 331:1 444:1 596:1 781:1 849:1 943:1 1227:1 1272:2 1289:2
-1 189:1 439:1 500:1 627:1 672:1 1181:1 1219:1 1227:1 1236:1 1252:1 1260:1 1273:1 1289:1
-1 189:1 969:1 1227:1 1289:3
-1 189:1 969:1 1227:1 1289:3
-1 189:1 969:1 1227:1 1289:3
-1 189:1 969:1 1227:1 1289:3
-1 189:1 344:1 439:1 500:1 634:1 1181:1 1184:1 1227:1 1252:1 1260:1 1273:1 1289:2
-1 189:5 197:1 247:2 332:1 439:1 500:3 578:1 580:1 627:2 672:1 675:1 963:1 1181:2 1219:1 1224:1 1227:5 1228:1 1235:1 1236:2 1248:1 1251:1 1252:2 1253:1 1260:3 1273:1 1283:2 1289:6
-1 189:1 236:1 500:1 548:1 627:1 1223:1 1227:1 1236:1 1260:1 1272:1 1289:6
-1 134:1 137:1 212:1 232:1 236:1 247:1 258:1 309:1 326:1 401:1 432:1 441:1 467:1 470:1 476:1 483:1 513:1 535:1 541:1 571:1 610:1 620:1 656:1 684:1 689:1 697:1 709:1 766:1 768:1 790:1 806:1 814:1 838:1 860:1 872:1 880:1 900:1 920:1 934:1 944:1 989:1 1029:1 1034:1 1047:1 1056:1 1068:1 1090:1 1124:1 1126:1 1151:1 1215:1 1225:1 1241:1 1259:1 1266:1 1272:1 1283:1 1289:2
-1 134:1 189:1 232:1 236:1 258:1 432:1 467:1 627:1 684:1 766:1 768:1 838:1 920:1 944:1 1034:1 1056:1 1227:1 1236:1 1241:1 1259:1 1266:1 1272:1 1289:2
-1 134:1 212:1 232:1 236:1 247:1 258:1 273:1 274:1 352:1 376:1 432:1 467:1 483:1 508:1 514:1 620:1 641:1 656:1 684:1 768:1 806:1 814:1 838:1 860:1 920:1 934:1 944:1 989:1 1034:1 1056:1 1057:1 1087:1 1124:1 1144:1 1151:1 1187:1 1241:1 1259:1 1266:1 1272:1 1283:1 1289:2
-1 189:1 232:1 236:1 245:1 467:1 548:1 768:1 838:1 860:1 1034:1 1181:1 1223:1 1227:1 1252:1 1259:1 1272:1 1289:1
-1 134:1 189:1 232:1 236:1 467:1 500:1 768:1 838:1 1034:1 1227:1 1241:1 1259:1 1260:1 1272:1 1289:3
-1 440:1 1275:1 1289:1
-1 189:1 332:1 439:1 500:1 580:1 627:1 963:1 1181:1 1224:1 1227:1 1236:1 1248:1 1252:1 1253:1 1260:1 1273:1 1289:3
-1 659:1 1280:1 1289:3
-1 189:1 236:1 247:1 432:1 500:1 836:1 963:1 1181:1 1227:1 1248:1 1252:1 1260:1 1266:1 1272:1 1283:1 1289:2
-1 189:1 1227:1 1289:1
-1 189:1 236:1 247:1 332:1 432:1 439:1 500:1 627:1 858:1 860:1 1181:1 1224:1 1227:1 1236:1 1252:1 1260:1 1266:1 1272:1 1273:1 1283:1 1289:1
-1 659:1 1280:1 1289:2
-1 189:1 236:1 1181:1 1227:1 1252:1 1272:1 1289:3
-1 189:1 202:1 247:1 324:1 332:1 439:1 500:1 576:1 672:1 963:1 1115:1 1181:1 1219:1 1224:1 1227:1 1244:1 1248:1 1250:1 1252:1 1256:1 1260:1 1273:1 1283:1 1289:2
-1 189:1 202:1 247:1 324:1 332:1 439:1 500:1 576:1 672:1 963:1 1115:1 1181:1 1219:1 1224:1 1227:1 1244:1 1248:1 1250:1 1252:1 1256:1 1260:1 1273:1 1283:1 1289:2
-1 134:1 232:1 247:1 258:1 289:1 417:1 463:1 467:1 484:1 535:1 657:1 686:1 768:1 806:1 814:1 838:1 860:1 891:1 920:1 944:1 989:1 1010:1 1034:1 1056:1 1087:1 1126:1 1133:1 1151:1 1241:1 1246:1 1259:1 1278:1 1283:1 1289:1
-1 139:1 189:1 236:1 439:1 500:1 627:1 1181:1 1227:1 1236:1 1252:1 1260:1 1272:1 1273:1 1289:2
-1 139:1 189:4 247:2 332:1 439:1 500:2 576:1 580:1 1181:2 1224:1 1227:4 1250:1 1252:2 1253:1 1260:2 1273:1 1283:2 1289:6
-1 189:1 236:1 332:1 439:1 500:1 627:1 1058:1 1074:1 1181:1 1224:1 1227:1 1236:1 1252:1 1260:1 1272:1 1273:1 1289:2
-1 189:4 247:2 332:1 439:1 500:2 627:1 675:1 1181:2 1224:1 1227:4 1228:1 1236:1 1252:2 1260:2 1273:1 1283:2 1289:6
-1 189:1 1227:1 1289:1
-1 189:1 1227:1 1289:2
-1 659:1 1280:1 1289:3
-1 170:1 1289:2
-1 189:1 236:2 332:1 439:1 500:1 627:1 672:1 675:1 963:1 1181:1 1219:1 1224:1 1227:1 1228:1 1236:1 1248:1 1252:1 1260:1 1272:2 1273:1 1289:2
-1 189:1 236:1 1227:1 1272:1 1289:2
-1 189:1 247:1 261:1 332:1 439:1 461:1 500:1 548:1 580:1 627:1 630:1 672:1 963:1 1181:1 1214:1 1219:1 1220:1 1223:1 1224:1 1227:1 1236:1 1248:1 1252:1 1253:1 1260:1 1273:1 1283:1 1289:2
-1 189:1 247:1 332:1 439:1 500:1 580:1 627:1 672:1 963:1 1181:1 1219:1 1224:1 1227:1 1236:1 1248:1 1252:1 1253:1 1260:1 1273:1 1283:1 1289:1
-1 189:1 236:1 461:1 500:1 580:1 860:1 1181:1 1214:1 1227:1 1252:1 1253:1 1260:1 1272:1 1289:1
-1 134:1 212:1 232:1 258:1 312:1 367:1 417:1 432:1 467:1 484:1 535:1 657:1 684:1 768:1 806:1 920:1 989:1 1034:1 1056:1 1241:1 1246:1 1266:1 1278:1 1289:2
-1 189:1 236:1 432:1 500:1 580:1 837:1 860:1 1181:1 1227:1 1252:1 1253:1 1258:1 1260:1 1266:1 1272:1 1289:1 1291:3
-1 134:1 232:1 236:1 258:1 432:1 461:1 467:1 483:1 513:1 535:1 651:1 656:1 684:1 768:1 806:1 838:1 860:1 880:1 920:1 1034:1 1056:1 1214:1 1225:1 1241:1 1259:1 1266:1 1272:1 1289:1
-1 189:1 247:1 332:1 439:1 500:1 627:1 672:1 963:1 1181:1 1219:1 1224:1 1227:1 1236:1 1248:1 1252:1 1260:1 1273:1 1283:1 1289:1
-1 659:1 1280:1 1289:4
-1 154:1 236:1 247:1 327:1 380:1 432:1 773:1 816:1 869:1 913:1 1266:1 1272:1 1283:1 1289:1
-1 147:1 232:1 236:1 247:1 256:1 288:1 289:1 317:1 338:1 393:1 409:1 432:1 552:1 594:1 642:1 687:1 759:1 814:1 838:1 868:1 876:1 877:1 904:1 920:1 1000:1 1243:1 1259:1 1266:1 1272:1 1283:1 1289:1
-1 134:1 171:1 229:1 232:1 236:1 247:1 258:1 274:1 309:1 312:1 432:1 447:1 467:1 563:1 684:1 766:1 768:1 806:1 814:1 838:1 860:1 887:1 900:1 920:1 989:1 1034:1 1056:1 1090:1 1127:1 1143:1 1151:1 1241:1 1259:1 1266:1 1272:1 1283:1 1284:1 1289:2
-1 659:1 1280:1 1289:3
-1 189:1 236:1 331:1 1227:1 1272:1 1289:2
-1 659:1 1280:1 1289:3
-1 134:1 157:1 189:1 212:1 232:1 236:1 258:1 274:1 332:1 349:1 352:1 432:1 439:1 467:1 483:1 495:1 500:1 541:1 548:1 578:1 656:1 684:1 700:1 746:1 768:1 819:1 838:1 860:1 920:1 989:1 1034:1 1087:1 1126:1 1142:1 1144:1 1151:1 1181:1 1223:1 1224:1 1227:1 1241:1 1251:1 1252:1 1259:1 1260:1 1266:1 1268:1 1272:1 1273:1 1289:3
-1 659:1 1280:1 1289:3
-1 659:1 1280:1 1289:3
-1 659:1 1280:1 1289:3
-1 189:1 236:1 332:1 500:1 1181:1 1224:1 1227:1 1252:1 1260:1 1272:1 1289:2
-1 189:1 1227:1 1289:1
-1 163:1 189:1 237:1 332:1 439:1 500:1 576:1 627:1 660:1 672:1 812:1 963:1 1181:1 1219:1 1224:1 1227:1 1232:1 1236:1 1248:1 1250:1 1252:1 1260:1 1273:1 1276:1 1289:2 1291:2
-1 189:1 236:1 500:1 627:1 1181:1 1227:1 1236:1 1252:1 1260:1 1272:1 1289:3
-1 189:4 247:1 332:1 500:2 1181:3 1224:1 1227:4 1252:3 1260:2 1283:1 1289:4
-1 134:1 137:1 195:1 212:1 232:1 236:1 258:1 300:1 312:1 432:1 461:1 463:1 467:1 610:1 620:1 684:1 689:1 768:1 806:1 838:1 900:1 920:1 1010:1 1029:1 1034:1 1056:1 1151:1 1214:1 1241:1 1259:1 1266:1 1272:1 1289:2
-1 189:1 194:1 236:1 330:1 1227:1 1272:1 1289:3
-1 189:1 236:1 523:1 852:1 1125:1 1227:1 1272:1 1289:6
-1 189:1 236:1 523:1 852:1 1125:1 1227:1 1272:1 1289:6
-1 189:1 236:1 523:1 852:1 1125:1 1227:1 1272:1 1289:5
-1 189:1 236:1 523:1 852:1 1125:1 1227:1 1272:1 1289:5
-1 189:1 236:2 319:1 331:1 781:1 943:1 1227:1 1272:2 1288:1 1289:2
-1 123:1 134:1 232:1 258:1 417:1 432:1 467:1 484:1 657:1 768:1 860:1 989:1 1034:1 1241:1 1246:1 1266:1 1278:1 1289:2
-1 123:1 134:1 232:1 258:1 417:1 432:1 467:1 484:1 657:1 768:1 860:1 989:1 1034:1 1241:1 1246:1 1266:1 1278:1 1289:2
-1 189:1 236:1 1227:1 1272:1 1289:6
-1 659:1 1280:1 1289:3
-1 134:1 159:1 212:1 232:1 236:1 247:1 258:1 273:1 274:1 352:1 376:1 467:1 483:1 514:1 563:1 620:1 656:1 678:1 684:1 686:1 768:1 806:1 838:1 860:1 880:1 920:1 944:1 989:1 1034:1 1056:1 1151:1 1225:1 1241:1 1259:1 1269:1 1272:1 1283:1 1289:2
-1 134:1 212:1 232:1 236:1 247:1 273:1 274:1 376:1 384:1 467:1 483:1 620:1 667:1 684:1 766:1 768:1 806:1 814:1 838:1 860:1 882:1 920:1 1034:1 1056:1 1124:1 1151:1 1241:1 1259:1 1272:1 1283:1 1289:2
-1 134:1 212:1 232:1 236:1 258:1 274:1 352:1 367:1 394:1 432:1 467:1 483:1 517:1 620:1 654:1 656:1 746:1 768:1 806:1 814:1 838:1 860:1 872:1 880:1 920:1 944:1 989:1 1034:1 1056:1 1161:1 1225:1 1241:1 1259:1 1266:1 1272:1 1279:1 1289:2
-1 134:1 232:1 236:1 349:1 376:1 405:1 461:1 467:1 500:1 684:1 768:1 838:1 860:1 920:1 1034:1 1151:1 1186:1 1214:1 1241:1 1259:1 1260:1 1272:1 1289:2
-1 134:1 232:1 236:1 247:1 273:1 352:1 376:1 461:1 467:1 483:1 514:1 641:1 656:1 667:1 684:1 768:1 838:1 860:1 920:1 1034:1 1056:1 1124:1 1151:1 1209:1 1214:1 1241:1 1259:1 1272:1 1283:1 1289:2
-1 659:1 1280:1 1289:3
-1 659:1 1280:1 1289:2
-1 134:1 232:1 236:1 258:1 432:1 467:1 684:1 768:1 806:1 838:1 1034:1 1056:1 1120:1 1151:1 1241:1 1259:1 1264:1 1266:1 1272:1 1289:2
-1 659:1 1280:1 1289:3
-1 189:1 236:2 437:1 515:1 523:1 852:1 894:1 979:1 1181:1 1227:1 1252:1 1272:2 1289:4
-1 189:1 500:1 1227:1 1260:1 1289:2
-1 659:1 1280:1 1289:3
-1 659:1 1280:1 1289:3
-1 659:1 1280:1 1289:3
-1 189:1 236:1 432:1 1148:1 1227:1 1266:1 1272:1 1289:2
-1 189:1 247:1 261:1 332:1 461:1 500:1 548:1 580:1 627:1 1181:1 1214:1 1220:1 1223:1 1224:1 1227:1 1236:1 1252:1 1253:1 1260:1 1283:1 1289:1 1291:3
-1 189:1 332:1 439:1 500:1 580:1 1181:1 1224:1 1227:1 1252:1 1253:1 1260:1 1273:1 1289:2
-1 189:1 247:1 332:1 379:1 439:1 500:1 548:1 963:1 1181:1 1223:1 1224:1 1227:1 1248:1 1252:1 1260:1 1273:1 1281:1 1283:1 1289:1
-1 659:1 1280:1 1289:3
-1 189:1 1227:1 1289:1
-1 134:1 137:1 189:1 232:1 236:1 332:1 349:1 378:1 467:1 500:1 627:1 768:1 838:1 860:1 880:1 963:1 1034:1 1181:1 1224:1 1225:1 1227:1 1236:1 1241:1 1248:1 1252:1 1259:1 1260:1 1272:1 1289:2
-1 134:1 232:1 236:1 467:1 500:1 548:1 627:1 768:1 838:1 860:1 963:1 1034:1 1223:1 1236:1 1241:1 1248:1 1259:1 1260:1 1272:1 1289:3
-1 189:1 236:1 1227:1 1272:1 1289:2 1291:1
-1 189:1 236:1 1227:1 1272:1 1289:2 1291:1
-1 189:1 247:1 332:1 439:1 500:1 548:1 576:1 627:1 672:1 856:1 905:1 963:1 987:1 1181:1 1219:1 1223:1 1224:1 1227:1 1236:1 1248:1 1250:1 1252:1 1260:1 1270:1 1273:1 1277:1 1283:1 1289:2
-1 189:1 247:1 332:1 439:1 500:1 548:1 576:1 627:1 672:1 856:1 905:1 963:1 987:1 1181:1 1219:1 1223:1 1224:1 1227:1 1236:1 1248:1 1250:1 1252:1 1260:1 1270:1 1273:1 1277:1 1283:1 1289:3
-1 189:1 236:1 500:1 1001:1 1175:1 1227:1 1260:1 1272:1 1289:3
-1 189:4 247:1 332:1 500:2 1181:3 1224:1 1227:4 1252:3 1260:2 1283:1 1289:4
-1 134:1 137:1 140:1 164:1 189:1 232:1 236:1 247:1 265:1 432:1 445:1 467:1 500:1 548:1 580:1 768:1 837:1 838:1 860:1 1034:1 1151:1 1223:1 1227:1 1241:1 1253:1 1258:1 1259:1 1260:1 1266:1 1272:1 1282:1 1283:1 1289:2
-1 162:1 189:1 247:1 332:1 439:1 500:1 548:1 580:1 627:1 693:1 830:1 963:1 1033:1 1181:1 1223:1 1224:1 1227:1 1236:1 1248:1 1252:1 1253:1 1260:1 1271:1 1273:1 1283:1 1289:1
-1 162:1 189:1 332:1 439:1 500:1 627:1 672:1 837:1 1181:1 1219:1 1224:1 1227:1 1236:1 1252:1 1258:1 1260:1 1271:1 1273:1 1289:1
-1 189:1 332:1 439:1 500:1 580:1 627:1 963:1 1181:1 1224:1 1227:1 1236:1 1248:1 1252:1 1253:1 1260:1 1273:1 1289:2
-1 189:4 247:2 332:1 439:1 500:2 580:1 627:2 672:1 963:1 1181:2 1219:1 1224:1 1227:4 1236:2 1248:1 1252:2 1253:1 1260:2 1273:1 1283:2 1289:6
-1 189:2 247:1 332:1 500:2 1181:2 1224:1 1227:2 1252:2 1260:2 1283:1 1289:7
-1 659:1 1280:1 1289:3
-1 134:1 232:1 236:1 258:1 289:1 309:1 312:1 432:1 467:1 470:1 620:1 684:1 768:1 806:1 814:1 838:1 920:1 934:1 944:1 989:1 1034:1 1056:1 1068:1 1241:1 1259:1 1266:1 1272:1 1289:2
-1 134:1 145:1 189:1 232:1 236:1 432:1 467:1 766:1 768:1 806:1 814:1 836:1 838:1 920:1 944:1 1034:1 1143:1 1227:1 1241:1 1259:1 1266:1 1272:1 1284:1 1289:2
-1 659:1 1280:1 1289:3
-1 659:1 1280:1 1289:2
-1 189:4 247:2 332:1 500:2 1181:3 1224:1 1227:4 1252:3 1260:2 1283:2 1289:6
-1 440:1 1275:1 1289:3
-1 440:1 1275:1 1289:2
-1 440:1 1275:1 1289:2
-1 440:1 1275:1 1289:2
-1 440:1 1275:1 1289:2
-1 440:1 1275:1 1289:2
-1 440:1 1275:1 1289:1
-1 440:1 1275:1 1289:1
-1 440:1 1275:1 1289:2
-1 440:1 1275:1 1289:1
-1 440:1 1275:1 1289:1
-1 440:1 1275:1 1289:1
-1 134:1 189:1 232:1 236:1 352:1 467:1 500:1 548:1 656:1 768:1 836:1 838:1 860:1 1034:1 1181:1 1223:1 1227:1 1241:1 1252:1 1259:1 1260:1 1272:1 1289:3
-1 134:1 137:1 159:1 189:1 232:1 236:1 247:1 300:1 326:1 352:1 439:1 461:1 467:1 500:1 514:1 517:1 555:1 689:1 734:1 750:1 768:1 838:1 860:1 880:1 963:1 989:1 1034:1 1117:1 1181:1 1198:1 1214:1 1215:1 1218:1 1225:1 1227:1 1230:1 1241:1 1248:1 1252:1 1259:1 1260:1 1269:1 1272:1 1273:1 1274:1 1279:1 1283:1 1289:1
-1 134:1 232:1 236:1 467:1 483:1 667:1 768:1 838:1 920:1 1034:1 1241:1 1259:1 1272:1 1289:2
-1 189:1 247:1 332:1 439:1 500:1 548:1 672:1 963:1 1115:1 1181:1 1219:1 1223:1 1224:1 1227:1 1248:1 1252:1 1256:1 1260:1 1273:1 1283:1 1289:1
-1 659:1 1280:1 1289:4
-1 659:1 1280:1 1289:3
-1 189:1 236:2 675:1 1227:1 1228:1 1272:2 1289:3
-1 189:1 236:2 1227:1 1272:2 1289:2
-1 134:1 212:1 232:1 236:1 258:1 432:1 467:1 610:1 766:1 768:1 838:1 860:1 920:1 989:1 1034:1 1241:1 1259:1 1266:1 1272:1 1289:1
-1 189:1 224:1 720:1 969:1 1227:1 1289:2
-1 189:2 247:1 332:1 500:2 1181:2 1224:1 1227:2 1252:2 1260:2 1283:1 1289:7
-1 157:1 162:1 189:1 236:1 247:1 283:1 418:1 439:1 500:1 548:1 564:1 627:1 631:1 672:1 963:1 1181:1 1219:1 1223:1 1227:1 1236:1 1248:1 1252:1 1260:1 1268:1 1271:1 1272:1 1273:1 1283:1 1289:1 1291:43
-1 189:1 439:1 500:1 627:1 1181:1 1227:1 1236:1 1252:1 1260:1 1273:1 1289:2
-1 189:1 236:1 1181:1 1227:1 1252:1 1272:1 1289:2
-1 189:1 213:1 500:1 647:1 1044:1 1137:1 1227:1 1260:1 1289:2
-1 189:1 236:1 247:1 332:1 379:1 439:1 461:1 500:1 548:1 580:1 627:1 734:1 856:1 963:1 1181:1 1214:1 1218:1 1223:1 1224:1 1227:1 1236:1 1248:1 1252:1 1253:1 1260:1 1272:1 1273:1 1277:1 1281:1 1283:1 1289:3
-1 134:1 232:1 236:1 258:1 274:1 290:1 333:1 419:1 432:1 467:1 538:1 620:1 697:1 768:1 788:1 806:1 826:1 838:1 920:1 944:1 989:1 1034:1 1036:1 1110:1 1138:1 1241:1 1259:1 1266:1 1272:1 1289:2
-1 189:1 236:1 247:1 500:1 627:1 963:1 1181:1 1227:1 1236:1 1248:1 1252:1 1260:1 1272:1 1283:1 1289:2
-1 189:1 247:1 332:1 439:1 500:1 580:1 627:1 672:1 963:1 1181:1 1219:1 1224:1 1227:1 1236:1 1248:1 1252:1 1253:1 1260:1 1273:1 1283:1 1289:2
-1 134:1 189:1 220:1 232:1 236:1 258:1 274:1 309:1 326:1 401:1 432:1 467:1 500:1 580:1 620:1 627:1 684:1 768:1 814:1 823:1 838:1 860:1 920:1 1034:1 1056:1 1057:1 1114:1 1181:1 1215:1 1227:1 1236:1 1241:1 1252:1 1253:1 1259:1 1260:1 1266:1 1272:1 1289:3
-1 189:1 332:1 439:1 500:1 580:1 1181:1 1224:1 1227:1 1252:1 1253:1 1260:1 1273:1 1289:2
-1 189:1 332:1 439:1 500:1 580:1 1181:1 1224:1 1227:1 1252:1 1253:1 1260:1 1273:1 1289:2
-1 189:1 247:1 332:1 500:1 627:1 672:1 963:1 1181:1 1219:1 1224:1 1227:1 1236:1 1248:1 1252:1 1260:1 1283:1 1289:1
-1 659:1 1280:1 1289:3
-1 189:2 247:1 332:1 500:2 1181:2 1224:1 1227:2 1252:2 1260:2 1283:1 1289:7
-1 162:1 189:1 236:1 247:1 394:1 432:1 439:1 461:1 500:1 548:1 627:1 700:1 880:1 935:1 938:1 963:1 1118:1 1181:1 1214:1 1223:1 1225:1 1227:1 1236:1 1248:1 1252:1 1260:1 1266:1 1271:1 1272:1 1273:1 1283:1 1287:1 1289:1
-1 189:1 236:1 500:1 627:1 1181:1 1227:1 1236:1 1252:1 1260:1 1272:1 1289:4
-1 189:1 813:1 969:1 1120:1 1227:1 1264:1 1289:3
-1 189:1 771:1 969:1 1120:1 1227:1 1264:1 1289:3
-1 189:5 247:2 332:1 439:1 500:2 580:1 1181:2 1224:1 1227:5 1252:2 1253:1 1260:2 1273:1 1283:2 1289:6
-1 189:1 332:1 500:1 627:1 1181:1 1224:1 1227:1 1236:1 1252:1 1260:1 1289:1
-1 189:1 796:1 1227:1 1289:1
-1 189:1 236:1 500:1 860:1 1181:1 1227:1 1252:1 1260:1 1272:1 1289:2
-1 189:1 236:2 439:1 500:1 622:1 813:1 837:1 880:1 1181:1 1225:1 1227:1 1252:1 1258:1 1260:1 1272:2 1273:1 1289:4 1291:5590
-1 189:2 247:1 332:1 500:2 1181:2 1224:1 1227:2 1252:2 1260:2 1283:1 1289:7
-1 189:1 236:1 500:1 627:1 1181:1 1227:1 1236:1 1252:1 1260:1 1272:1 1289:4
-1 189:1 236:1 332:1 349:1 432:1 500:1 627:1 819:1 856:1 963:1 1024:1 1181:1 1224:1 1227:1 1236:1 1248:1 1252:1 1260:1 1266:1 1272:1 1277:1 1289:2
-1 134:1 137:1 179:1 189:1 232:1 236:1 274:1 378:1 432:1 461:1 467:1 500:1 768:1 806:1 827:1 838:1 860:1 944:1 1034:1 1056:1 1151:1 1167:1 1181:1 1214:1 1227:1 1241:1 1252:1 1259:1 1260:1 1266:1 1272:1 1289:3
-1 134:1 211:1 232:1 236:1 467:1 495:1 768:1 776:1 838:1 860:1 920:1 1034:1 1241:1 1259:1 1272:1 1289:2
-1 189:1 332:1 439:1 500:1 580:1 627:1 963:1 1181:1 1224:1 1227:1 1236:1 1248:1 1252:1 1253:1 1260:1 1273:1 1289:3
-1 189:1 247:1 319:1 332:1 439:1 500:1 548:1 830:1 963:1 1030:1 1181:1 1223:1 1224:1 1227:1 1248:1 1252:1 1260:1 1273:1 1283:1 1288:1 1289:2
-1 152:1 189:1 676:1 1040:1 1156:1 1227:1 1289:2
-1 152:1 189:1 247:1 332:1 439:1 500:1 548:1 580:1 627:1 676:1 963:1 1040:1 1156:1 1181:1 1223:1 1224:1 1227:1 1236:1 1248:1 1252:1 1253:1 1260:1 1273:1 1283:1 1289:1
-1 659:1 1280:1 1289:4
-1 659:1 1280:1 1289:2
-1 659:1 1280:1 1289:3
-1 659:1 1280:1 1289:2
-1 659:1 1280:1 1289:3
-1 189:2 247:1 332:1 500:2 1181:2 1224:1 1227:2 1252:2 1260:2 1283:1 1289:7
-1 659:1 1280:1 1289:3
-1 189:1 332:1 439:1 500:1 580:1 627:1 963:1 1181:1 1224:1 1227:1 1236:1 1248:1 1252:1 1253:1 1260:1 1273:1 1289:3
-1 659:1 1280:1 1289:2
-1 659:1 1280:1 1289:2
-1 659:1 1280:1 1289:2
-1 659:1 1280:1 1289:2
-1 189:1 198:1 928:1 967:1 987:1 1227:1 1270:1 1289:3 1291:66
-1 155:1 189:1 544:1 698:1 987:1 1222:1 1227:1 1270:1 1289:1 1291:66
-1 659:1 1280:1 1289:2
-1 134:1 137:1 164:1 169:1 212:1 232:1 236:1 247:1 258:1 274:1 300:1 309:1 376:1 461:1 483:1 514:1 535:1 560:1 563:1 746:1 768:1 806:1 814:1 838:1 860:1 920:1 944:1 989:1 1034:1 1056:1 1151:1 1214:1 1241:1 1259:1 1272:1 1283:1 1289:2
-1 134:1 212:1 232:1 258:1 352:1 417:1 447:1 467:1 484:1 620:1 656:1 657:1 768:1 838:1 860:1 920:1 989:1 1034:1 1144:1 1241:1 1246:1 1259:1 1278:1 1289:2
-1 189:1 247:1 439:1 500:1 548:1 627:1 672:1 734:1 1120:1 1181:1 1218:1 1219:1 1223:1 1227:1 1236:1 1252:1 1260:1 1264:1 1273:1 1283:1 1289:1
-1 189:4 247:1 332:1 500:2 1181:3 1224:1 1227:4 1252:3 1260:2 1283:1 1289:5
-1 189:1 500:1 1181:1 1227:1 1252:1 1260:1 1289:1
-1 189:1 332:1 439:1 500:1 627:1 1181:1 1224:1 1227:1 1236:1 1252:1 1260:1 1273:1 1289:1
-1 189:1 332:1 439:1 500:1 627:1 1181:1 1224:1 1227:1 1236:1 1252:1 1260:1 1273:1 1289:1
-1 189:1 500:1 627:1 1181:1 1227:1 1236:1 1252:1 1260:1 1289:1
-1 189:1 500:1 627:1 1181:1 1227:1 1236:1 1252:1 1260:1 1289:1
-1 189:1 237:1 247:1 270:1 320:1 439:1 445:1 500:1 548:1 580:1 627:1 672:1 836:1 938:1 963:1 1115:1 1181:1 1219:1 1223:1 1227:1 1236:1 1248:1 1252:1 1253:1 1256:1 1260:1 1273:1 1276:1 1282:1 1283:1 1287:1 1289:1
-1 189:1 237:1 247:1 270:1 320:1 439:1 445:1 500:1 548:1 580:1 627:1 672:1 836:1 938:1 963:1 1115:1 1181:1 1219:1 1223:1 1227:1 1236:1 1248:1 1252:1 1253:1 1256:1 1260:1 1273:1 1276:1 1282:1 1283:1 1287:1 1289:1
-1 189:1 236:1 426:1 987:1 1227:1 1270:1 1272:1 1289:3
-1 189:1 439:1 500:1 672:1 1181:1 1219:1 1227:1 1252:1 1260:1 1273:1 1289:1
-1 134:1 189:1 232:1 236:1 432:1 467:1 585:1 627:1 628:1 768:1 838:1 880:1 1034:1 1181:1 1225:1 1227:1 1236:1 1241:1 1252:1 1259:1 1266:1 1272:1 1289:2
-1 189:1 247:1 439:1 500:1 548:1 627:1 963:1 1181:1 1223:1 1227:1 1236:1 1248:1 1252:1 1260:1 1273:1 1283:1 1289:1
-1 189:1 236:1 247:1 548:1 659:1 963:1 1181:1 1223:1 1227:1 1248:1 1252:1 1272:1 1280:1 1283:1 1289:3
-1 157:1 189:1 236:1 247:1 332:1 432:1 439:1 500:1 627:1 880:1 963:1 1181:1 1224:1 1225:1 1227:1 1236:1 1248:1 1252:1 1260:1 1266:1 1268:1 1272:1 1273:1 1283:1 1289:2 1291:1
-1 189:1 236:1 332:1 439:1 500:1 905:1 987:1 1224:1 1227:1 1260:1 1270:1 1272:1 1273:1 1289:3
-1 189:1 236:1 500:1 1227:1 1260:1 1272:1 1289:5
-1 189:1 202:1 247:1 332:1 439:1 500:1 672:1 963:1 1115:1 1181:1 1219:1 1224:1 1227:1 1244:1 1248:1 1252:1 1256:1 1260:1 1273:1 1283:1 1289:2
-1 189:1 259:1 332:1 500:1 627:1 1224:1 1227:1 1236:1 1260:1 1289:2
-1 189:1 439:1 500:1 627:1 675:1 1181:1 1227:1 1228:1 1236:1 1252:1 1260:1 1273:1 1289:2
-1 189:6 217:1 247:3 332:1 439:1 500:2 576:1 578:1 580:1 627:2 672:1 743:1 963:2 1181:2 1219:1 1224:1 1227:6 1231:1 1236:2 1248:2 1250:1 1251:1 1252:2 1253:1 1260:2 1273:1 1283:3 1289:5
-1 189:1 236:1 429:1 432:1 1181:1 1227:1 1252:1 1266:1 1272:1 1289:2
-1 189:1 236:1 247:1 339:1 352:1 432:1 500:1 555:1 656:1 963:1 1181:1 1227:1 1230:1 1237:1 1248:1 1252:1 1260:1 1266:1 1272:1 1283:1 1289:2
-1 659:1 1280:1 1289:3
-1 189:1 204:1 236:2 1227:1 1272:2 1289:2
-1 659:1 1280:1 1289:3
-1 659:1 1280:1 1289:3
-1 659:1 1280:1 1289:3
-1 189:1 202:1 247:1 332:1 439:1 500:1 627:1 672:1 734:1 963:1 1115:1 1181:1 1218:1 1219:1 1224:1 1227:1 1236:1 1244:1 1248:1 1252:1 1256:1 1260:1 1273:1 1283:1 1289:2
-1 440:1 1275:1 1289:1
-1 162:1 189:1 247:1 332:1 439:1 500:1 548:1 576:1 580:1 627:1 837:1 844:1 908:1 963:1 1120:1 1181:1 1198:1 1223:1 1224:1 1227:1 1236:1 1248:1 1250:1 1252:1 1253:1 1258:1 1260:1 1264:1 1271:1 1273:1 1274:1 1283:1 1289:1 1291:4
-1 189:1 439:1 500:1 905:1 987:1 1181:1 1227:1 1252:1 1260:1 1270:1 1273:1 1289:2
-1 189:1 236:1 1227:1 1272:1 1289:3
-1 189:4 247:3 332:1 439:1 500:2 576:1 580:1 627:1 672:1 675:1 963:1 1181:2 1219:1 1224:1 1227:4 1228:1 1236:1 1248:1 1250:1 1252:2 1253:1 1260:2 1273:1 1283:3 1289:6
-1 189:1 247:1 270:1 332:1 439:1 461:1 500:1 580:1 627:1 963:1 1181:1 1214:1 1224:1 1227:1 1236:1 1248:1 1252:1 1253:1 1260:1 1273:1 1283:1 1289:1
-1 170:1 1289:2
-1 189:1 247:1 332:1 439:1 500:1 580:1 627:1 672:1 675:1 1120:1 1181:1 1219:1 1224:1 1227:1 1228:1 1236:1 1252:1 1253:1 1260:1 1264:1 1273:1 1283:1 1289:5
-1 189:1 247:1 332:1 439:1 500:1 548:1 627:1 963:1 1181:1 1223:1 1224:1 1227:1 1236:1 1248:1 1252:1 1260:1 1273:1 1283:1 1289:1
-1 189:1 247:1 332:1 346:1 439:1 500:1 548:1 627:1 672:1 963:1 1115:1 1181:1 1219:1 1223:1 1224:1 1227:1 1236:1 1248:1 1252:1 1256:1 1260:1 1273:1 1283:1 1289:1
-1 189:1 247:1 346:1 439:1 500:1 548:1 627:1 963:1 1181:1 1223:1 1227:1 1236:1 1248:1 1252:1 1260:1 1273:1 1283:1 1289:1
-1 189:1 474:1 996:1 1227:1 1289:1
-1 189:1 247:1 332:1 439:1 500:1 548:1 672:1 963:1 1115:1 1181:1 1219:1 1223:1 1224:1 1227:1 1248:1 1252:1 1256:1 1260:1 1273:1 1283:1 1289:1
-1 189:1 500:1 627:1 1181:1 1227:1 1236:1 1252:1 1260:1 1289:1
-1 189:1 197:1 247:1 439:1 500:1 548:1 627:1 672:1 963:1 1115:1 1122:1 1181:1 1219:1 1223:1 1227:1 1235:1 1236:1 1248:1 1252:1 1256:1 1260:1 1273:1 1283:1 1289:1
-1 157:1 162:1 189:1 247:1 332:1 439:1 500:1 548:1 576:1 578:1 627:1 672:1 743:1 856:1 880:1 938:1 963:1 1115:1 1181:1 1219:1 1223:1 1224:1 1225:1 1227:1 1231:1 1236:1 1248:1 1250:1 1251:1 1252:1 1256:1 1260:1 1268:1 1271:1 1273:1 1277:1 1283:1 1287:1 1289:1
-1 189:1 247:1 439:1 500:1 548:1 627:1 672:1 963:1 1115:1 1181:1 1219:1 1223:1 1227:1 1236:1 1248:1 1252:1 1256:1 1260:1 1273:1 1283:1 1289:1
-1 189:1 247:1 332:1 439:1 461:1 500:1 548:1 576:1 627:1 672:1 836:1 837:1 856:1 963:1 1115:1 1120:1 1181:1 1214:1 1219:1 1223:1 1224:1 1227:1 1236:1 1248:1 1250:1 1252:1 1256:1 1258:1 1260:1 1264:1 1273:1 1277:1 1283:1 1289:1
-1 189:1 247:1 332:1 439:1 500:1 548:1 627:1 1181:1 1223:1 1224:1 1227:1 1236:1 1252:1 1260:1 1273:1 1283:1 1289:1
-1 189:1 247:1 332:1 439:1 500:1 524:1 548:1 672:1 963:1 1115:1 1181:1 1219:1 1223:1 1224:1 1227:1 1248:1 1252:1 1256:1 1260:1 1273:1 1283:1 1289:1
-1 189:2 247:1 332:1 500:2 1181:2 1224:1 1227:2 1252:2 1260:2 1283:1 1289:7
-1 189:1 236:1 332:1 439:1 500:1 963:1 1181:1 1224:1 1227:1 1248:1 1252:1 1260:1 1272:1 1273:1 1289:2
-1 189:1 332:1 342:1 439:1 500:1 627:1 963:1 1181:1 1224:1 1227:1 1236:1 1248:1 1252:1 1260:1 1273:1 1289:1 1291:14
-1 189:1 675:1 1227:1 1228:1 1289:2
-1 189:1 236:1 247:1 439:1 500:1 580:1 627:1 963:1 1074:1 1181:1 1227:1 1236:1 1248:1 1252:1 1253:1 1260:1 1272:1 1273:1 1283:1 1289:1
-1 189:1 332:1 500:1 580:1 1181:1 1224:1 1227:1 1252:1 1253:1 1260:1 1289:2
-1 189:2 247:1 332:1 500:2 1181:2 1224:1 1227:2 1252:2 1260:2 1283:1 1289:7
-1 189:1 675:1 1227:1 1228:1 1289:2
-1 134:1 212:1 221:1 232:1 236:1 258:1 309:1 312:1 467:1 483:1 498:1 535:1 597:1 620:1 768:1 790:1 838:1 920:1 934:1 989:1 1034:1 1056:1 1068:1 1136:1 1151:1 1241:1 1259:1 1272:1 1289:2
-1 189:1 675:1 1227:1 1228:1 1289:2
-1 189:1 675:1 1227:1 1228:1 1289:2
-1 189:1 675:1 1227:1 1228:1 1289:2
-1 189:1 675:1 1227:1 1228:1 1289:2
-1 189:1 247:1 339:1 439:1 500:1 548:1 1181:1 1223:1 1227:1 1237:1 1252:1 1260:1 1273:1 1283:1 1289:1
-1 189:1 500:1 627:1 1181:1 1198:1 1227:1 1236:1 1252:1 1260:1 1274:1 1289:1
-1 189:1 247:1 439:1 500:1 548:1 578:1 580:1 627:1 672:1 856:1 963:1 1115:1 1181:1 1219:1 1223:1 1227:1 1236:1 1248:1 1251:1 1252:1 1253:1 1256:1 1260:1 1273:1 1277:1 1283:1 1289:1
-1 189:1 236:1 245:1 247:1 323:1 332:1 439:1 500:1 578:1 627:1 672:1 963:1 1181:1 1219:1 1224:1 1227:1 1236:1 1248:1 1251:1 1252:1 1260:1 1272:1 1273:1 1283:1 1289:1
-1 152:1 189:1 247:1 439:1 500:1 672:1 963:1 1181:1 1219:1 1227:1 1248:1 1252:1 1260:1 1273:1 1283:1 1289:1
-1 659:1 1280:1 1289:3
-1 659:1 1280:1 1289:3
-1 189:1 247:1 439:1 500:1 548:1 627:1 672:1 963:1 1115:1 1181:1 1219:1 1223:1 1227:1 1236:1 1248:1 1252:1 1256:1 1260:1 1273:1 1283:1 1289:1
-1 134:1 137:1 140:1 164:1 189:1 232:1 236:1 432:1 445:1 467:1 500:1 768:1 823:1 837:1 838:1 1034:1 1047:1 1181:1 1227:1 1241:1 1252:1 1258:1 1259:1 1260:1 1266:1 1272:1 1282:1 1289:2
-1 189:1 236:1 500:1 548:1 627:1 1223:1 1227:1 1236:1 1260:1 1272:1 1289:2
-1 440:1 1275:1 1289:1
-1 189:1 236:1 245:1 332:1 500:1 1181:1 1224:1 1227:1 1252:1 1260:1 1272:1 1289:1
-1 659:1 1280:1 1289:3
-1 189:1 500:1 1227:1 1260:1 1289:2
-1 162:1 189:1 247:1 332:1 439:1 500:1 548:1 627:1 672:1 743:1 963:1 1181:1 1219:1 1223:1 1224:1 1227:1 1231:1 1236:1 1248:1 1252:1 1260:1 1271:1 1273:1 1283:1 1289:1
-1 189:1 324:1 344:1 439:1 500:1 963:1 1227:1 1248:1 1260:1 1273:1 1289:2
-1 189:1 324:1 344:1 439:1 500:1 963:1 1227:1 1248:1 1260:1 1273:1 1289:2
-1 189:1 324:1 344:1 439:1 500:1 963:1 1227:1 1248:1 1260:1 1273:1 1289:2
-1 189:1 324:1 344:1 439:1 500:1 963:1 1227:1 1248:1 1260:1 1273:1 1289:2
-1 189:1 426:1 905:1 987:1 1227:1 1270:1 1289:3
-1 189:1 681:1 1227:1 1289:2
-1 659:1 1280:1 1289:4
-1 189:1 332:1 439:1 500:1 580:1 627:1 963:1 1181:1 1224:1 1227:1 1236:1 1248:1 1252:1 1253:1 1260:1 1273:1 1289:3
-1 659:1 1280:1 1289:4
-1 440:1 1275:1 1289:1
-1 181:1 189:1 340:1 342:1 601:1 657:1 765:1 820:1 829:1 893:1 950:1 963:1 1016:1 1051:1 1085:1 1181:1 1183:1 1216:1 1226:1 1227:1 1229:1 1234:1 1238:1 1239:1 1247:1 1248:1 1249:1 1252:1 1254:1 1255:1 1278:1 1286:1 1289:3 1291:8
-1 189:1 247:1 439:1 468:1 500:1 544:1 963:1 1016:1 1181:1 1222:1 1227:1 1248:1 1252:1 1260:1 1273:1 1283:1 1289:1 1291:4
-1 440:1 1275:1 1289:1
-1 189:1 331:1 781:1 830:1 1033:1 1227:1 1289:3
-1 189:1 236:1 1227:1 1272:1 1289:3
-1 189:4 247:3 332:1 439:1 500:2 576:1 580:1 627:2 672:1 963:1 1181:2 1219:1 1224:1 1227:4 1236:2 1248:1 1250:1 1252:2 1253:1 1260:2 1273:1 1283:3 1289:6
-1 189:1 236:1 332:1 439:1 500:1 580:1 627:1 787:1 963:1 1058:1 1074:1 1181:1 1224:1 1227:1 1236:1 1248:1 1252:1 1253:1 1260:1 1272:1 1273:1 1289:2
-1 189:1 236:1 261:1 432:1 461:1 500:1 1181:1 1214:1 1220:1 1227:1 1252:1 1260:1 1266:1 1272:1 1289:3
-1 189:2 247:1 500:2 1181:2 1227:2 1252:2 1260:2 1283:1 1289:7
-1 123:1 128:1 134:1 157:1 161:1 164:1 169:1 175:1 189:1 205:1 208:1 212:1 232:1 236:1 247:1 258:1 309:1 352:1 359:1 432:1 439:1 448:1 461:1 467:1 472:1 483:1 495:1 500:1 508:1 513:1 535:1 541:1 548:1 610:1 620:1 627:1 636:1 656:1 684:1 700:1 766:1 768:1 788:1 806:1 814:1 838:1 850:1 860:1 870:1 880:1 897:1 900:1 914:1 920:1 931:1 934:1 944:1 959:1 989:1 1024:1 1034:1 1056:1 1064:1 1087:1 1103:1 1118:1 1126:1 1136:1 1139:1 1144:1 1151:1 1161:1 1198:1 1214:1 1223:1 1225:1 1227:1 1236:1 1241:1 1259:1 1260:1 1266:1 1268:1 1272:1 1273:1 1274:1 1283:1 1289:2
-1 189:1 426:1 439:1 500:1 576:1 905:1 987:1 1181:1 1227:1 1250:1 1252:1 1260:1 1270:1 1273:1 1289:2
-1 659:1 1280:1 1289:3
-1 659:1 1280:1 1289:2
-1 659:1 1280:1 1289:3
-1 659:1 1280:1 1289:4
-1 659:1 1280:1 1289:2
-1 189:1 236:1 454:1 500:1 548:1 627:1 963:1 1181:1 1223:1 1227:1 1236:1 1248:1 1252:1 1260:1 1272:1 1289:2
-1 134:1 189:1 232:1 236:1 261:1 332:1 467:1 500:1 768:1 1034:1 1220:1 1224:1 1227:1 1241:1 1260:1 1272:1 1289:2
-1 189:1 237:1 500:1 576:1 1227:1 1250:1 1260:1 1276:1 1289:2
-1 189:1 205:1 236:1 247:1 269:1 286:1 379:1 439:1 454:1 500:1 548:1 627:1 963:1 1083:1 1181:1 1223:1 1227:1 1236:1 1248:1 1252:1 1260:1 1272:1 1273:1 1281:1 1283:1 1289:1
-1 189:1 236:1 500:1 837:1 1227:1 1258:1 1260:1 1272:1 1289:5 1291:7
-1 659:1 1280:1 1289:4
-1 189:1 259:1 1227:1 1289:3
-1 189:1 1227:1 1289:2
-1 186:1 189:1 236:1 439:1 500:1 905:1 979:1 987:1 1111:1 1227:1 1260:1 1270:1 1272:1 1273:1 1289:2
-1 659:1 1280:1 1289:3
-1 659:1 1280:1 1289:3
-1 189:1 500:1 1227:1 1260:1 1289:4
-1 189:1 236:2 406:1 837:1 1227:1 1258:1 1272:2 1289:2
-1 189:1 236:2 1227:1 1272:2 1289:2
-1 189:1 236:1 332:1 439:1 500:1 548:1 627:1 672:1 963:1 1219:1 1223:1 1224:1 1227:1 1236:1 1248:1 1260:1 1272:1 1273:1 1289:2
-1 189:1 236:1 500:1 672:1 1219:1 1227:1 1260:1 1272:1 1289:2
-1 189:1 236:1 500:1 672:1 1219:1 1227:1 1260:1 1272:1 1289:2
-1 189:1 236:1 439:1 500:1 672:1 1219:1 1227:1 1260:1 1272:1 1273:1 1289:2
-1 189:1 236:1 432:1 1148:1 1227:1 1266:1 1272:1 1289:2
-1 189:1 236:2 580:1 675:1 1227:1 1228:1 1253:1 1272:2 1289:5
-1 659:1 1280:1 1289:3
-1 189:1 247:1 332:1 339:1 473:1 500:1 517:1 548:1 580:1 627:1 672:1 824:1 837:1 846:1 963:1 1129:1 1181:1 1198:1 1219:1 1223:1 1224:1 1227:1 1236:1 1237:1 1248:1 1252:1 1253:1 1258:1 1260:1 1267:1 1274:1 1279:1 1283:1 1289:2
-1 189:1 236:1 247:1 500:1 627:1 963:1 1227:1 1236:1 1248:1 1260:1 1272:1 1283:1 1289:3
-1 189:1 236:2 675:1 1227:1 1228:1 1272:2 1289:3
-1 189:1 500:1 982:1 1227:1 1260:1 1289:3
-1 189:1 236:2 237:1 500:1 660:1 675:1 1227:1 1228:1 1260:1 1272:2 1276:1 1289:3
-1 189:1 236:2 237:1 710:1 1227:1 1272:2 1276:1 1289:2
-1 189:1 1227:1 1289:1
-1 189:1 236:1 247:1 332:1 500:1 627:1 707:1 963:1 1181:1 1224:1 1227:1 1236:1 1248:1 1252:1 1260:1 1272:1 1283:1 1289:1
-1 440:1 1275:1 1289:1
-1 659:1 1280:1 1289:3
-1 181:1 189:1 240:1 247:1 340:1 439:1 500:1 548:1 580:1 627:1 657:1 700:1 734:1 765:1 820:1 963:1 1050:1 1051:1 1085:1 1181:1 1183:1 1216:1 1218:1 1223:1 1227:1 1229:1 1234:1 1236:1 1238:1 1247:1 1248:1 1252:1 1253:1 1254:1 1255:1 1260:1 1273:1 1278:1 1283:1 1289:2
-1 189:1 236:1 331:1 500:1 627:1 781:1 943:1 1227:1 1236:1 1260:1 1272:1 1289:4
-1 157:1 162:1 189:1 236:1 332:1 432:1 439:1 500:1 548:1 659:1 963:1 1223:1 1224:1 1227:1 1248:1 1260:1 1266:1 1268:1 1271:1 1272:1 1273:1 1280:1 1289:3
-1 659:1 1280:1 1289:3
-1 189:1 236:1 247:1 332:1 439:1 500:1 627:1 672:1 675:1 963:1 1181:1 1219:1 1224:1 1227:1 1228:1 1236:1 1248:1 1252:1 1260:1 1272:1 1273:1 1283:1 1289:4
-1 659:1 1280:1 1289:3
-1 189:1 202:1 247:1 332:1 343:1 439:1 500:1 548:1 576:1 627:1 672:1 837:1 963:1 1115:1 1181:1 1219:1 1223:1 1224:1 1227:1 1236:1 1244:1 1248:1 1250:1 1252:1 1256:1 1258:1 1260:1 1273:1 1283:1 1289:2
-1 189:1 259:1 500:1 1227:1 1260:1 1289:3
-1 189:1 247:1 439:1 500:1 532:1 548:1 627:1 837:1 963:1 1181:1 1223:1 1227:1 1236:1 1248:1 1252:1 1258:1 1260:1 1273:1 1283:1 1289:4
-1 189:1 332:1 439:1 500:1 627:1 963:1 1181:1 1224:1 1227:1 1236:1 1248:1 1252:1 1260:1 1273:1 1289:2
-1 189:1 236:1 247:1 293:1 332:1 439:1 445:1 500:1 532:1 576:1 627:1 672:1 675:1 775:1 837:1 880:1 963:1 1181:1 1219:1 1224:1 1225:1 1227:1 1228:1 1236:1 1248:1 1250:1 1252:1 1258:1 1260:1 1261:1 1272:1 1273:1 1282:1 1283:1 1289:5
-1 189:1 500:1 580:1 837:1 1181:1 1227:1 1252:1 1253:1 1258:1 1260:1 1289:1
-1 162:1 189:1 247:1 332:1 439:1 500:1 548:1 580:1 627:1 837:1 963:1 1120:1 1181:1 1223:1 1224:1 1227:1 1236:1 1248:1 1252:1 1253:1 1258:1 1260:1 1264:1 1271:1 1273:1 1283:1 1289:2
-1 189:5 233:1 247:3 332:1 439:1 500:2 580:1 602:1 627:1 672:1 760:1 905:1 963:1 987:1 1181:2 1219:1 1224:1 1227:5 1236:1 1248:1 1252:2 1253:1 1260:2 1270:1 1273:1 1283:3 1289:6
-1 189:1 236:1 432:1 1148:1 1227:1 1266:1 1272:1 1289:2
-1 189:1 236:1 500:1 627:1 1227:1 1236:1 1260:1 1272:1 1289:3
-1 134:1 212:1 232:1 236:1 258:1 274:1 309:1 312:1 432:1 467:1 488:1 620:1 684:1 768:1 838:1 909:1 920:1 1034:1 1056:1 1057:1 1124:1 1241:1 1259:1 1266:1 1272:1 1289:2
-1 189:1 332:1 439:1 500:1 963:1 1181:1 1224:1 1227:1 1248:1 1252:1 1260:1 1273:1 1289:1 1291:5
-1 134:1 212:1 232:1 236:1 258:1 312:1 467:1 570:1 684:1 768:1 814:1 837:1 838:1 1034:1 1056:1 1151:1 1241:1 1258:1 1259:1 1272:1 1289:2
-1 189:1 236:1 500:1 627:1 1181:1 1227:1 1236:1 1252:1 1260:1 1272:1 1289:3
-1 181:1 189:1 340:1 657:1 708:1 758:1 765:1 820:1 1051:1 1085:1 1181:1 1183:1 1216:1 1227:1 1229:1 1234:1 1238:1 1245:1 1247:1 1252:1 1254:1 1255:1 1278:1 1289:4 1291:36
-1 189:1 236:1 247:1 332:1 500:1 627:1 1224:1 1227:1 1236:1 1260:1 1272:1 1283:1 1289:4
-1 134:1 189:1 205:1 232:1 236:1 467:1 768:1 838:1 1034:1 1227:1 1241:1 1259:1 1272:1 1289:3
-1 659:1 1280:1 1289:3
-1 189:1 236:2 1227:1 1272:2 1289:2
-1 189:1 236:1 461:1 500:1 963:1 1214:1 1227:1 1248:1 1260:1 1272:1 1289:2
-1 157:1 189:1 439:1 500:1 627:1 963:1 1181:1 1227:1 1236:1 1248:1 1252:1 1260:1 1268:1 1273:1 1289:2
-1 189:1 247:1 439:1 500:1 627:1 963:1 1181:1 1227:1 1236:1 1248:1 1252:1 1260:1 1273:1 1283:1 1289:2
-1 189:1 247:1 439:1 500:1 627:1 963:1 1181:1 1227:1 1236:1 1248:1 1252:1 1260:1 1273:1 1283:1 1289:2
-1 189:1 1227:1 1289:3
-1 157:1 162:1 189:1 236:1 247:1 332:1 432:1 439:1 500:1 548:1 623:1 627:1 963:1 1181:1 1223:1 1224:1 1227:1 1236:1 1248:1 1252:1 1260:1 1266:1 1268:1 1271:1 1272:1 1273:1 1283:1 1289:1
-1 440:1 1275:1 1289:1
-1 189:1 247:1 500:1 580:1 963:1 1227:1 1248:1 1253:1 1260:1 1283:1 1289:2
-1 134:1 212:1 232:1 258:1 312:1 417:1 467:1 484:1 657:1 684:1 768:1 814:1 920:1 944:1 989:1 1034:1 1056:1 1151:1 1183:1 1204:1 1241:1 1246:1 1255:1 1278:1 1289:1
-1 167:1 189:1 236:1 247:1 500:1 963:1 1074:1 1181:1 1227:1 1248:1 1252:1 1260:1 1272:1 1283:1 1289:2 1291:5
-1 189:1 247:1 332:1 439:1 500:1 580:1 963:1 1181:1 1224:1 1227:1 1248:1 1252:1 1253:1 1260:1 1273:1 1283:1 1289:5
-1 189:1 236:2 439:1 500:1 576:1 627:1 1227:1 1236:1 1250:1 1260:1 1272:2 1273:1 1289:2 1291:116
-1 189:1 236:1 500:1 576:1 580:1 1227:1 1250:1 1253:1 1260:1 1272:1 1289:3
-1 189:2 247:1 332:1 500:2 1181:2 1224:1 1227:2 1252:2 1260:2 1283:1 1289:7
-1 189:1 332:1 439:1 500:1 580:1 627:1 963:1 1181:1 1224:1 1227:1 1236:1 1248:1 1252:1 1253:1 1260:1 1273:1 1289:3
-1 134:1 189:1 232:1 236:1 247:1 352:1 432:1 461:1 467:1 627:1 656:1 768:1 838:1 860:1 1034:1 1181:1 1214:1 1227:1 1236:1 1241:1 1252:1 1259:1 1266:1 1272:1 1283:1 1289:2
-1 134:1 189:1 232:1 236:1 258:1 467:1 500:1 768:1 838:1 860:1 920:1 963:1 989:1 1034:1 1227:1 1241:1 1248:1 1259:1 1260:1 1272:1 1289:3
-1 189:1 236:1 432:1 1227:1 1266:1 1272:1 1289:1
-1 189:4 247:2 332:1 439:1 500:2 580:1 672:1 905:2 987:3 1181:2 1219:1 1224:1 1227:4 1252:2 1253:1 1260:2 1270:3 1273:1 1283:2 1289:6
-1 134:1 189:1 232:1 236:1 258:1 439:1 467:1 500:1 548:1 672:1 768:1 838:1 860:1 989:1 1034:1 1181:1 1219:1 1223:1 1227:1 1241:1 1252:1 1259:1 1260:1 1272:1 1273:1 1289:3
-1 189:1 236:1 432:1 500:1 548:1 580:1 837:1 1223:1 1227:1 1253:1 1258:1 1260:1 1266:1 1272:1 1289:2
-1 149:1 189:1 247:1 332:1 439:1 500:1 548:1 576:1 627:1 672:1 675:1 734:1 744:1 794:1 837:1 940:1 963:1 985:1 1181:1 1189:1 1218:1 1219:1 1223:1 1224:1 1227:1 1228:1 1236:1 1248:1 1250:1 1252:1 1258:1 1260:1 1273:1 1283:1 1289:2 1291:368
-1 189:1 439:1 500:1 576:1 580:1 1227:1 1250:1 1253:1 1260:1 1273:1 1289:2
-1 304:1 702:1 1289:2
-1 189:1 236:2 627:1 1227:1 1236:1 1272:2 1289:2
-1 189:1 837:1 1227:1 1258:1 1289:2
-1 189:1 1227:1 1289:2
-1 189:5 247:3 332:1 357:1 439:1 500:2 580:1 672:1 963:1 1181:2 1219:1 1224:1 1227:5 1248:1 1252:2 1253:1 1260:2 1273:1 1283:3 1289:6
-1 189:1 439:1 500:1 672:1 1181:1 1219:1 1227:1 1252:1 1260:1 1273:1 1289:4
-1 189:1 332:1 439:1 500:1 627:1 672:1 830:1 837:1 963:1 1219:1 1224:1 1227:1 1236:1 1248:1 1258:1 1260:1 1273:1 1289:2
-1 189:1 830:1 1175:1 1227:1 1289:2
-1 189:1 830:1 1175:1 1227:1 1289:2
-1 189:1 1227:1 1289:3
-1 189:1 236:2 905:1 987:1 1070:1 1175:1 1227:1 1270:1 1272:2 1289:2
-1 162:1 165:1 189:1 193:1 236:1 247:1 283:1 332:1 339:1 418:1 432:1 439:1 500:1 548:1 555:1 576:1 627:1 856:1 906:1 963:1 1181:1 1223:1 1224:1 1227:1 1230:1 1236:1 1237:1 1248:1 1250:1 1252:1 1260:1 1266:1 1271:1 1272:1 1273:1 1277:1 1283:1 1289:2
-1 132:1 150:1 189:1 247:1 332:1 339:1 439:1 445:1 461:1 500:1 548:1 576:1 627:1 672:1 734:1 837:1 846:1 963:1 1181:1 1214:1 1218:1 1219:1 1223:1 1224:1 1227:1 1236:1 1237:1 1248:1 1250:1 1252:1 1258:1 1260:1 1262:1 1267:1 1273:1 1282:1 1283:1 1289:3
-1 150:1 189:1 247:1 332:1 439:1 445:1 461:1 500:1 576:1 627:1 672:1 734:1 846:1 963:1 1181:1 1214:1 1218:1 1219:1 1224:1 1227:1 1236:1 1248:1 1250:1 1252:1 1260:1 1262:1 1267:1 1273:1 1282:1 1283:1 1289:2
-1 189:1 236:1 478:1 500:1 895:1 1227:1 1260:1 1272:1 1289:7
-1 189:1 236:2 439:1 500:1 576:1 627:1 672:1 905:1 987:1 1219:1 1227:1 1236:1 1250:1 1260:1 1270:1 1272:2 1273:1 1289:2 1291:112
-1 189:5 247:2 332:1 439:1 500:3 580:1 627:1 672:1 963:1 1181:2 1219:1 1224:1 1227:5 1236:1 1248:1 1252:2 1253:1 1260:3 1273:1 1283:2 1289:6
-1 189:4 247:1 332:1 500:2 1181:3 1224:1 1227:4 1252:3 1260:2 1283:1 1289:4
-1 189:1 236:2 246:1 407:1 500:1 627:1 675:1 767:1 1227:1 1228:1 1236:1 1260:1 1272:2 1289:2
-1 189:1 236:2 1181:1 1227:1 1252:1 1272:2 1289:3
-1 152:1 189:1 728:1 837:1 1120:1 1181:1 1227:1 1252:1 1258:1 1264:1 1289:2
-1 189:1 236:1 627:1 905:1 987:1 1011:1 1058:1 1082:1 1227:1 1236:1 1270:1 1272:1 1289:2
-1 189:1 236:1 332:1 500:1 860:1 1089:1 1148:1 1181:1 1224:1 1227:1 1252:1 1260:1 1272:1 1289:2
-1 440:1 1275:1 1289:1
-1 189:1 236:1 332:1 439:1 461:1 500:1 532:1 548:1 570:1 627:1 672:1 837:1 963:1 1181:1 1214:1 1219:1 1223:1 1224:1 1227:1 1236:1 1248:1 1252:1 1258:1 1260:1 1272:1 1273:1 1289:1
-1 134:1 209:1 212:1 232:1 236:1 258:1 274:1 309:1 312:1 432:1 467:1 508:1 535:1 636:1 684:1 711:1 766:1 768:1 806:1 814:1 838:1 860:1 909:1 920:1 934:1 944:1 1034:1 1056:1 1068:1 1136:1 1151:1 1167:1 1241:1 1259:1 1266:1 1272:1 1289:2
-1 189:1 236:1 500:1 837:1 1227:1 1258:1 1260:1 1272:1 1289:2
-1 189:1 311:1 840:1 883:1 969:1 1193:1 1227:1 1289:3
-1 189:1 236:2 580:1 675:1 1227:1 1228:1 1253:1 1272:2 1289:4
-1 134:1 164:1 212:1 232:1 236:1 258:1 312:1 432:1 467:1 535:1 570:1 684:1 768:1 806:1 814:1 837:1 838:1 920:1 1034:1 1056:1 1068:1 1151:1 1241:1 1258:1 1259:1 1266:1 1272:1 1289:1
-1 189:1 439:1 500:1 1227:1 1260:1 1273:1 1289:2
-1 189:1 439:1 500:1 576:1 672:1 1219:1 1227:1 1250:1 1260:1 1273:1 1289:2
-1 189:1 439:1 500:1 672:1 905:1 945:1 987:1 1219:1 1227:1 1260:1 1270:1 1273:1 1289:2
-1 189:1 247:1 332:1 439:1 445:1 465:1 500:1 548:1 549:1 627:1 672:1 963:1 1115:1 1181:1 1219:1 1223:1 1224:1 1227:1 1236:1 1248:1 1252:1 1256:1 1260:1 1273:1 1282:1 1283:1 1289:2
-1 189:1 247:1 332:1 439:1 500:1 548:1 627:1 672:1 963:1 1115:1 1181:1 1219:1 1223:1 1224:1 1227:1 1236:1 1248:1 1252:1 1256:1 1260:1 1273:1 1283:1 1289:1
-1 189:1 247:1 332:1 433:1 439:1 465:1 500:1 548:1 627:1 672:1 963:1 1007:1 1115:1 1181:1 1219:1 1223:1 1224:1 1227:1 1236:1 1248:1 1252:1 1256:1 1260:1 1273:1 1283:1 1289:1
-1 189:1 247:1 332:1 346:1 433:1 439:1 465:1 489:1 500:1 548:1 627:1 633:1 672:1 955:1 963:1 1007:1 1115:1 1181:1 1219:1 1223:1 1224:1 1227:1 1236:1 1248:1 1252:1 1256:1 1260:1 1273:1 1283:1 1289:1 1291:21
-1 189:1 247:1 332:1 439:1 500:1 548:1 627:1 672:1 831:1 963:1 1115:1 1181:1 1219:1 1223:1 1224:1 1227:1 1236:1 1248:1 1252:1 1256:1 1260:1 1273:1 1283:1 1289:1
-1 189:1 247:1 332:1 439:1 500:1 548:1 633:1 672:1 963:1 1115:1 1181:1 1219:1 1223:1 1224:1 1227:1 1248:1 1252:1 1256:1 1260:1 1273:1 1283:1 1289:1
-1 189:2 247:1 332:1 500:2 1181:2 1224:1 1227:2 1252:2 1260:2 1283:1 1289:7
-1 189:1 236:1 332:1 439:1 500:1 627:1 860:1 986:1 1181:1 1224:1 1227:1 1236:1 1252:1 1260:1 1272:1 1273:1 1289:2 1291:39
-1 189:1 236:1 332:1 500:1 627:1 986:1 1181:1 1224:1 1227:1 1236:1 1252:1 1260:1 1272:1 1289:2 1291:39
-1 189:2 247:1 332:1 500:2 1181:2 1224:1 1227:2 1252:2 1260:2 1283:1 1289:6
-1 189:1 236:1 245:1 439:1 500:1 627:1 672:1 1181:1 1219:1 1227:1 1236:1 1252:1 1260:1 1272:1 1273:1 1289:1
-1 139:1 189:1 236:1 247:1 299:1 334:1 432:1 439:1 461:1 500:1 548:1 580:1 627:1 880:1 963:1 1181:1 1214:1 1223:1 1225:1 1227:1 1236:1 1248:1 1252:1 1253:1 1260:1 1266:1 1272:1 1273:1 1283:1 1289:2
-1 189:1 236:1 353:1 1181:1 1227:1 1252:1 1272:1 1289:2
-1 189:1 500:1 830:1 948:1 1227:1 1260:1 1289:2
-1 189:1 236:2 1227:1 1272:2 1289:2
-1 189:1 332:1 439:1 500:1 580:1 627:1 963:1 1181:1 1224:1 1227:1 1236:1 1248:1 1252:1 1253:1 1260:1 1273:1 1289:3
-1 134:1 189:1 232:1 247:1 352:1 417:1 461:1 467:1 484:1 656:1 657:1 668:1 768:1 891:1 963:1 989:1 1034:1 1107:1 1181:1 1214:1 1227:1 1241:1 1246:1 1248:1 1252:1 1278:1 1283:1 1289:1
-1 186:1 189:1 236:2 266:1 439:1 500:1 905:1 987:1 1227:1 1260:1 1270:1 1272:2 1273:1 1289:2
-1 189:1 247:1 439:1 500:1 548:1 576:1 578:1 580:1 627:1 675:1 812:1 818:1 837:1 963:1 987:1 1181:1 1223:1 1227:1 1228:1 1232:1 1233:1 1236:1 1248:1 1250:1 1251:1 1252:1 1253:1 1258:1 1260:1 1270:1 1273:1 1283:1 1289:2 1291:5
-1 189:1 236:1 500:1 627:1 1181:1 1227:1 1236:1 1252:1 1260:1 1272:1 1289:3
-1 440:1 1275:1 1289:1
-1 186:1 189:1 236:2 439:1 500:1 905:1 987:1 1227:1 1260:1 1270:1 1272:2 1273:1 1289:2
-1 119:1 131:1 134:1 157:1 162:1 189:1 229:1 232:1 247:1 286:1 332:1 352:1 417:1 432:1 439:1 442:1 447:1 461:1 467:1 484:1 500:1 541:1 548:1 591:1 627:1 656:1 657:1 700:1 768:1 829:1 838:1 860:1 874:1 989:1 1034:1 1083:1 1144:1 1181:1 1183:1 1211:1 1214:1 1223:1 1224:1 1227:1 1236:1 1241:1 1246:1 1249:1 1252:1 1255:1 1259:1 1260:1 1266:1 1268:1 1271:1 1273:1 1278:1 1283:1 1289:2
-1 189:5 247:2 332:1 439:1 500:2 580:1 627:1 743:1 963:1 1146:1 1181:2 1224:1 1227:5 1231:1 1236:1 1248:1 1252:2 1253:1 1260:2 1273:1 1283:2 1289:6
-1 189:1 193:1 236:1 332:1 500:1 672:1 1219:1 1224:1 1227:1 1260:1 1272:1 1289:1
-1 659:1 1280:1 1289:3
-1 659:1 1280:1 1289:2
-1 189:1 332:1 439:1 500:1 580:1 627:1 963:1 1181:1 1224:1 1227:1 1236:1 1248:1 1252:1 1253:1 1260:1 1273:1 1289:3
-1 189:1 236:1 247:1 432:1 461:1 836:1 963:1 1181:1 1214:1 1227:1 1248:1 1252:1 1266:1 1272:1 1283:1 1289:2
-1 440:1 1275:1 1289:1
-1 189:1 236:1 500:1 677:1 1018:1 1058:1 1074:1 1227:1 1260:1 1272:1 1289:2
-1 189:1 236:1 1227:1 1272:1 1289:6
-1 189:1 236:2 1227:1 1272:2 1289:2
-1 189:1 236:1 1227:1 1272:1 1289:5
-1 189:1 236:2 1227:1 1272:2 1289:3
-1 189:1 236:2 500:1 837:1 979:1 1181:1 1227:1 1252:1 1258:1 1260:1 1272:2 1289:4
-1 189:1 236:2 837:1 1227:1 1258:1 1272:2 1289:4
-1 189:1 236:1 515:1 769:1 1227:1 1272:1 1289:3
-1 189:1 202:1 247:1 332:1 344:1 439:1 500:1 548:1 576:1 627:1 672:1 963:1 1115:1 1181:1 1219:1 1223:1 1224:1 1227:1 1236:1 1244:1 1248:1 1250:1 1252:1 1256:1 1260:1 1273:1 1283:1 1289:2
-1 189:1 247:1 332:1 439:1 500:1 580:1 627:1 672:1 743:1 963:1 1181:1 1219:1 1224:1 1227:1 1231:1 1236:1 1248:1 1252:1 1253:1 1260:1 1273:1 1283:1 1289:5
-1 189:1 247:1 332:1 439:1 500:1 580:1 627:1 1181:1 1224:1 1227:1 1236:1 1252:1 1253:1 1260:1 1273:1 1283:1 1289:4
-1 189:1 247:1 332:1 439:1 445:1 500:1 576:1 580:1 627:1 672:1 743:1 963:1 1181:1 1219:1 1224:1 1227:1 1231:1 1236:1 1248:1 1250:1 1252:1 1253:1 1260:1 1273:1 1282:1 1283:1 1289:5
-1 189:1 236:2 247:1 332:1 439:1 500:1 627:1 672:1 750:1 963:1 1181:1 1219:1 1224:1 1227:1 1236:1 1248:1 1252:1 1260:1 1272:2 1273:1 1283:1 1289:4
