1 502:1 1042:1 1225:1 1227:1 1276:3
1 1042:1 1225:1 1276:4
1 502:1 754:1 787:1 1042:1 1217:1 1225:1 1227:1 1243:1 1276:1
1 187:1 502:1 688:1 754:1 764:1 806:1 1042:1 1072:1 1217:1 1219:1 1222:1 1225:1 1227:1 1233:1 1255:1 1263:1 1276:2
1 597:1 1042:1 1066:1 1072:1 1225:1 1249:1 1255:1 1269:1 1276:1
1 1042:1 1225:1 1276:2
1 502:1 1042:1 1072:1 1225:1 1227:1 1255:1 1276:1
1 502:2 754:1 888:1 1042:3 1216:1 1217:1 1225:3 1227:2 1276:4
1 1042:1 1225:1 1276:2
1 187:1 502:1 688:1 754:1 764:1 806:1 1042:1 1072:1 1217:1 1219:1 1222:1 1225:1 1227:1 1233:1 1255:1 1263:1 1276:2
1 1042:1 1072:1 1225:1 1255:1 1276:3
1 502:1 1042:3 1225:3 1227:1 1276:7
1 754:1 888:1 1042:1 1072:1 1216:1 1217:1 1225:1 1255:1 1276:1
1 502:1 1042:1 1225:1 1227:1 1276:2
1 1211:1 1273:1 1276:3
1 502:1 888:1 1042:3 1216:1 1225:3 1227:1 1276:8
1 502:1 1042:1 1225:1 1227:1 1276:2
1 502:1 1042:1 1225:1 1227:1 1276:3
1 502:1 754:1 764:1 787:1 1042:1 1066:1 1072:1 1217:1 1222:1 1225:1 1227:1 1243:1 1249:1 1255:1 1276:9
1 754:1 1042:1 1217:1 1225:1 1276:5
1 502:1 1042:1 1225:1 1227:1 1276:3
1 461:1 502:1 688:1 764:1 1042:1 1066:1 1072:1 1219:1 1222:1 1225:1 1227:1 1249:1 1255:1 1260:1 1276:4 1278:3
1 502:1 710:1 1042:1 1072:1 1225:1 1227:1 1237:1 1255:1 1276:2
1 502:1 754:1 806:1 820:1 910:1 1042:1 1066:1 1072:1 1126:1 1142:1 1214:1 1217:1 1225:1 1227:1 1229:1 1249:1 1252:1 1255:1 1263:1 1265:1 1276:3
1 502:1 1042:3 1225:3 1227:1 1276:7
1 502:1 1042:1 1225:1 1227:1 1276:3
1 187:1 502:1 688:1 754:1 764:1 806:1 1042:1 1072:1 1217:1 1219:1 1222:1 1225:1 1227:1 1233:1 1255:1 1263:1 1276:2
1 1042:1 1072:1 1225:1 1255:1 1276:3
1 502:1 1042:1 1225:1 1227:1 1276:3
1 1211:1 1273:1 1276:4
1 502:1 1042:1 1225:1 1227:1 1276:3
1 297:1 502:1 754:1 1042:1 1217:1 1225:1 1227:1 1244:1 1276:2
1 754:1 787:1 1042:1 1217:1 1225:1 1243:1 1276:1
1 806:1 1042:1 1225:1 1263:1 1276:6
1 502:1 754:1 1042:1 1217:1 1225:1 1227:1 1276:2
1 502:1 888:1 1042:3 1216:1 1225:3 1227:1 1276:7
1 502:1 888:1 1042:3 1216:1 1225:3 1227:1 1276:8
1 502:1 754:1 888:1 1042:1 1072:1 1216:1 1217:1 1225:1 1227:1 1255:1 1276:1
1 502:1 1042:1 1225:1 1227:1 1276:2
1 502:1 710:1 1042:1 1072:1 1225:1 1227:1 1237:1 1255:1 1276:2
1 754:1 1042:1 1217:1 1225:1 1276:1
1 502:1 754:1 1042:1 1072:1 1217:1 1225:1 1227:1 1255:1 1276:2
1 502:1 710:1 754:1 888:1 1042:1 1216:1 1217:1 1225:1 1227:1 1237:1 1276:2
1 502:1 754:1 888:1 1042:1 1066:1 1216:1 1217:1 1225:1 1227:1 1249:1 1276:3
1 754:1 1042:1 1072:1 1217:1 1225:1 1255:1 1276:1
1 502:1 754:1 1042:1 1217:1 1225:1 1227:1 1276:2
1 1042:1 1225:1 1276:2
1 502:1 888:1 1042:3 1216:1 1225:3 1227:1 1276:7
1 502:1 1042:3 1072:1 1225:3 1227:1 1255:1 1276:6
1 1042:1 1225:1 1276:2
1 502:1 688:1 754:1 764:1 787:1 888:1 1042:1 1072:1 1216:1 1217:1 1219:1 1222:1 1225:1 1227:1 1243:1 1255:1 1276:3
1 502:1 1042:1 1072:1 1225:1 1227:1 1255:1 1276:2
1 1211:1 1273:1 1276:5
1 187:1 502:3 650:1 688:1 754:2 787:3 888:2 1042:4 1066:2 1072:3 1216:2 1217:2 1219:1 1225:4 1227:3 1233:1 1243:3 1245:1 1249:2 1255:3 1276:6
1 373:1 502:1 787:1 877:1 888:1 915:1 940:1 1042:3 1066:1 1072:1 1216:1 1225:3 1227:1 1232:1 1243:1 1247:1 1249:1 1255:1 1261:1 1274:1 1276:7
1 502:1 787:1 888:1 1042:1 1072:1 1216:1 1225:1 1227:1 1243:1 1255:1 1276:2
1 888:1 1042:1 1216:1 1225:1 1276:3
1 502:2 688:1 754:1 764:1 787:1 888:2 1042:4 1066:3 1072:2 1216:2 1217:1 1219:1 1222:1 1225:4 1227:2 1243:1 1249:3 1255:2 1276:6
1 502:2 754:1 888:1 1042:3 1216:1 1217:1 1225:3 1227:2 1276:8
1 249:1 1042:1 1066:1 1225:1 1249:1 1270:1 1276:2
1 502:1 888:1 1042:3 1216:1 1225:3 1227:1 1276:9
1 502:1 1042:1 1225:1 1227:1 1276:4
1 1042:1 1225:1 1276:8
1 502:1 888:1 1042:3 1216:1 1225:3 1227:1 1276:7
1 502:1 1042:1 1225:1 1227:1 1276:3
1 143:1 502:2 1042:3 1072:1 1225:3 1227:2 1238:1 1255:1 1276:7
1 502:1 1042:1 1225:1 1227:1 1276:2
1 502:1 1042:1 1225:1 1227:1 1276:3
1 502:1 1042:1 1225:1 1227:1 1276:3
1 1211:1 1273:1 1276:3
1 502:1 1042:1 1225:1 1227:1 1276:3
1 1042:1 1225:1 1276:2
1 502:1 710:1 1042:1 1072:1 1225:1 1227:1 1237:1 1255:1 1276:2
1 502:2 754:1 888:1 1042:3 1216:1 1217:1 1225:3 1227:2 1276:6
1 187:1 502:3 650:1 688:1 754:2 787:3 888:2 1042:4 1066:2 1072:3 1216:2 1217:2 1219:1 1225:4 1227:3 1233:1 1243:3 1245:1 1249:2 1255:3 1276:6
1 710:1 754:1 1042:1 1217:1 1225:1 1237:1 1276:2
1 461:1 502:1 688:1 764:1 1042:1 1066:1 1072:1 1219:1 1222:1 1225:1 1227:1 1249:1 1255:1 1260:1 1276:4 1278:3
1 502:2 688:1 754:1 764:1 787:1 888:2 1042:4 1066:3 1072:3 1216:2 1217:1 1219:1 1222:1 1225:4 1227:2 1243:1 1249:3 1255:3 1276:6
1 502:1 1042:1 1072:1 1225:1 1227:1 1255:1 1276:2
1 754:1 1042:1 1217:1 1225:1 1276:2
1 888:1 1042:1 1216:1 1225:1 1276:4
1 502:1 710:1 1042:1 1072:1 1225:1 1227:1 1237:1 1255:1 1276:2
1 502:1 1042:1 1225:1 1227:1 1276:3
1 502:1 754:1 1042:1 1217:1 1225:1 1227:1 1276:2
1 502:1 754:1 1042:1 1072:1 1217:1 1225:1 1227:1 1255:1 1276:2
1 1211:1 1273:1 1276:4
1 1042:1 1225:1 1276:4
1 502:1 710:1 1042:1 1225:1 1227:1 1237:1 1276:2
1 502:1 888:1 1042:3 1216:1 1225:3 1227:1 1276:7
1 1276:2
1 502:1 597:1 754:1 1042:1 1217:1 1225:1 1227:1 1269:1 1276:3
1 502:1 1042:1 1072:1 1225:1 1227:1 1255:1 1276:2
1 1042:1 1072:1 1225:1 1255:1 1276:3
1 710:1 1042:1 1072:1 1225:1 1237:1 1255:1 1276:1
1 161:1 360:1 545:1 814:1 863:1 886:1 923:1 988:1 1042:1 1072:1 1086:1 1215:1 1225:1 1228:1 1242:1 1248:1 1253:1 1255:1 1257:1 1271:1 1272:1 1275:1 1276:2
1 502:1 806:2 1042:1 1225:1 1227:1 1263:2 1276:7
1 502:1 754:1 1042:1 1217:1 1225:1 1227:1 1276:3
1 502:1 888:1 1042:3 1216:1 1225:3 1227:1 1276:8
1 249:1 1042:1 1066:1 1225:1 1249:1 1270:1 1276:2
1 461:1 502:1 688:1 764:1 1042:1 1066:1 1072:1 1219:1 1222:1 1225:1 1227:1 1249:1 1255:1 1260:1 1276:4 1278:3
1 502:1 1042:1 1225:1 1227:1 1276:3
1 754:1 1042:1 1072:1 1217:1 1225:1 1255:1 1276:1
1 502:1 888:1 1042:3 1216:1 1225:3 1227:1 1276:10
1 502:1 1042:1 1072:1 1225:1 1227:1 1255:1 1276:2
1 502:1 1042:1 1225:1 1227:1 1276:2
1 754:1 1042:1 1072:1 1217:1 1225:1 1255:1 1276:2
1 502:1 754:1 1042:1 1072:1 1217:1 1225:1 1227:1 1255:1 1276:3
1 806:1 1042:1 1225:1 1263:1 1276:3
1 888:1 1042:1 1216:1 1225:1 1276:3
1 1042:1 1225:1 1276:2
1 502:1 710:1 1042:1 1225:1 1227:1 1237:1 1276:2
1 1042:1 1225:1 1276:2
1 502:1 754:1 1042:1 1072:1 1217:1 1225:1 1227:1 1255:1 1276:1
1 502:1 1042:1 1225:1 1227:1 1276:3 1278:1
1 187:1 502:3 650:1 688:1 754:2 787:3 888:2 1042:4 1066:2 1072:3 1216:2 1217:2 1219:1 1225:4 1227:3 1233:1 1243:3 1245:1 1249:2 1255:3 1276:6
1 502:1 888:1 1042:1 1216:1 1225:1 1227:1 1276:2
1 502:1 806:1 1042:1 1072:1 1225:1 1227:1 1255:1 1263:1 1276:4
1 502:1 710:1 888:1 1042:1 1072:1 1216:1 1225:1 1227:1 1237:1 1255:1 1276:2
1 754:1 1042:1 1217:1 1225:1 1276:2
1 502:1 710:1 754:1 787:1 888:1 1042:1 1072:1 1216:1 1217:1 1225:1 1227:1 1237:1 1243:1 1255:1 1276:2
1 187:1 502:1 688:1 754:1 764:1 806:1 1042:1 1072:1 1217:1 1219:1 1222:1 1225:1 1227:1 1233:1 1255:1 1263:1 1276:2
1 502:1 787:1 888:1 1042:3 1216:1 1225:3 1227:1 1243:1 1276:6
1 502:1 754:1 787:1 1042:1 1217:1 1225:1 1227:1 1243:1 1276:1
1 297:1 502:1 1042:1 1072:1 1225:1 1227:1 1244:1 1255:1 1276:2
1 502:1 1042:1 1225:1 1227:1 1276:3
1 187:1 502:1 688:1 754:1 764:1 806:1 1042:1 1072:1 1217:1 1219:1 1222:1 1225:1 1227:1 1233:1 1255:1 1263:1 1276:2
1 1211:1 1273:1 1276:4
1 1042:1 1225:1 1276:3
1 249:1 1042:1 1066:1 1225:1 1249:1 1270:1 1276:2
1 502:1 710:1 1042:1 1072:1 1225:1 1227:1 1237:1 1255:1 1276:2
1 502:1 1042:1 1225:1 1227:1 1276:3
1 1211:1 1273:1 1276:3
1 502:1 754:1 888:1 1042:1 1216:1 1217:1 1225:1 1227:1 1276:4
1 888:1 1042:1 1072:1 1216:1 1225:1 1255:1 1276:1
1 502:1 1042:1 1225:1 1227:1 1276:3
1 1211:1 1273:1 1276:4
1 502:1 1042:1 1225:1 1227:1 1276:3
1 502:2 688:1 754:1 764:1 787:1 888:1 1042:4 1066:3 1072:2 1216:1 1217:1 1219:1 1222:1 1225:4 1227:2 1243:1 1249:3 1255:2 1276:6
1 710:1 754:1 1042:1 1217:1 1225:1 1237:1 1276:1
1 502:1 1042:1 1225:1 1227:1 1276:2
1 502:1 754:1 1042:1 1072:1 1217:1 1225:1 1227:1 1255:1 1276:2
1 187:1 502:3 650:1 688:1 754:2 787:3 888:2 1042:4 1066:2 1072:3 1216:2 1217:2 1219:1 1225:4 1227:3 1233:1 1243:3 1245:1 1249:2 1255:3 1276:6
1 502:1 888:1 1042:3 1216:1 1225:3 1227:1 1276:7
1 1042:1 1225:1 1276:4 1278:1
1 502:1 597:1 1042:1 1225:1 1227:1 1269:1 1276:2
1 502:1 1042:1 1225:1 1227:1 1276:3
1 888:1 1042:1 1072:1 1216:1 1225:1 1255:1 1276:3
1 1211:1 1273:1 1276:3
1 502:1 1042:1 1225:1 1227:1 1276:3
1 1042:1 1225:1 1276:3
1 502:1 1042:1 1072:1 1225:1 1227:1 1255:1 1276:2
1 502:1 806:1 1042:1 1225:1 1227:1 1263:1 1276:5
1 1042:1 1225:1 1276:2
1 502:1 806:1 1042:1 1225:1 1227:1 1263:1 1276:5
1 502:1 1042:1 1225:1 1227:1 1276:2
1 502:1 1042:1 1225:1 1227:1 1276:3
1 502:1 1042:3 1225:3 1227:1 1276:8
1 1042:1 1072:1 1225:1 1255:1 1276:2
1 502:2 688:1 754:1 764:1 787:1 888:1 1042:4 1066:3 1072:2 1216:1 1217:1 1219:1 1222:1 1225:4 1227:2 1243:1 1249:3 1255:2 1276:6
1 888:1 1042:1 1072:1 1216:1 1225:1 1255:1 1276:1
1 502:1 1042:1 1072:1 1225:1 1227:1 1255:1 1276:2
1 1042:1 1225:1 1276:3
1 502:2 688:1 754:1 787:1 1042:4 1066:1 1072:2 1217:1 1219:1 1225:4 1227:2 1243:1 1249:1 1255:2 1276:6
1 888:1 1042:1 1072:1 1216:1 1225:1 1255:1 1276:1
1 1042:1 1225:1 1276:3
1 754:1 1042:1 1072:1 1217:1 1225:1 1255:1 1276:1
1 461:1 502:1 688:1 764:1 1042:1 1066:1 1072:1 1219:1 1222:1 1225:1 1227:1 1249:1 1255:1 1260:1 1276:4 1278:3
1 502:1 710:1 754:1 1042:1 1217:1 1225:1 1227:1 1237:1 1276:1
1 297:1 502:1 710:1 754:1 1042:1 1072:1 1217:1 1225:1 1227:1 1237:1 1244:1 1255:1 1276:2
1 187:1 502:3 650:1 688:1 754:2 787:3 888:2 1042:4 1066:2 1072:3 1216:2 1217:2 1219:1 1225:4 1227:3 1233:1 1243:3 1245:1 1249:2 1255:3 1276:6
1 502:1 888:1 1042:3 1216:1 1225:3 1227:1 1276:6
1 1042:1 1225:1 1276:3
1 1211:1 1273:1 1276:3
1 754:1 888:1 1042:1 1216:1 1217:1 1225:1 1276:3
1 502:1 1042:1 1225:1 1227:1 1276:4
1 754:1 1042:1 1217:1 1225:1 1276:2
1 249:1 502:1 754:1 787:1 915:1 1042:1 1072:1 1142:1 1217:1 1225:1 1227:1 1232:1 1243:1 1255:1 1265:1 1270:1 1276:2
1 888:1 1042:1 1216:1 1225:1 1276:4
1 187:1 502:1 688:1 754:1 764:1 806:1 1042:1 1072:1 1217:1 1219:1 1222:1 1225:1 1227:1 1233:1 1255:1 1263:1 1276:2
1 1042:1 1225:1 1276:3
1 754:1 1042:1 1217:1 1225:1 1276:1
1 754:1 1042:1 1072:1 1217:1 1225:1 1255:1 1276:2
1 461:1 502:1 688:1 764:1 1042:1 1066:1 1072:1 1219:1 1222:1 1225:1 1227:1 1249:1 1255:1 1260:1 1276:3 1278:3
1 187:1 502:1 688:1 754:1 764:1 806:1 1042:1 1072:1 1217:1 1219:1 1222:1 1225:1 1227:1 1233:1 1255:1 1263:1 1276:2
1 1042:1 1225:1 1276:2
1 1211:1 1273:1 1276:5
1 502:2 754:1 888:1 1042:3 1216:1 1217:1 1225:3 1227:2 1276:8
1 502:1 1042:1 1072:1 1225:1 1227:1 1255:1 1276:2
1 187:1 502:3 650:1 688:1 754:2 787:3 888:2 1042:4 1066:2 1072:3 1216:2 1217:2 1219:1 1225:4 1227:3 1233:1 1243:3 1245:1 1249:2 1255:3 1276:6
1 502:1 688:1 754:1 787:1 888:1 1042:1 1072:1 1216:1 1217:1 1219:1 1225:1 1227:1 1243:1 1255:1 1276:3
1 888:1 1042:3 1072:1 1216:1 1225:3 1255:1 1276:7
1 187:1 502:1 688:1 754:1 764:1 806:1 1042:1 1072:1 1217:1 1219:1 1222:1 1225:1 1227:1 1233:1 1255:1 1263:1 1276:2
1 502:1 1042:1 1225:1 1227:1 1276:1
1 297:1 502:1 1042:1 1225:1 1227:1 1244:1 1276:2
1 502:1 1042:1 1225:1 1227:1 1276:4
1 502:1 1042:1 1225:1 1227:1 1276:3
1 502:2 754:1 888:1 1042:3 1216:1 1217:1 1225:3 1227:2 1276:7
1 502:1 1042:1 1225:1 1227:1 1276:3
1 710:1 754:1 1042:1 1217:1 1225:1 1237:1 1276:2
1 297:1 502:1 754:1 1042:1 1072:1 1217:1 1225:1 1227:1 1244:1 1255:1 1276:2
1 502:1 710:1 1042:1 1072:1 1225:1 1227:1 1237:1 1255:1 1276:2
1 1042:1 1225:1 1276:3
1 187:1 502:1 688:1 754:1 764:1 806:1 1042:1 1072:1 1217:1 1219:1 1222:1 1225:1 1227:1 1233:1 1255:1 1263:1 1276:2
1 502:1 1042:1 1072:1 1225:1 1227:1 1255:1 1276:2
1 502:1 1042:1 1225:1 1227:1 1276:4
1 502:1 1042:1 1072:1 1225:1 1227:1 1255:1 1276:3
1 461:1 502:1 688:1 764:1 1042:1 1066:1 1072:1 1219:1 1222:1 1225:1 1227:1 1249:1 1255:1 1260:1 1276:4 1278:3
1 187:1 502:1 688:1 754:1 764:1 806:1 1042:1 1072:1 1217:1 1219:1 1222:1 1225:1 1227:1 1233:1 1255:1 1263:1 1276:2
1 502:1 710:1 754:1 1042:1 1217:1 1225:1 1227:1 1237:1 1276:1
1 187:1 502:3 650:1 688:1 754:2 787:3 888:2 1042:4 1066:2 1072:3 1216:2 1217:2 1219:1 1225:4 1227:3 1233:1 1243:3 1245:1 1249:2 1255:3 1276:6
1 502:1 1042:1 1225:1 1227:1 1276:3
1 1042:1 1225:1 1276:3
1 502:1 1042:1 1225:1 1227:1 1276:2
1 888:1 1042:1 1216:1 1225:1 1276:4
1 502:1 754:1 1042:1 1072:1 1217:1 1225:1 1227:1 1255:1 1276:2
1 502:1 754:1 1042:1 1217:1 1225:1 1227:1 1276:4
1 187:1 502:3 650:1 688:1 754:2 787:3 888:2 1042:4 1066:2 1072:3 1216:2 1217:2 1219:1 1225:4 1227:3 1233:1 1243:3 1245:1 1249:2 1255:3 1276:6
1 502:2 688:1 754:1 764:1 888:1 1042:4 1066:3 1072:2 1216:1 1217:1 1219:1 1222:1 1225:4 1227:2 1249:3 1255:2 1276:6
1 1042:1 1225:1 1276:2
1 502:1 1042:1 1225:1 1227:1 1276:2
1 502:1 1042:3 1225:3 1227:1 1276:8
1 710:1 1042:1 1072:1 1225:1 1237:1 1255:1 1276:1
1 502:2 688:1 754:1 764:1 888:2 1042:4 1066:3 1072:2 1216:2 1217:1 1219:1 1222:1 1225:4 1227:2 1249:3 1255:2 1276:6
1 754:1 1042:1 1217:1 1225:1 1276:2
1 1211:1 1273:1 1276:5
1 710:1 754:1 1042:1 1217:1 1225:1 1237:1 1276:2
1 502:2 597:1 688:1 754:1 764:1 787:1 888:2 1042:4 1066:3 1072:2 1216:2 1217:1 1219:1 1222:1 1225:4 1227:2 1243:1 1249:3 1255:2 1269:1 1276:6
1 502:1 888:1 1042:3 1216:1 1225:3 1227:1 1276:9
1 1042:1 1225:1 1276:4
1 1211:1 1273:1 1276:6
1 1042:1 1225:1 1276:2
1 502:1 754:1 1042:1 1072:1 1217:1 1225:1 1227:1 1255:1 1276:2
1 461:1 502:1 688:1 764:1 1042:1 1066:1 1072:1 1219:1 1222:1 1225:1 1227:1 1249:1 1255:1 1260:1 1276:4 1278:3
1 502:1 1042:1 1225:1 1227:1 1276:1
1 502:1 888:1 910:1 982:1 1042:1 1072:1 1193:1 1216:1 1225:1 1227:1 1229:1 1239:1 1255:1 1258:1 1276:4
1 502:1 1042:1 1225:1 1227:1 1276:3
1 502:2 754:1 888:1 1042:3 1216:1 1217:1 1225:3 1227:2 1276:8
1 1211:1 1273:1 1276:6
1 502:1 1042:1 1225:1 1227:1 1276:3
1 502:1 754:1 1042:1 1217:1 1225:1 1227:1 1276:2
1 502:1 1042:1 1225:1 1227:1 1276:2
1 502:1 1042:1 1225:1 1227:1 1276:3
1 502:1 1042:1 1225:1 1227:1 1276:3
1 502:1 688:1 754:1 787:1 888:1 1042:1 1072:1 1216:1 1217:1 1219:1 1225:1 1227:1 1243:1 1255:1 1276:3
1 1211:1 1273:1 1276:3
1 1042:1 1225:1 1276:3
1 710:1 754:1 1042:1 1217:1 1225:1 1237:1 1276:2
1 187:1 502:1 688:1 754:1 764:1 806:1 1042:1 1072:1 1217:1 1219:1 1222:1 1225:1 1227:1 1233:1 1255:1 1263:1 1276:2
1 502:1 710:1 754:1 1042:1 1217:1 1225:1 1227:1 1237:1 1276:2
1 143:1 502:2 1042:2 1225:2 1227:2 1238:1 1276:5
1 187:1 502:1 688:1 754:1 764:1 806:1 1042:1 1072:1 1217:1 1219:1 1222:1 1225:1 1227:1 1233:1 1255:1 1263:1 1276:2
1 1042:1 1072:1 1225:1 1255:1 1276:4
1 502:1 1042:1 1225:1 1227:1 1276:3
1 710:1 754:1 1042:1 1072:1 1217:1 1225:1 1237:1 1255:1 1276:3
1 187:1 502:3 650:1 688:1 754:2 787:3 888:2 1042:4 1066:2 1072:3 1216:2 1217:2 1219:1 1225:4 1227:3 1233:1 1243:3 1245:1 1249:2 1255:3 1276:6
1 502:1 1042:1 1225:1 1227:1 1276:3
1 502:2 688:1 754:1 787:1 1042:4 1066:1 1072:2 1217:1 1219:1 1225:4 1227:2 1243:1 1249:1 1255:2 1276:7
1 502:2 754:1 888:1 1042:3 1216:1 1217:1 1225:3 1227:2 1276:8
1 297:1 502:1 754:1 1042:1 1217:1 1225:1 1227:1 1244:1 1276:2
1 502:2 754:1 888:1 1042:3 1216:1 1217:1 1225:3 1227:2 1276:7
1 754:1 1042:1 1217:1 1225:1 1276:2
1 1042:1 1225:1 1276:2
1 502:1 754:1 1042:1 1217:1 1225:1 1227:1 1276:2
1 1211:1 1273:1 1276:3
1 502:1 1042:1 1225:1 1227:1 1276:3
1 1211:1 1273:1 1276:4
1 502:1 1042:1 1072:1 1225:1 1227:1 1255:1 1276:1
1 502:2 688:1 754:1 787:1 1042:4 1066:1 1072:2 1217:1 1219:1 1225:4 1227:2 1243:1 1249:1 1255:2 1276:6
1 502:1 688:1 754:1 787:1 806:1 888:1 910:1 1042:1 1216:1 1217:1 1219:1 1225:1 1227:1 1229:1 1243:1 1263:1 1276:4
1 502:2 754:1 888:1 1042:3 1216:1 1217:1 1225:3 1227:2 1276:8
1 143:1 502:3 787:1 1042:3 1072:1 1225:3 1227:3 1238:1 1243:1 1255:1 1276:7
1 502:1 1042:1 1225:1 1227:1 1276:3
1 502:1 1042:1 1072:1 1225:1 1227:1 1255:1 1276:2
1 187:1 502:3 650:1 688:1 754:2 787:3 888:2 1042:4 1066:2 1072:3 1216:2 1217:2 1219:1 1225:4 1227:3 1233:1 1243:3 1245:1 1249:2 1255:3 1276:6
1 888:1 1042:1 1072:1 1216:1 1225:1 1255:1 1276:3
1 754:1 1042:1 1072:1 1217:1 1225:1 1255:1 1276:1
1 502:1 754:1 1042:1 1072:1 1217:1 1225:1 1227:1 1255:1 1276:1
1 502:1 710:1 754:1 1042:1 1217:1 1225:1 1227:1 1237:1 1276:2
1 502:1 754:1 1042:1 1217:1 1225:1 1227:1 1276:2
1 502:1 1042:1 1225:1 1227:1 1276:3
1 297:1 502:1 1042:1 1225:1 1227:1 1244:1 1276:2
1 1042:1 1072:1 1225:1 1255:1 1276:3
1 502:1 710:1 754:1 1042:1 1217:1 1225:1 1227:1 1237:1 1276:2
1 502:1 710:1 888:1 1042:1 1216:1 1225:1 1227:1 1237:1 1276:2
1 187:1 502:3 650:1 688:1 754:2 787:3 888:2 1042:4 1066:2 1072:3 1216:2 1217:2 1219:1 1225:4 1227:3 1233:1 1243:3 1245:1 1249:2 1255:3 1276:6
1 187:1 502:3 650:1 688:1 754:2 787:3 888:2 1042:4 1066:2 1072:3 1216:2 1217:2 1219:1 1225:4 1227:3 1233:1 1243:3 1245:1 1249:2 1255:3 1276:6
1 502:1 688:1 754:1 787:1 888:1 1042:1 1072:1 1216:1 1217:1 1219:1 1225:1 1227:1 1243:1 1255:1 1276:3
1 461:1 502:1 688:1 764:1 1042:1 1066:1 1072:1 1219:1 1222:1 1225:1 1227:1 1249:1 1255:1 1260:1 1276:4 1278:3
1 502:1 754:1 787:1 888:1 1042:1 1072:1 1216:1 1217:1 1225:1 1227:1 1243:1 1255:1 1276:2
1 502:1 754:1 888:1 1042:1 1072:1 1216:1 1217:1 1225:1 1227:1 1255:1 1276:1
1 1042:1 1072:1 1225:1 1255:1 1276:3
1 502:1 1042:1 1225:1 1227:1 1276:2
1 502:1 754:1 1042:1 1217:1 1225:1 1227:1 1276:2
1 502:1 888:1 1042:3 1216:1 1225:3 1227:1 1276:8
1 1042:1 1225:1 1276:2
1 754:1 1042:1 1217:1 1225:1 1276:2
1 502:1 754:1 1042:1 1217:1 1225:1 1227:1 1276:3
1 502:1 888:1 1042:3 1216:1 1225:3 1227:1 1276:8
1 502:1 1042:1 1072:1 1225:1 1227:1 1255:1 1276:2
1 187:1 502:3 650:1 688:1 754:2 787:3 888:2 1042:4 1066:2 1072:3 1216:2 1217:2 1219:1 1225:4 1227:3 1233:1 1243:3 1245:1 1249:2 1255:3 1276:6
1 502:1 754:1 1042:1 1217:1 1225:1 1227:1 1276:2
1 502:2 754:1 888:1 1042:3 1216:1 1217:1 1225:3 1227:2 1276:5
1 502:1 1042:1 1225:1 1227:1 1276:2
1 502:2 597:1 688:1 754:1 764:1 787:1 888:2 1042:4 1066:3 1072:2 1216:2 1217:1 1219:1 1222:1 1225:4 1227:2 1243:1 1249:3 1255:2 1269:1 1276:6
1 461:1 502:1 688:1 764:1 1042:1 1066:1 1072:1 1219:1 1222:1 1225:1 1227:1 1249:1 1255:1 1260:1 1276:4 1278:3
1 461:1 502:1 542:1 597:1 673:1 688:1 710:1 754:1 756:1 764:1 787:1 806:1 877:1 888:1 910:1 915:1 1042:1 1066:1 1072:1 1198:1 1216:1 1217:1 1218:1 1219:1 1222:1 1225:1 1227:1 1229:1 1232:1 1237:1 1243:1 1249:1 1255:1 1260:1 1262:1 1263:1 1266:1 1267:1 1269:1 1274:1 1276:3 1278:3
1 502:1 806:1 1042:1 1225:1 1227:1 1263:1 1276:5
1 187:1 502:3 650:1 688:1 754:2 787:3 888:2 1042:4 1066:2 1072:3 1216:2 1217:2 1219:1 1225:4 1227:3 1233:1 1243:3 1245:1 1249:2 1255:3 1276:6
1 1042:1 1072:1 1225:1 1255:1 1276:3 1278:1
1 502:1 1042:1 1225:1 1227:1 1276:3
1 187:1 502:1 688:1 754:1 764:1 806:1 1042:1 1072:1 1217:1 1219:1 1222:1 1225:1 1227:1 1233:1 1255:1 1263:1 1276:2
1 1211:1 1273:1 1276:3
1 888:1 1042:3 1072:1 1216:1 1225:3 1255:1 1276:8
1 754:1 1042:1 1072:1 1217:1 1225:1 1255:1 1276:1
1 502:1 1042:1 1225:1 1227:1 1276:3
1 502:2 688:1 754:1 764:1 888:2 1042:4 1066:3 1072:2 1216:2 1217:1 1219:1 1222:1 1225:4 1227:2 1249:3 1255:2 1276:6
1 502:1 1042:1 1225:1 1227:1 1276:2
1 1211:1 1273:1 1276:3
1 502:1 1042:1 1072:1 1225:1 1227:1 1255:1 1276:2
1 1211:1 1273:1 1276:3
1 888:1 1042:1 1216:1 1225:1 1276:4
1 249:1 502:1 688:1 754:1 764:1 787:1 888:1 910:1 915:1 934:1 1042:1 1066:1 1072:1 1198:1 1216:1 1217:1 1219:1 1222:1 1225:1 1227:1 1229:1 1232:1 1243:1 1249:1 1255:1 1256:1 1262:1 1270:1 1276:2
1 1042:1 1072:1 1225:1 1255:1 1276:1
1 502:1 754:1 764:1 787:1 1042:1 1066:1 1072:1 1217:1 1222:1 1225:1 1227:1 1243:1 1249:1 1255:1 1276:9
1 1042:1 1225:1 1276:3
1 502:1 1042:1 1225:1 1227:1 1276:3
1 187:1 502:1 688:1 754:1 764:1 806:1 1042:1 1072:1 1217:1 1219:1 1222:1 1225:1 1227:1 1233:1 1255:1 1263:1 1276:2
1 249:1 297:1 502:1 597:1 650:1 688:1 754:1 787:1 888:1 910:1 934:1 1042:1 1066:1 1072:1 1076:1 1216:1 1217:1 1219:1 1225:1 1227:1 1229:1 1243:1 1244:1 1245:1 1249:1 1255:1 1256:1 1264:1 1269:1 1270:1 1276:1
1 461:1 502:1 688:1 764:1 1042:1 1066:1 1072:1 1219:1 1222:1 1225:1 1227:1 1249:1 1255:1 1260:1 1276:4 1278:3
1 1211:1 1273:1 1276:4
1 502:2 688:1 754:1 764:1 787:1 888:1 1042:4 1066:3 1072:2 1216:1 1217:1 1219:1 1222:1 1225:4 1227:2 1243:1 1249:3 1255:2 1276:6
1 1211:1 1273:1 1276:4
1 502:1 1042:1 1225:1 1227:1 1276:2
1 297:1 502:1 754:1 1042:1 1217:1 1225:1 1227:1 1244:1 1276:2
1 502:2 597:1 688:1 754:1 764:1 787:1 888:1 1042:4 1066:3 1072:2 1216:1 1217:1 1219:1 1222:1 1225:4 1227:2 1243:1 1249:3 1255:2 1269:1 1276:6
1 502:1 806:1 1042:1 1225:1 1227:1 1263:1 1276:5
1 502:1 1042:1 1072:1 1225:1 1227:1 1255:1 1276:2
1 187:1 502:3 650:1 688:1 754:2 787:3 888:2 1042:4 1066:2 1072:3 1216:2 1217:2 1219:1 1225:4 1227:3 1233:1 1243:3 1245:1 1249:2 1255:3 1276:6
1 502:1 1042:1 1072:1 1225:1 1227:1 1255:1 1276:1
1 502:1 1042:1 1225:1 1227:1 1276:3
1 903:1 1042:1 1072:1 1223:1 1225:1 1255:1 1276:2
1 1042:1 1225:1 1276:2
1 502:1 1042:1 1225:1 1227:1 1276:3
1 502:1 710:1 1042:1 1225:1 1227:1 1237:1 1276:2
1 888:1 1042:1 1216:1 1225:1 1276:4
1 806:2 1042:1 1072:1 1225:1 1255:1 1263:2 1276:5
1 297:1 502:1 710:1 754:1 787:1 888:1 1042:1 1072:1 1216:1 1217:1 1225:1 1227:1 1237:1 1243:1 1244:1 1255:1 1276:2
1 1042:1 1072:1 1225:1 1255:1 1276:4
1 502:1 1042:1 1225:1 1227:1 1276:3
1 806:1 1042:1 1072:1 1225:1 1255:1 1263:1 1276:5
1 187:1 502:3 650:1 688:1 754:2 787:3 888:2 1042:4 1066:2 1072:3 1216:2 1217:2 1219:1 1225:4 1227:3 1233:1 1243:3 1245:1 1249:2 1255:3 1276:6
1 1042:1 1072:1 1225:1 1255:1 1276:4 1278:1
1 502:1 710:1 1042:1 1072:1 1225:1 1227:1 1237:1 1255:1 1276:2
1 187:1 502:1 688:1 754:1 764:1 806:1 1042:1 1072:1 1217:1 1219:1 1222:1 1225:1 1227:1 1233:1 1255:1 1263:1 1276:2
1 143:1 502:1 888:1 1042:1 1072:1 1216:1 1225:1 1227:1 1238:1 1255:1 1276:3
1 502:1 806:1 1042:1 1225:1 1227:1 1263:1 1276:5
1 502:1 1042:1 1225:1 1227:1 1276:3
1 502:1 888:1 1042:3 1216:1 1225:3 1227:1 1276:6
1 1211:1 1273:1 1276:3
1 1042:1 1072:1 1225:1 1255:1 1276:2
1 502:1 1042:1 1072:1 1225:1 1227:1 1255:1 1276:2
1 754:1 1042:1 1072:1 1217:1 1225:1 1255:1 1276:2
1 502:1 1042:1 1225:1 1227:1 1276:5
1 502:1 1042:1 1225:1 1227:1 1276:3
1 502:1 754:1 888:1 1042:3 1216:1 1217:1 1225:3 1227:1 1276:7
1 502:1 1042:1 1225:1 1227:1 1276:3
1 1042:1 1225:1 1276:2
1 1211:1 1273:1 1276:4
1 502:1 754:1 1042:1 1217:1 1225:1 1227:1 1276:2
1 502:1 754:1 1042:1 1217:1 1225:1 1227:1 1276:2
1 502:1 1042:1 1072:1 1225:1 1227:1 1255:1 1276:1
1 502:2 754:1 888:1 1042:3 1216:1 1217:1 1225:3 1227:2 1276:8
1 1042:1 1225:1 1276:1
1 754:1 1042:1 1072:1 1217:1 1225:1 1255:1 1276:2
1 502:1 1042:1 1072:1 1225:1 1227:1 1255:1 1276:1
1 502:2 650:1 688:1 754:1 764:1 888:2 1042:4 1066:3 1072:2 1216:2 1217:1 1219:1 1222:1 1225:4 1227:2 1245:1 1249:3 1255:2 1276:6
1 502:2 754:1 888:1 1042:3 1216:1 1217:1 1225:3 1227:2 1276:7
1 187:1 502:3 650:1 688:1 754:2 787:3 888:2 1042:4 1066:2 1072:3 1216:2 1217:2 1219:1 1225:4 1227:3 1233:1 1243:3 1245:1 1249:2 1255:3 1276:6
1 502:2 754:1 888:1 1042:3 1216:1 1217:1 1225:3 1227:2 1276:7
1 502:1 1042:1 1072:1 1225:1 1227:1 1255:1 1276:2
1 502:2 688:1 754:1 764:1 1042:5 1066:2 1072:2 1217:1 1219:1 1222:1 1225:5 1227:2 1249:2 1255:2 1276:5
1 888:1 1042:1 1072:1 1216:1 1225:1 1255:1 1276:2
1 502:2 754:1 888:1 1042:3 1216:1 1217:1 1225:3 1227:2 1276:8
1 502:1 1042:1 1225:1 1227:1 1276:3
1 1042:1 1225:1 1276:4
1 806:1 1042:1 1225:1 1263:1 1276:4
1 502:1 888:1 1042:3 1216:1 1225:3 1227:1 1276:7
1 502:1 754:1 1042:1 1072:1 1217:1 1225:1 1227:1 1255:1 1276:1
1 502:1 888:1 1042:3 1216:1 1225:3 1227:1 1276:10
1 888:1 1042:1 1072:1 1216:1 1225:1 1255:1 1276:3
1 754:1 1042:1 1217:1 1225:1 1276:2
1 1211:1 1273:1 1276:2
1 1042:1 1225:1 1276:3
1 502:1 1042:1 1072:1 1225:1 1227:1 1255:1 1276:2
1 502:2 754:1 888:1 1042:3 1216:1 1217:1 1225:3 1227:2 1276:6
1 502:1 1042:1 1225:1 1227:1 1276:3
1 754:1 1042:1 1217:1 1225:1 1276:1
1 187:1 502:1 688:1 754:1 764:1 806:1 1042:1 1072:1 1217:1 1219:1 1222:1 1225:1 1227:1 1233:1 1255:1 1263:1 1276:2
1 1211:1 1273:1 1276:3
1 502:1 1042:3 1225:3 1227:1 1276:9
1 187:1 502:3 650:1 688:1 754:2 787:3 888:2 1042:4 1066:2 1072:3 1216:2 1217:2 1219:1 1225:4 1227:3 1233:1 1243:3 1245:1 1249:2 1255:3 1276:6
1 1211:1 1273:1 1276:3
1 502:1 1042:1 1225:1 1227:1 1276:2
1 502:2 688:1 754:1 764:1 1042:4 1066:2 1072:2 1217:1 1219:1 1222:1 1225:4 1227:2 1249:2 1255:2 1276:6
1 1211:1 1273:1 1276:4
1 502:2 754:1 888:1 1042:3 1216:1 1217:1 1225:3 1227:2 1276:6
1 502:1 888:1 1042:3 1216:1 1225:3 1227:1 1276:7
1 1042:1 1225:1 1276:2
1 502:1 1042:1 1225:1 1227:1 1276:3
1 502:2 754:1 888:1 1042:3 1216:1 1217:1 1225:3 1227:2 1276:6
1 502:1 1042:1 1225:1 1227:1 1276:3
1 502:1 1042:3 1225:3 1227:1 1276:7
1 502:1 754:1 1042:1 1217:1 1225:1 1227:1 1276:2
1 502:1 1042:1 1225:1 1227:1 1276:3
1 502:2 754:1 888:1 1042:3 1216:1 1217:1 1225:3 1227:2 1276:7
1 150:1 161:1 360:1 545:1 668:1 886:1 888:1 923:1 940:1 1042:1 1072:1 1215:1 1216:1 1225:1 1228:1 1242:1 1246:1 1253:1 1255:1 1259:1 1261:1 1275:1 1276:4
1 502:1 754:1 1042:1 1217:1 1225:1 1227:1 1276:2
1 502:2 806:1 1042:3 1225:3 1227:2 1263:1 1276:8
1 502:1 1042:1 1072:1 1225:1 1227:1 1255:1 1276:2
1 502:2 754:1 888:1 1042:3 1216:1 1217:1 1225:3 1227:2 1276:6
1 502:2 754:1 888:1 1042:3 1216:1 1217:1 1225:3 1227:2 1276:7
1 502:1 1042:1 1072:1 1225:1 1227:1 1255:1 1276:2
1 502:1 754:1 1042:1 1217:1 1225:1 1227:1 1276:2
1 1042:1 1072:1 1225:1 1255:1 1276:2
1 373:1 502:1 650:1 764:1 787:1 877:1 888:1 910:1 990:1 1042:1 1066:1 1072:1 1216:1 1222:1 1225:1 1227:1 1229:1 1243:1 1245:1 1247:1 1249:1 1250:1 1255:1 1274:1 1276:4 1278:3
1 502:1 754:1 888:1 1042:3 1216:1 1217:1 1225:3 1227:1 1276:7
1 1042:1 1225:1 1276:2
1 502:1 1042:1 1225:1 1227:1 1276:3
1 502:1 1042:3 1225:3 1227:1 1276:7
1 888:1 1042:1 1216:1 1225:1 1276:4
1 1042:1 1225:1 1276:2
1 888:1 1042:1 1072:1 1216:1 1225:1 1255:1 1276:1
1 502:1 1042:1 1225:1 1227:1 1276:3
1 502:2 754:1 888:1 1042:3 1216:1 1217:1 1225:3 1227:2 1276:8
1 297:1 502:1 754:1 1042:1 1217:1 1225:1 1227:1 1244:1 1276:2
1 187:1 502:3 650:1 688:1 754:2 787:3 888:2 1042:4 1066:2 1072:3 1216:2 1217:2 1219:1 1225:4 1227:3 1233:1 1243:3 1245:1 1249:2 1255:3 1276:6
1 297:1 502:1 1042:1 1225:1 1227:1 1244:1 1276:2
1 710:1 754:1 1042:1 1217:1 1225:1 1237:1 1276:2
1 502:1 1042:1 1225:1 1227:1 1276:3
1 1042:1 1225:1 1276:2
1 502:1 1042:3 1225:3 1227:1 1276:7
1 502:1 688:1 754:1 787:1 888:1 1042:1 1072:1 1216:1 1217:1 1219:1 1225:1 1227:1 1243:1 1255:1 1276:3
1 461:1 502:1 688:1 764:1 1042:1 1066:1 1072:1 1219:1 1222:1 1225:1 1227:1 1249:1 1255:1 1260:1 1276:4 1278:3
1 502:1 710:1 1042:1 1225:1 1227:1 1237:1 1276:2
1 502:1 754:1 1042:1 1217:1 1225:1 1227:1 1276:2
1 297:1 502:1 754:1 1042:1 1217:1 1225:1 1227:1 1244:1 1276:2
1 502:1 754:1 1042:1 1072:1 1217:1 1225:1 1227:1 1255:1 1276:1
1 502:2 754:1 888:1 1042:3 1216:1 1217:1 1225:3 1227:2 1276:7
1 297:1 502:1 1042:1 1225:1 1227:1 1244:1 1276:2
1 502:1 1042:1 1225:1 1227:1 1276:3
1 888:1 1042:1 1072:1 1216:1 1225:1 1255:1 1276:1
1 1211:1 1273:1 1276:4
1 502:1 710:1 1042:1 1225:1 1227:1 1237:1 1276:2
1 888:1 1042:1 1072:1 1216:1 1225:1 1255:1 1276:1
1 502:1 754:1 1042:1 1072:1 1217:1 1225:1 1227:1 1255:1 1276:2
1 502:2 754:1 888:1 1042:3 1216:1 1217:1 1225:3 1227:2 1276:6
1 502:2 688:1 754:1 764:1 888:2 1042:4 1066:3 1072:2 1216:2 1217:1 1219:1 1222:1 1225:4 1227:2 1249:3 1255:2 1276:6
1 502:1 754:1 1042:1 1072:1 1217:1 1225:1 1227:1 1255:1 1276:1
1 1042:1 1072:1 1225:1 1255:1 1276:2
1 502:1 754:1 888:1 1042:1 1072:1 1216:1 1217:1 1225:1 1227:1 1255:1 1276:2
1 502:1 754:1 806:1 1042:1 1217:1 1225:1 1227:1 1263:1 1276:5
1 249:1 1042:1 1066:1 1225:1 1249:1 1270:1 1276:2
1 502:1 806:1 1042:2 1225:2 1227:1 1263:1 1276:11
1 297:1 502:1 1042:1 1072:1 1225:1 1227:1 1244:1 1255:1 1276:2
1 502:1 754:1 1042:1 1217:1 1225:1 1227:1 1276:3
1 187:1 502:1 688:1 754:1 764:1 806:1 1042:1 1072:1 1217:1 1219:1 1222:1 1225:1 1227:1 1233:1 1255:1 1263:1 1276:4
1 187:1 502:3 650:1 688:1 754:2 787:3 888:2 1042:4 1066:2 1072:3 1216:2 1217:2 1219:1 1225:4 1227:3 1233:1 1243:3 1245:1 1249:2 1255:3 1276:6
1 502:1 754:1 1042:1 1072:1 1217:1 1225:1 1227:1 1255:1 1276:2
1 502:1 787:1 888:1 1042:3 1216:1 1225:3 1227:1 1243:1 1276:6
1 502:2 888:1 1042:3 1216:1 1225:3 1227:2 1276:6
1 1211:1 1273:1 1276:5
1 754:1 1042:1 1217:1 1225:1 1276:2
1 502:1 710:1 888:1 1042:1 1216:1 1225:1 1227:1 1237:1 1276:2
1 502:1 688:1 754:1 787:1 888:1 1042:1 1072:1 1216:1 1217:1 1219:1 1225:1 1227:1 1243:1 1255:1 1276:3
1 1042:1 1072:1 1225:1 1255:1 1276:2
1 502:2 754:1 888:1 1042:3 1216:1 1217:1 1225:3 1227:2 1276:6
1 502:2 754:1 888:1 1042:3 1216:1 1217:1 1225:3 1227:2 1276:7
1 297:1 502:1 754:1 1042:1 1072:1 1217:1 1225:1 1227:1 1244:1 1255:1 1276:2
1 297:1 502:1 754:1 1042:1 1217:1 1225:1 1227:1 1244:1 1276:2
1 710:1 1042:1 1072:1 1225:1 1237:1 1255:1 1276:1
1 502:2 754:1 888:1 1042:3 1216:1 1217:1 1225:3 1227:2 1276:8
1 502:1 710:1 754:1 1042:1 1072:1 1217:1 1225:1 1227:1 1237:1 1255:1 1276:1
1 502:1 754:1 888:1 1042:1 1072:1 1216:1 1217:1 1225:1 1227:1 1255:1 1276:2
1 502:1 710:1 1042:1 1072:1 1225:1 1227:1 1237:1 1255:1 1276:2
1 502:1 1042:3 1225:3 1227:1 1276:7
1 1042:1 1066:1 1072:1 1225:1 1249:1 1255:1 1276:2
1 1211:1 1273:1 1276:4
1 502:1 688:1 754:1 764:1 806:1 1042:1 1072:1 1217:1 1219:1 1222:1 1225:1 1227:1 1255:1 1263:1 1276:3
1 502:1 1042:1 1072:1 1225:1 1227:1 1255:1 1276:2
1 1211:1 1273:1 1276:4
1 297:1 502:1 710:1 754:1 1042:1 1072:1 1217:1 1225:1 1227:1 1237:1 1244:1 1255:1 1276:2
1 502:1 1042:1 1225:1 1227:1 1276:4
1 1211:1 1273:1 1276:4
1 710:1 754:1 1042:1 1072:1 1217:1 1225:1 1237:1 1255:1 1276:2
1 502:1 710:1 1042:1 1225:1 1227:1 1237:1 1276:2
1 502:1 710:1 1042:1 1225:1 1227:1 1237:1 1276:2
1 502:1 787:1 1042:1 1072:1 1225:1 1227:1 1243:1 1255:1 1276:2
1 1042:1 1072:1 1225:1 1255:1 1276:2
1 502:1 710:1 1042:1 1225:1 1227:1 1237:1 1276:2
1 754:1 1042:1 1217:1 1225:1 1276:2
1 502:1 1042:3 1225:3 1227:1 1276:7
1 502:1 1042:1 1072:1 1225:1 1227:1 1255:1 1276:2
1 502:1 754:1 1042:1 1072:1 1217:1 1225:1 1227:1 1255:1 1276:3
1 502:1 1042:1 1072:1 1225:1 1227:1 1255:1 1276:2
1 502:1 710:1 1042:1 1072:1 1225:1 1227:1 1237:1 1255:1 1276:2
1 502:1 1042:1 1225:1 1227:1 1276:2
1 187:1 502:1 688:1 754:1 764:1 806:1 1042:1 1072:1 1217:1 1219:1 1222:1 1225:1 1227:1 1233:1 1255:1 1263:1 1276:2
1 502:1 888:1 1042:3 1216:1 1225:3 1227:1 1276:6
1 502:1 688:1 888:1 1042:1 1216:1 1219:1 1225:1 1227:1 1276:6
1 187:1 502:3 650:1 688:1 754:2 787:3 888:2 1042:4 1066:2 1072:3 1216:2 1217:2 1219:1 1225:4 1227:3 1233:1 1243:3 1245:1 1249:2 1255:3 1276:6
1 502:1 1042:1 1225:1 1227:1 1276:3
1 502:2 754:1 806:1 1042:3 1217:1 1225:3 1227:2 1263:1 1276:12
1 502:1 1042:1 1225:1 1227:1 1276:3
1 502:1 1042:1 1072:1 1225:1 1227:1 1255:1 1276:1
1 754:1 1042:1 1217:1 1225:1 1276:2
1 502:1 1042:3 1225:3 1227:1 1276:8
1 187:1 502:3 650:1 688:1 754:2 787:3 888:2 1042:4 1066:2 1072:3 1216:2 1217:2 1219:1 1225:4 1227:3 1233:1 1243:3 1245:1 1249:2 1255:3 1276:6
1 502:1 1042:1 1225:1 1227:1 1276:3
1 1042:1 1225:1 1276:4 1278:1
1 502:1 1042:3 1225:3 1227:1 1276:9
1 502:1 754:1 1042:1 1217:1 1225:1 1227:1 1276:4
1 502:1 888:1 1042:3 1072:1 1216:1 1225:3 1227:1 1255:1 1276:7
1 502:1 1042:3 1225:3 1227:1 1276:8
1 754:1 1042:1 1217:1 1225:1 1276:4
1 143:1 502:2 1042:3 1072:1 1225:3 1227:2 1238:1 1255:1 1276:7
1 502:2 597:1 688:1 754:1 764:1 787:1 888:2 1042:4 1066:3 1072:2 1216:2 1217:1 1219:1 1222:1 1225:4 1227:2 1243:1 1249:3 1255:2 1269:1 1276:6
1 187:1 502:1 688:1 754:1 764:1 806:1 1042:1 1072:1 1217:1 1219:1 1222:1 1225:1 1227:1 1233:1 1255:1 1263:1 1276:2
1 502:2 754:1 888:1 1042:3 1216:1 1217:1 1225:3 1227:2 1276:7
1 806:1 1042:2 1225:2 1263:1 1276:12
1 888:1 1042:3 1072:1 1216:1 1225:3 1255:1 1276:7
1 1042:1 1072:1 1225:1 1255:1 1276:3
1 710:1 754:1 1042:1 1217:1 1225:1 1237:1 1276:2
1 502:1 1042:1 1225:1 1227:1 1276:3
1 1042:1 1225:1 1276:4
1 502:1 1042:1 1225:1 1227:1 1276:2
1 502:1 1042:1 1225:1 1227:1 1276:2
1 187:1 502:1 688:1 754:1 764:1 806:1 1042:1 1072:1 1217:1 1219:1 1222:1 1225:1 1227:1 1233:1 1255:1 1263:1 1276:2
1 502:1 754:1 1042:1 1072:1 1217:1 1225:1 1227:1 1255:1 1276:2
1 754:1 1042:1 1217:1 1225:1 1276:2
1 502:1 1042:1 1072:1 1225:1 1227:1 1255:1 1276:2
1 502:1 1042:3 1225:3 1227:1 1276:7
1 502:1 754:1 1042:1 1072:1 1217:1 1225:1 1227:1 1255:1 1276:3
1 502:2 650:1 688:1 754:1 764:1 888:2 1042:4 1066:3 1072:2 1216:2 1217:1 1219:1 1222:1 1225:4 1227:2 1245:1 1249:3 1255:2 1276:6
1 1042:1 1072:1 1225:1 1255:1 1276:3
1 502:1 1042:1 1225:1 1227:1 1276:2
1 754:1 888:1 1042:1 1216:1 1217:1 1225:1 1276:1
1 502:1 710:1 754:1 1042:1 1217:1 1225:1 1227:1 1237:1 1276:2
1 297:1 502:1 710:1 754:1 787:1 1042:1 1072:1 1217:1 1225:1 1227:1 1237:1 1243:1 1244:1 1255:1 1276:2
1 888:1 1042:1 1072:1 1216:1 1225:1 1255:1 1276:1
1 502:1 806:1 1042:1 1225:1 1227:1 1263:1 1276:5
1 502:1 754:1 787:1 1042:1 1072:1 1217:1 1225:1 1227:1 1243:1 1255:1 1276:2
1 888:1 1042:1 1072:1 1216:1 1225:1 1255:1 1276:3
1 710:1 754:1 1042:1 1072:1 1217:1 1225:1 1237:1 1255:1 1276:2
1 187:1 502:1 688:1 754:1 764:1 806:1 1042:1 1072:1 1217:1 1219:1 1222:1 1225:1 1227:1 1233:1 1255:1 1263:1 1276:2
1 502:2 597:1 688:1 754:1 764:1 787:1 888:2 1042:4 1066:3 1072:2 1216:2 1217:1 1219:1 1222:1 1225:4 1227:2 1243:1 1249:3 1255:2 1269:1 1276:6
1 1042:1 1072:1 1225:1 1255:1 1276:3
1 1042:1 1072:1 1225:1 1255:1 1276:2
1 1042:1 1072:1 1225:1 1255:1 1276:2
1 888:1 1042:1 1072:1 1216:1 1225:1 1255:1 1276:1
1 1042:1 1072:1 1225:1 1255:1 1276:3
1 502:1 1042:3 1225:3 1227:1 1276:7
1 502:1 1042:1 1225:1 1227:1 1276:3
1 754:1 1042:1 1072:1 1217:1 1225:1 1255:1 1276:2
1 502:1 1042:1 1225:1 1227:1 1276:2
1 373:1 502:1 650:1 754:1 764:1 787:1 888:1 934:1 981:1 1042:1 1072:1 1216:1 1217:1 1222:1 1225:1 1227:1 1235:1 1243:1 1245:1 1247:1 1255:1 1256:1 1276:2
1 502:2 597:1 688:1 754:1 764:1 787:1 888:2 1042:4 1066:3 1072:2 1216:2 1217:1 1219:1 1222:1 1225:4 1227:2 1243:1 1249:3 1255:2 1269:1 1276:6
1 502:1 1042:1 1072:1 1225:1 1227:1 1255:1 1276:2
1 502:2 688:1 754:1 764:1 787:1 888:1 1042:4 1066:3 1072:2 1216:1 1217:1 1219:1 1222:1 1225:4 1227:2 1243:1 1249:3 1255:2 1276:6
1 502:1 1042:1 1225:1 1227:1 1276:3
1 502:1 710:1 1042:1 1225:1 1227:1 1237:1 1276:2
1 502:1 1042:3 1225:3 1227:1 1276:8
1 502:1 787:1 888:1 1042:1 1072:1 1216:1 1225:1 1227:1 1243:1 1255:1 1276:2
1 187:1 502:3 650:1 688:1 754:2 787:3 888:2 1042:4 1066:2 1072:3 1216:2 1217:2 1219:1 1225:4 1227:3 1233:1 1243:3 1245:1 1249:2 1255:3 1276:6
1 1211:1 1273:1 1276:4
1 502:1 1042:1 1225:1 1227:1 1276:2
1 187:1 502:1 688:1 754:1 764:1 806:1 1042:1 1072:1 1217:1 1219:1 1222:1 1225:1 1227:1 1233:1 1255:1 1263:1 1276:2
1 187:1 502:1 688:1 754:1 764:1 806:1 1042:1 1072:1 1217:1 1219:1 1222:1 1225:1 1227:1 1233:1 1255:1 1263:1 1276:3
1 1042:1 1072:1 1225:1 1255:1 1276:3
1 502:1 1042:1 1225:1 1227:1 1276:2
1 502:1 1042:1 1225:1 1227:1 1276:3
1 710:1 754:1 1042:1 1217:1 1225:1 1237:1 1276:2
1 502:1 754:1 888:1 1042:2 1216:1 1217:1 1225:2 1227:1 1276:7
1 502:1 1042:1 1225:1 1227:1 1276:3
1 187:1 502:1 688:1 754:1 764:1 806:1 1042:1 1072:1 1217:1 1219:1 1222:1 1225:1 1227:1 1233:1 1255:1 1263:1 1276:2
1 1042:1 1072:1 1225:1 1255:1 1276:2
1 502:1 1042:1 1225:1 1227:1 1276:3
1 502:1 888:1 1042:3 1216:1 1225:3 1227:1 1276:7
1 187:1 502:1 688:1 754:1 764:1 806:1 1042:1 1072:1 1217:1 1219:1 1222:1 1225:1 1227:1 1233:1 1255:1 1263:1 1276:2
1 1276:2
1 1042:1 1072:1 1225:1 1255:1 1276:3
1 502:1 1042:1 1225:1 1227:1 1276:3
1 1211:1 1273:1 1276:4
1 1042:1 1225:1 1276:4 1278:1
1 297:1 502:1 710:1 754:1 1042:1 1072:1 1217:1 1225:1 1227:1 1237:1 1244:1 1255:1 1276:2
1 502:1 754:1 888:1 1042:1 1216:1 1217:1 1225:1 1227:1 1276:3
1 1211:1 1273:1 1276:5
1 502:1 888:1 1042:3 1216:1 1225:3 1227:1 1276:8
1 903:1 1042:1 1072:1 1223:1 1225:1 1255:1 1276:2
1 502:1 888:1 1042:3 1216:1 1225:3 1227:1 1276:6
1 187:1 502:1 688:1 754:1 764:1 806:1 1042:1 1072:1 1217:1 1219:1 1222:1 1225:1 1227:1 1233:1 1255:1 1263:1 1276:2
1 502:2 888:1 1042:3 1216:1 1225:3 1227:2 1276:7
1 1211:1 1273:1 1276:5
1 502:1 754:1 888:1 1042:1 1072:1 1216:1 1217:1 1225:1 1227:1 1255:1 1276:2
1 502:1 1042:1 1225:1 1227:1 1276:3
1 502:1 710:1 1042:1 1225:1 1227:1 1237:1 1276:2
1 754:1 1042:1 1217:1 1225:1 1276:2
1 754:1 1042:1 1217:1 1225:1 1276:2
1 187:1 502:1 688:1 754:1 764:1 806:1 1042:1 1072:1 1217:1 1219:1 1222:1 1225:1 1227:1 1233:1 1255:1 1263:1 1276:2
1 297:1 502:1 754:1 1042:1 1217:1 1225:1 1227:1 1244:1 1276:2
1 502:1 1042:1 1225:1 1227:1 1276:1
1 502:1 1042:1 1225:1 1227:1 1276:2
1 502:2 754:1 888:1 1042:3 1216:1 1217:1 1225:3 1227:2 1276:7
1 502:1 1042:1 1225:1 1227:1 1276:2
1 187:1 502:1 688:1 754:1 764:1 806:1 1042:1 1072:1 1217:1 1219:1 1222:1 1225:1 1227:1 1233:1 1255:1 1263:1 1276:3
1 1042:1 1225:1 1276:3
1 1211:1 1273:1 1276:3
1 297:1 502:1 710:1 754:1 787:1 888:1 1042:1 1072:1 1216:1 1217:1 1225:1 1227:1 1237:1 1243:1 1244:1 1255:1 1276:2
1 888:1 1042:1 1216:1 1225:1 1276:3
1 1211:1 1273:1 1276:4
1 502:1 1042:1 1225:1 1227:1 1276:2
1 502:1 1042:1 1225:1 1227:1 1276:3
1 502:1 710:1 1042:1 1072:1 1225:1 1227:1 1237:1 1255:1 1276:4
1 754:1 1042:1 1217:1 1225:1 1276:2
1 502:1 754:1 888:1 1042:1 1072:1 1216:1 1217:1 1225:1 1227:1 1255:1 1276:1
1 297:1 888:1 1042:1 1072:1 1216:1 1225:1 1244:1 1255:1 1276:2
1 461:1 502:1 688:1 764:1 1042:1 1066:1 1072:1 1219:1 1222:1 1225:1 1227:1 1249:1 1255:1 1260:1 1276:4 1278:3
1 1042:1 1072:1 1225:1 1255:1 1276:1
1 502:1 787:1 806:1 1042:1 1072:1 1225:1 1227:1 1243:1 1255:1 1263:1 1276:4
1 1211:1 1273:1 1276:4
1 502:1 754:1 1042:1 1217:1 1225:1 1227:1 1276:2
1 502:1 1042:1 1225:1 1227:1 1276:3
1 502:1 1042:1 1225:1 1227:1 1276:2
1 502:1 754:1 1042:1 1217:1 1225:1 1227:1 1276:2
1 502:1 787:1 888:1 1042:3 1216:1 1225:3 1227:1 1243:1 1276:6
1 502:1 1042:1 1225:1 1227:1 1276:3
1 502:1 1042:1 1225:1 1227:1 1276:3
1 502:1 888:1 1042:3 1216:1 1225:3 1227:1 1276:7
1 502:1 754:1 1042:1 1072:1 1217:1 1225:1 1227:1 1255:1 1276:3
1 502:1 1042:1 1225:1 1227:1 1276:3
1 249:1 1042:1 1066:1 1225:1 1249:1 1270:1 1276:2
1 1042:1 1225:1 1276:2
1 502:1 754:1 1042:1 1217:1 1225:1 1227:1 1276:2
1 373:1 502:1 787:1 877:1 888:1 915:1 940:1 1042:3 1066:1 1072:1 1216:1 1225:3 1227:1 1232:1 1243:1 1247:1 1249:1 1255:1 1261:1 1274:1 1276:12
1 502:2 754:1 888:1 1042:3 1216:1 1217:1 1225:3 1227:2 1276:8
1 1042:1 1225:1 1276:4
1 502:1 754:1 888:1 1042:1 1072:1 1216:1 1217:1 1225:1 1227:1 1255:1 1276:3
1 502:1 1042:1 1225:1 1227:1 1276:2
1 1211:1 1273:1 1276:4
1 502:1 1042:1 1225:1 1227:1 1276:3
1 903:1 1042:1 1072:1 1223:1 1225:1 1255:1 1276:1
1 1211:1 1273:1 1276:4
1 502:1 888:1 1042:3 1216:1 1225:3 1227:1 1276:7
1 187:1 502:1 688:1 754:1 764:1 806:1 1042:1 1072:1 1217:1 1219:1 1222:1 1225:1 1227:1 1233:1 1255:1 1263:1 1276:3
1 502:2 754:1 888:1 1042:3 1216:1 1217:1 1225:3 1227:2 1276:7
1 1042:1 1225:1 1276:2
1 502:1 1042:1 1225:1 1227:1 1276:3
1 754:1 1042:1 1217:1 1225:1 1276:2
1 143:1 502:2 787:1 888:1 1042:3 1216:1 1225:3 1227:2 1238:1 1243:1 1276:6
1 502:1 710:1 754:1 1042:1 1072:1 1217:1 1225:1 1227:1 1237:1 1255:1 1276:4
1 806:1 1042:1 1225:1 1263:1 1276:6
1 502:2 597:1 688:1 754:1 764:1 787:1 888:1 1042:4 1066:3 1072:2 1216:1 1217:1 1219:1 1222:1 1225:4 1227:2 1243:1 1249:3 1255:2 1269:1 1276:6
1 502:1 888:1 1042:1 1072:1 1216:1 1225:1 1227:1 1255:1 1276:2
1 502:1 1042:1 1225:1 1227:1 1276:3
1 1042:1 1072:1 1225:1 1255:1 1276:2
1 710:1 1042:1 1072:1 1225:1 1237:1 1255:1 1276:2
1 502:1 754:1 888:1 1042:3 1216:1 1217:1 1225:3 1227:1 1276:6
1 502:1 1042:1 1225:1 1227:1 1276:3
1 502:1 1042:1 1225:1 1227:1 1276:3
1 502:1 787:1 1042:3 1072:1 1193:1 1225:3 1227:1 1243:1 1255:1 1258:1 1276:8
1 1042:1 1072:1 1225:1 1255:1 1276:2
1 502:1 710:1 754:1 1042:1 1072:1 1217:1 1225:1 1227:1 1237:1 1255:1 1276:2
1 806:1 1042:1 1225:1 1263:1 1276:5
1 187:1 502:1 688:1 754:1 764:1 806:1 1042:1 1072:1 1217:1 1219:1 1222:1 1225:1 1227:1 1233:1 1255:1 1263:1 1276:2
1 502:1 1042:1 1072:1 1225:1 1227:1 1255:1 1276:2
1 502:1 1042:1 1072:1 1225:1 1227:1 1255:1 1276:2
1 502:1 1042:3 1225:3 1227:1 1276:8
1 502:1 754:1 888:1 1042:1 1072:1 1216:1 1217:1 1225:1 1227:1 1255:1 1276:1
1 502:1 754:1 764:1 787:1 1042:1 1066:1 1072:1 1217:1 1222:1 1225:1 1227:1 1243:1 1249:1 1255:1 1276:10
1 502:1 754:1 1042:1 1072:1 1217:1 1225:1 1227:1 1255:1 1276:1
1 502:1 1042:1 1225:1 1227:1 1276:2
1 710:1 1042:1 1072:1 1225:1 1237:1 1255:1 1276:2
1 1042:1 1225:1 1276:1
1 754:1 1042:1 1072:1 1217:1 1225:1 1255:1 1276:1
1 903:1 1042:1 1072:1 1223:1 1225:1 1255:1 1276:2
1 806:1 1042:1 1225:1 1263:1 1276:4
1 888:1 1042:1 1066:1 1216:1 1225:1 1249:1 1276:3
1 502:1 1042:1 1225:1 1227:1 1276:3
1 502:1 1042:1 1225:1 1227:1 1276:3
1 888:1 1042:1 1216:1 1225:1 1276:4
1 461:1 502:1 688:1 764:1 1042:1 1066:1 1072:1 1219:1 1222:1 1225:1 1227:1 1249:1 1255:1 1260:1 1276:4 1278:3
1 502:1 754:1 1042:1 1072:1 1217:1 1225:1 1227:1 1255:1 1276:2
1 502:1 754:1 1042:1 1217:1 1225:1 1227:1 1276:4
1 297:1 502:1 754:1 1042:1 1217:1 1225:1 1227:1 1244:1 1276:2
1 1042:1 1225:1 1276:2
1 502:1 1042:1 1072:1 1225:1 1227:1 1255:1 1276:2
1 187:1 502:1 688:1 754:1 764:1 806:1 1042:1 1072:1 1217:1 1219:1 1222:1 1225:1 1227:1 1233:1 1255:1 1263:1 1276:2
1 1042:1 1072:1 1225:1 1255:1 1276:2
1 1211:1 1273:1 1276:3
1 502:1 710:1 754:1 1042:1 1217:1 1225:1 1227:1 1237:1 1276:2
1 754:1 1042:1 1217:1 1225:1 1276:1
1 1042:1 1225:1 1276:2
1 1042:1 1072:1 1225:1 1255:1 1276:1
1 297:1 502:1 754:1 1042:1 1217:1 1225:1 1227:1 1244:1 1276:2
1 1211:1 1273:1 1276:3
1 502:1 1042:1 1225:1 1227:1 1276:4
1 502:1 1042:1 1225:1 1227:1 1276:3
1 502:1 710:1 1042:1 1225:1 1227:1 1237:1 1276:2
1 502:1 1042:1 1225:1 1227:1 1276:3
1 502:1 754:1 1042:1 1072:1 1217:1 1225:1 1227:1 1255:1 1276:2
1 1042:1 1225:1 1276:2
1 502:1 754:1 888:1 1042:2 1216:1 1217:1 1225:2 1227:1 1276:7
1 502:1 754:1 888:1 1042:1 1216:1 1217:1 1225:1 1227:1 1276:2
1 1211:1 1273:1 1276:4
1 502:1 787:1 806:1 1042:1 1066:1 1225:1 1227:1 1243:1 1249:1 1263:1 1276:3
1 1042:1 1225:1 1276:2
1 502:1 1042:1 1072:1 1225:1 1227:1 1255:1 1276:2
1 297:1 502:1 710:1 754:1 787:1 1042:1 1072:1 1217:1 1225:1 1227:1 1237:1 1243:1 1244:1 1255:1 1276:2
1 1042:1 1225:1 1276:2
1 502:1 710:1 1042:1 1225:1 1227:1 1237:1 1276:2
1 502:1 1042:1 1225:1 1227:1 1276:2
1 502:1 754:1 888:1 1042:1 1216:1 1217:1 1225:1 1227:1 1276:3
1 502:1 754:1 1042:1 1217:1 1225:1 1227:1 1276:2
1 297:1 502:1 710:1 754:1 1042:1 1072:1 1217:1 1225:1 1227:1 1237:1 1244:1 1255:1 1276:2
1 297:1 502:1 710:1 754:1 787:1 1042:1 1072:1 1217:1 1225:1 1227:1 1237:1 1243:1 1244:1 1255:1 1276:2
1 502:1 1042:1 1225:1 1227:1 1276:2
1 1042:1 1225:1 1276:4
1 502:1 754:1 1042:1 1217:1 1225:1 1227:1 1276:2
1 1211:1 1273:1 1276:3
1 502:1 1042:1 1225:1 1227:1 1276:3
1 143:1 502:3 787:1 888:1 1042:3 1072:1 1216:1 1225:3 1227:3 1238:1 1243:1 1255:1 1276:7
1 888:1 1042:1 1216:1 1225:1 1276:4
1 502:2 754:1 888:1 1042:3 1216:1 1217:1 1225:3 1227:2 1276:7
1 1042:1 1225:1 1276:3
1 1211:1 1273:1 1276:4
1 1211:1 1273:1 1276:4
1 502:1 754:1 1042:1 1072:1 1217:1 1225:1 1227:1 1255:1 1276:2
1 502:1 1042:1 1225:1 1227:1 1276:3
1 502:1 1042:1 1225:1 1227:1 1276:2
1 502:1 1042:1 1225:1 1227:1 1276:3
1 502:1 1042:1 1225:1 1227:1 1276:3
1 1211:1 1273:1 1276:4
1 187:1 502:1 688:1 754:1 764:1 806:1 1042:1 1072:1 1217:1 1219:1 1222:1 1225:1 1227:1 1233:1 1255:1 1263:1 1276:2
1 502:1 1042:3 1225:3 1227:1 1276:7
1 502:1 1042:1 1225:1 1227:1 1276:1
1 502:1 754:1 787:1 1042:1 1072:1 1217:1 1225:1 1227:1 1243:1 1255:1 1276:2
1 502:1 688:1 754:1 764:1 787:1 888:1 1042:1 1072:1 1216:1 1217:1 1219:1 1222:1 1225:1 1227:1 1243:1 1255:1 1276:3
1 502:1 1042:1 1072:1 1225:1 1227:1 1255:1 1276:3
1 187:1 502:1 688:1 754:1 764:1 806:1 1042:1 1072:1 1217:1 1219:1 1222:1 1225:1 1227:1 1233:1 1255:1 1263:1 1276:2
1 502:1 710:1 754:1 1042:1 1217:1 1225:1 1227:1 1237:1 1276:1
1 1042:1 1225:1 1276:6
1 1042:1 1072:1 1225:1 1255:1 1276:2
1 502:1 1042:1 1225:1 1227:1 1276:3
1 1042:1 1225:1 1276:2
1 502:1 709:1 754:1 787:1 888:1 910:1 1042:1 1066:1 1072:1 1076:1 1216:1 1217:1 1225:1 1227:1 1229:1 1236:1 1243:1 1249:1 1255:1 1264:1 1276:2
1 1042:1 1225:1 1276:4
1 187:1 502:3 650:1 688:1 754:2 787:3 888:2 1042:4 1066:2 1072:3 1216:2 1217:2 1219:1 1225:4 1227:3 1233:1 1243:3 1245:1 1249:2 1255:3 1276:6
1 502:1 754:1 1042:1 1072:1 1217:1 1225:1 1227:1 1255:1 1276:3
1 502:1 754:1 1042:1 1217:1 1225:1 1227:1 1276:1
1 502:1 1042:1 1072:1 1225:1 1227:1 1255:1 1276:2
1 1211:1 1273:1 1276:4
1 502:2 688:1 754:1 764:1 888:2 1042:4 1066:3 1072:2 1216:2 1217:1 1219:1 1222:1 1225:4 1227:2 1249:3 1255:2 1276:6
1 1211:1 1273:1 1276:4
1 1276:2
1 1042:1 1225:1 1276:2
1 888:1 1042:1 1072:1 1216:1 1225:1 1255:1 1276:3
1 461:1 502:1 688:1 764:1 1042:1 1066:1 1072:1 1219:1 1222:1 1225:1 1227:1 1249:1 1255:1 1260:1 1276:4 1278:3
1 502:1 1042:1 1225:1 1227:1 1276:3
1 502:2 597:1 688:1 754:1 764:1 787:1 888:1 1042:4 1066:3 1072:2 1216:1 1217:1 1219:1 1222:1 1225:4 1227:2 1243:1 1249:3 1255:2 1269:1 1276:6
1 502:1 1042:1 1225:1 1227:1 1276:4
1 502:1 1042:1 1225:1 1227:1 1276:3
1 502:1 754:1 888:1 1042:1 1216:1 1217:1 1225:1 1227:1 1276:3
1 1042:1 1225:1 1276:5
1 502:1 1042:1 1225:1 1227:1 1276:3
1 502:1 1042:3 1225:3 1227:1 1276:8
1 1211:1 1273:1 1276:3
1 1042:1 1072:1 1225:1 1255:1 1276:4 1278:1
1 754:1 1042:1 1217:1 1225:1 1276:1
1 461:1 502:1 688:1 764:1 1042:1 1066:1 1072:1 1219:1 1222:1 1225:1 1227:1 1249:1 1255:1 1260:1 1276:4 1278:3
1 502:1 888:1 1042:3 1216:1 1225:3 1227:1 1276:5
1 502:1 754:1 1042:1 1217:1 1225:1 1227:1 1276:2
1 1042:1 1072:1 1225:1 1255:1 1276:2
1 502:1 1042:1 1225:1 1227:1 1276:3
1 502:1 888:1 1042:3 1216:1 1225:3 1227:1 1276:8
1 888:1 1042:1 1216:1 1225:1 1276:4
1 1042:1 1072:1 1225:1 1255:1 1276:2
1 502:1 754:1 888:1 1042:3 1216:1 1217:1 1225:3 1227:1 1276:6
1 502:1 1042:1 1225:1 1227:1 1276:1
1 888:1 1042:1 1072:1 1216:1 1225:1 1255:1 1276:3
1 502:1 1042:1 1225:1 1227:1 1276:1
1 187:1 502:1 688:1 754:1 764:1 806:1 1042:1 1072:1 1217:1 1219:1 1222:1 1225:1 1227:1 1233:1 1255:1 1263:1 1276:2
1 502:1 1042:1 1225:1 1227:1 1276:3
1 502:1 1042:1 1225:1 1227:1 1276:3
1 502:1 754:1 1042:1 1217:1 1225:1 1227:1 1276:2
1 502:2 754:1 888:1 1042:3 1216:1 1217:1 1225:3 1227:2 1276:4
1 187:1 502:1 688:1 754:1 764:1 806:1 1042:1 1072:1 1217:1 1219:1 1222:1 1225:1 1227:1 1233:1 1255:1 1263:1 1276:2
1 806:1 1042:1 1225:1 1263:1 1276:4
1 1211:1 1273:1 1276:4
1 502:1 1042:1 1072:1 1225:1 1227:1 1255:1 1276:2
1 502:1 1042:1 1225:1 1227:1 1276:2
1 502:1 1042:1 1225:1 1227:1 1276:2
1 502:1 888:1 1042:1 1072:1 1216:1 1225:1 1227:1 1255:1 1276:2
1 502:1 1042:1 1225:1 1227:1 1276:4
1 502:1 754:1 888:1 1042:1 1216:1 1217:1 1225:1 1227:1 1276:2
1 888:1 1042:1 1072:1 1216:1 1225:1 1255:1 1276:1
1 502:1 1042:1 1072:1 1225:1 1227:1 1255:1 1276:2
1 502:1 754:1 1042:1 1072:1 1217:1 1225:1 1227:1 1255:1 1276:1
1 502:1 1042:1 1225:1 1227:1 1276:3
1 502:1 1042:3 1072:1 1225:3 1227:1 1255:1 1276:5
1 502:1 787:1 888:1 1042:2 1072:1 1216:1 1225:2 1227:1 1243:1 1255:1 1276:7
1 502:1 710:1 1042:1 1072:1 1225:1 1227:1 1237:1 1255:1 1276:2
1 502:1 1042:1 1225:1 1227:1 1276:3
1 502:1 806:1 1042:1 1225:1 1227:1 1263:1 1276:6
1 502:2 688:1 754:1 764:1 787:1 1042:4 1066:2 1072:2 1217:1 1219:1 1222:1 1225:4 1227:2 1243:1 1249:2 1255:2 1276:6
1 1042:1 1072:1 1225:1 1255:1 1276:3
1 502:1 1042:1 1072:1 1225:1 1227:1 1255:1 1276:2
1 502:1 1042:3 1225:3 1227:1 1276:8
1 502:1 1042:1 1225:1 1227:1 1276:2
1 502:1 1042:1 1225:1 1227:1 1276:2
1 888:1 1042:1 1072:1 1216:1 1225:1 1255:1 1276:3
1 502:1 710:1 754:1 1042:1 1217:1 1225:1 1227:1 1237:1 1276:1
1 187:1 502:1 688:1 754:1 764:1 806:1 1042:1 1072:1 1217:1 1219:1 1222:1 1225:1 1227:1 1233:1 1255:1 1263:1 1276:2
1 502:2 688:1 754:1 764:1 888:2 1042:4 1066:3 1072:2 1216:2 1217:1 1219:1 1222:1 1225:4 1227:2 1249:3 1255:2 1276:6
1 754:1 1042:1 1072:1 1217:1 1225:1 1255:1 1276:2
1 1211:1 1273:1 1276:4
1 1042:1 1225:1 1276:4
1 1211:1 1273:1 1276:5
1 502:1 754:1 1042:1 1072:1 1217:1 1225:1 1227:1 1255:1 1276:2
1 502:1 1042:3 1225:3 1227:1 1276:7
1 502:2 754:1 888:1 1042:3 1216:1 1217:1 1225:3 1227:2 1276:7
1 502:1 888:1 1042:3 1216:1 1225:3 1227:1 1276:7
1 502:2 754:1 888:1 1042:3 1216:1 1217:1 1225:3 1227:2 1276:6
1 1042:1 1225:1 1276:2
1 502:2 688:1 754:1 764:1 787:1 888:2 1042:4 1066:3 1072:2 1216:2 1217:1 1219:1 1222:1 1225:4 1227:2 1243:1 1249:3 1255:2 1276:6
1 502:1 1042:1 1225:1 1227:1 1276:3
1 502:1 754:1 1042:1 1072:1 1217:1 1225:1 1227:1 1255:1 1276:2
1 806:1 1042:1 1225:1 1263:1 1276:4
1 502:1 1042:1 1225:1 1227:1 1276:3
1 502:1 1042:1 1225:1 1227:1 1276:3
1 187:1 502:1 688:1 754:1 764:1 806:1 1042:1 1072:1 1217:1 1219:1 1222:1 1225:1 1227:1 1233:1 1255:1 1263:1 1276:2
1 502:1 1042:1 1225:1 1227:1 1276:2
1 710:1 787:1 910:1 915:1 1042:1 1072:1 1225:1 1229:1 1232:1 1237:1 1243:1 1255:1 1276:2
1 187:1 502:1 688:1 754:1 764:1 806:1 1042:1 1072:1 1217:1 1219:1 1222:1 1225:1 1227:1 1233:1 1255:1 1263:1 1276:4
1 502:1 754:1 1042:1 1072:1 1217:1 1225:1 1227:1 1255:1 1276:2
1 502:1 754:1 1042:1 1217:1 1225:1 1227:1 1276:4
1 1211:1 1273:1 1276:4
1 1211:1 1273:1 1276:3
1 502:1 888:1 1042:1 1072:1 1216:1 1225:1 1227:1 1255:1 1276:2
1 502:1 754:1 787:1 1042:1 1072:1 1217:1 1225:1 1227:1 1243:1 1255:1 1276:2
1 187:1 502:3 650:1 688:1 754:2 787:3 888:2 1042:4 1066:2 1072:3 1216:2 1217:2 1219:1 1225:4 1227:3 1233:1 1243:3 1245:1 1249:2 1255:3 1276:6
1 806:1 1042:2 1225:2 1263:1 1276:12
1 187:1 502:1 688:1 754:1 764:1 806:1 1042:1 1072:1 1217:1 1219:1 1222:1 1225:1 1227:1 1233:1 1255:1 1263:1 1276:2
1 187:1 502:1 688:1 754:1 764:1 806:1 1042:1 1072:1 1217:1 1219:1 1222:1 1225:1 1227:1 1233:1 1255:1 1263:1 1276:2
1 888:1 1042:1 1216:1 1225:1 1276:4
1 903:1 1042:1 1072:1 1223:1 1225:1 1255:1 1276:2
1 1211:1 1273:1 1276:5
1 502:1 1042:1 1225:1 1227:1 1276:2
1 888:1 1042:1 1216:1 1225:1 1276:4
1 710:1 754:1 1042:1 1217:1 1225:1 1237:1 1276:2
1 461:1 502:1 688:1 764:1 1042:1 1066:1 1072:1 1219:1 1222:1 1225:1 1227:1 1249:1 1255:1 1260:1 1276:3 1278:3
1 502:1 1042:1 1225:1 1227:1 1276:3
1 187:1 502:3 650:1 688:1 754:2 787:3 888:2 1042:4 1066:2 1072:3 1216:2 1217:2 1219:1 1225:4 1227:3 1233:1 1243:3 1245:1 1249:2 1255:3 1276:6
1 297:1 888:1 1042:1 1072:1 1216:1 1225:1 1244:1 1255:1 1276:1
1 502:1 754:1 1042:1 1072:1 1217:1 1225:1 1227:1 1255:1 1276:3
1 502:1 1042:1 1072:1 1225:1 1227:1 1255:1 1276:2
1 888:1 1042:3 1072:1 1216:1 1225:3 1255:1 1276:7
1 502:1 1042:1 1225:1 1227:1 1276:2
1 502:2 688:1 754:1 764:1 888:2 1042:4 1066:3 1072:2 1216:2 1217:1 1219:1 1222:1 1225:4 1227:2 1249:3 1255:2 1276:6
1 187:1 502:3 650:1 688:1 754:2 787:3 888:2 1042:4 1066:2 1072:3 1216:2 1217:2 1219:1 1225:4 1227:3 1233:1 1243:3 1245:1 1249:2 1255:3 1276:6
1 754:1 1042:1 1072:1 1217:1 1225:1 1255:1 1276:1
1 502:1 754:1 1042:1 1217:1 1225:1 1227:1 1276:2
1 1211:1 1273:1 1276:2
1 502:1 1042:1 1225:1 1227:1 1276:3
1 502:1 1042:1 1225:1 1227:1 1276:3
1 422:1 502:1 846:1 1042:1 1221:1 1225:1 1227:1 1241:1 1276:2
1 502:1 1042:1 1225:1 1227:1 1276:2
1 502:1 1042:1 1072:1 1225:1 1227:1 1255:1 1276:1
1 502:3 597:1 688:1 754:1 764:1 888:1 1042:4 1066:3 1072:2 1216:1 1217:1 1219:1 1222:1 1225:4 1227:3 1249:3 1255:2 1269:1 1276:6
1 502:1 1042:1 1225:1 1227:1 1276:3
1 502:1 1042:1 1225:1 1227:1 1276:3
1 502:1 710:1 754:1 1042:1 1217:1 1225:1 1227:1 1237:1 1276:2
1 502:2 688:1 754:1 787:1 1042:4 1066:1 1072:2 1217:1 1219:1 1225:4 1227:2 1243:1 1249:1 1255:2 1276:7
1 903:1 1042:1 1223:1 1225:1 1276:3
1 754:1 888:1 1042:1 1072:1 1216:1 1217:1 1225:1 1255:1 1276:1
1 806:1 1042:1 1225:1 1263:1 1276:5
1 502:1 1042:1 1225:1 1227:1 1276:3
1 502:1 1042:1 1225:1 1227:1 1276:2
1 754:1 1042:1 1217:1 1225:1 1276:1
1 502:1 1042:1 1225:1 1227:1 1276:3
1 754:1 888:1 1042:2 1216:1 1217:1 1225:2 1276:7
1 502:2 637:1 877:3 888:1 910:1 1042:5 1066:3 1072:2 1216:1 1225:5 1227:2 1229:1 1230:1 1249:3 1255:2 1274:3 1276:6
1 502:1 1042:1 1225:1 1227:1 1276:4
1 461:1 502:1 688:1 764:1 1042:1 1066:1 1072:1 1219:1 1222:1 1225:1 1227:1 1249:1 1255:1 1260:1 1276:4 1278:3
1 502:1 1042:1 1225:1 1227:1 1276:3
1 1211:1 1273:1 1276:4
1 754:1 1042:1 1072:1 1217:1 1225:1 1255:1 1276:2
1 502:1 1042:1 1225:1 1227:1 1276:3
1 502:1 1042:1 1225:1 1227:1 1276:3
1 1042:1 1225:1 1276:6
1 502:1 1042:1 1225:1 1227:1 1276:3
1 187:1 502:1 688:1 754:1 764:1 806:1 1042:1 1072:1 1217:1 1219:1 1222:1 1225:1 1227:1 1233:1 1255:1 1263:1 1276:2
1 502:2 754:1 888:1 1042:3 1216:1 1217:1 1225:3 1227:2 1276:8
1 502:1 1042:1 1225:1 1227:1 1276:3
1 187:1 502:3 650:1 688:1 754:2 787:3 888:2 1042:4 1066:2 1072:3 1216:2 1217:2 1219:1 1225:4 1227:3 1233:1 1243:3 1245:1 1249:2 1255:3 1276:6
1 502:2 650:1 688:1 754:1 764:1 787:1 1042:4 1066:2 1072:2 1217:1 1219:1 1222:1 1225:4 1227:2 1243:1 1245:1 1249:2 1255:2 1276:6
1 297:1 502:1 754:1 1042:1 1217:1 1225:1 1227:1 1244:1 1276:2
1 502:2 597:1 688:1 754:1 764:1 787:1 888:2 1042:4 1066:3 1072:2 1216:2 1217:1 1219:1 1222:1 1225:4 1227:2 1243:1 1249:3 1255:2 1269:1 1276:6
1 1042:1 1072:1 1225:1 1255:1 1276:2
1 502:1 710:1 1042:1 1072:1 1225:1 1227:1 1237:1 1255:1 1276:4
1 1211:1 1273:1 1276:5
1 1042:1 1225:1 1276:2
1 754:1 888:1 1042:1 1216:1 1217:1 1225:1 1276:1
1 502:1 1042:1 1225:1 1227:1 1276:3
1 888:1 1042:1 1072:1 1216:1 1225:1 1255:1 1276:6
1 502:1 1042:1 1225:1 1227:1 1276:3
1 754:1 1042:1 1072:1 1217:1 1225:1 1255:1 1276:1
1 903:1 1042:1 1223:1 1225:1 1276:3
1 1042:1 1225:1 1276:2
1 502:1 1042:3 1225:3 1227:1 1276:8
1 461:1 502:1 688:1 764:1 1042:1 1066:1 1072:1 1219:1 1222:1 1225:1 1227:1 1249:1 1255:1 1260:1 1276:4 1278:3
1 502:1 1042:1 1225:1 1227:1 1276:3
1 187:1 502:3 650:1 688:1 754:2 787:3 888:2 1042:4 1066:2 1072:3 1216:2 1217:2 1219:1 1225:4 1227:3 1233:1 1243:3 1245:1 1249:2 1255:3 1276:6
1 502:1 754:1 1042:1 1072:1 1217:1 1225:1 1227:1 1255:1 1276:3
1 502:1 1042:1 1225:1 1227:1 1276:3
1 502:1 754:1 1042:1 1217:1 1225:1 1227:1 1276:2
1 754:1 787:1 1042:1 1217:1 1225:1 1243:1 1276:1
1 888:1 1042:1 1216:1 1225:1 1276:4
1 1042:1 1072:1 1225:1 1255:1 1276:2
1 502:1 710:1 754:1 1042:1 1217:1 1225:1 1227:1 1237:1 1276:1
1 806:1 1042:1 1225:1 1263:1 1276:4
1 502:1 1042:1 1225:1 1227:1 1276:3
1 502:1 1042:1 1225:1 1227:1 1276:3
1 297:1 502:1 754:1 1042:1 1217:1 1225:1 1227:1 1244:1 1276:2
1 187:1 502:3 650:1 688:1 754:2 787:3 888:2 1042:4 1066:2 1072:3 1216:2 1217:2 1219:1 1225:4 1227:3 1233:1 1243:3 1245:1 1249:2 1255:3 1276:6
1 502:1 1042:1 1225:1 1227:1 1276:3
1 502:1 1042:1 1225:1 1227:1 1276:3
1 502:1 888:1 1042:3 1216:1 1225:3 1227:1 1276:9
1 502:1 754:1 1042:1 1217:1 1225:1 1227:1 1276:2
1 888:1 1042:1 1216:1 1225:1 1276:4
1 1211:1 1273:1 1276:4
1 502:1 1042:1 1225:1 1227:1 1276:2
1 297:1 502:1 1042:1 1072:1 1225:1 1227:1 1244:1 1255:1 1276:2
1 502:2 754:1 888:1 1042:3 1216:1 1217:1 1225:3 1227:2 1276:8
1 502:1 888:1 1042:3 1216:1 1225:3 1227:1 1276:8
1 502:1 754:1 1042:1 1217:1 1225:1 1227:1 1276:2
1 502:1 1042:1 1225:1 1227:1 1276:2
1 1042:1 1225:1 1276:4
1 888:1 1042:2 1072:1 1216:1 1225:2 1255:1 1276:6
1 502:2 688:1 754:1 764:1 888:2 1042:4 1066:3 1072:2 1216:2 1217:1 1219:1 1222:1 1225:4 1227:2 1249:3 1255:2 1276:6
1 187:1 502:1 688:1 754:1 764:1 806:1 1042:1 1072:1 1217:1 1219:1 1222:1 1225:1 1227:1 1233:1 1255:1 1263:1 1276:2
1 1211:1 1273:1 1276:3
1 502:2 688:1 754:1 764:1 787:1 888:2 1042:4 1066:3 1072:2 1216:2 1217:1 1219:1 1222:1 1225:4 1227:2 1243:1 1249:3 1255:2 1276:6
1 297:1 754:1 888:1 1042:1 1216:1 1217:1 1225:1 1244:1 1276:1
1 502:1 1042:3 1225:3 1227:1 1276:7
1 187:1 502:3 650:1 688:1 754:2 787:3 888:2 1042:4 1066:2 1072:3 1216:2 1217:2 1219:1 1225:4 1227:3 1233:1 1243:3 1245:1 1249:2 1255:3 1276:6
1 888:1 1042:1 1072:1 1216:1 1225:1 1255:1 1276:3
1 1042:1 1225:1 1276:3
1 373:1 502:1 597:1 637:1 688:1 709:1 754:1 764:1 787:1 888:1 910:1 1042:1 1066:1 1072:1 1076:1 1193:1 1216:1 1217:1 1219:1 1222:1 1225:1 1227:1 1229:1 1230:1 1236:1 1243:1 1247:1 1249:1 1255:1 1258:1 1264:1 1269:1 1276:2
1 187:1 502:1 688:1 754:1 764:1 806:1 1042:1 1072:1 1217:1 1219:1 1222:1 1225:1 1227:1 1233:1 1255:1 1263:1 1276:2
1 502:1 597:1 754:1 888:1 1042:1 1066:1 1216:1 1217:1 1225:1 1227:1 1249:1 1269:1 1276:2
1 1042:1 1072:1 1225:1 1255:1 1276:2
1 502:2 541:1 597:1 650:1 688:1 754:1 756:1 764:1 787:1 845:1 888:1 980:1 981:1 1042:3 1066:1 1072:1 1165:1 1193:1 1216:1 1217:1 1218:1 1219:1 1222:1 1225:3 1226:1 1227:2 1234:1 1235:1 1240:1 1243:1 1245:1 1249:1 1255:1 1258:1 1268:1 1269:1 1276:8
1 187:1 502:1 688:1 754:1 764:1 806:1 1042:1 1072:1 1217:1 1219:1 1222:1 1225:1 1227:1 1233:1 1255:1 1263:1 1276:2
1 502:1 754:1 888:1 1042:1 1072:1 1216:1 1217:1 1225:1 1227:1 1255:1 1276:1
1 502:2 688:1 754:1 764:1 787:1 888:1 1042:4 1066:3 1072:2 1216:1 1217:1 1219:1 1222:1 1225:4 1227:2 1243:1 1249:3 1255:2 1276:6
1 502:1 888:1 1042:3 1216:1 1225:3 1227:1 1276:8
1 502:1 710:1 1042:1 1225:1 1227:1 1237:1 1276:2
1 187:1 502:1 688:1 754:1 764:1 806:1 1042:1 1072:1 1217:1 1219:1 1222:1 1225:1 1227:1 1233:1 1255:1 1263:1 1276:2
1 502:1 888:1 1042:3 1072:1 1216:1 1225:3 1227:1 1255:1 1276:5
1 187:1 502:1 688:1 754:1 764:1 806:1 1042:1 1072:1 1217:1 1219:1 1222:1 1225:1 1227:1 1233:1 1255:1 1263:1 1276:2
1 143:1 502:1 888:1 1042:1 1072:1 1216:1 1225:1 1227:1 1238:1 1255:1 1276:3
1 502:1 754:1 1042:1 1217:1 1225:1 1227:1 1276:2
1 502:1 888:1 1042:3 1072:1 1216:1 1225:3 1227:1 1255:1 1276:6
1 502:1 710:1 1042:1 1225:1 1227:1 1237:1 1276:2
1 1042:1 1072:1 1225:1 1255:1 1276:1
1 1042:1 1072:1 1225:1 1255:1 1276:3
1 187:1 502:1 688:1 754:1 764:1 806:1 1042:1 1072:1 1217:1 1219:1 1222:1 1225:1 1227:1 1233:1 1255:1 1263:1 1276:2
1 502:2 754:1 888:1 1042:3 1216:1 1217:1 1225:3 1227:2 1276:8
1 502:1 888:1 1042:1 1072:1 1216:1 1225:1 1227:1 1255:1 1276:2
1 754:1 1042:1 1217:1 1225:1 1276:2
1 502:1 1042:1 1225:1 1227:1 1276:3
1 502:1 888:1 1042:3 1216:1 1225:3 1227:1 1276:8
1 502:1 710:1 1042:1 1072:1 1225:1 1227:1 1237:1 1255:1 1276:2
1 502:2 754:1 888:1 1042:3 1216:1 1217:1 1225:3 1227:2 1276:8
1 1042:1 1225:1 1276:4
1 502:1 787:1 1042:1 1072:1 1225:1 1227:1 1243:1 1255:1 1276:3
1 502:1 888:1 1042:3 1216:1 1225:3 1227:1 1276:7
1 249:1 297:1 373:1 502:1 541:1 650:1 688:1 754:1 764:1 787:1 888:1 981:1 1042:1 1066:1 1072:1 1165:1 1216:1 1217:1 1219:1 1222:1 1225:1 1226:1 1227:1 1235:1 1243:1 1244:1 1245:1 1247:1 1249:1 1255:1 1268:1 1270:1 1276:3 1278:1
1 502:1 1042:1 1225:1 1227:1 1276:3
1 297:1 502:1 754:1 1042:1 1217:1 1225:1 1227:1 1244:1 1276:2
1 502:2 688:1 754:1 764:1 1042:4 1066:2 1072:2 1217:1 1219:1 1222:1 1225:4 1227:2 1249:2 1255:2 1276:6
1 502:1 754:1 1042:1 1217:1 1225:1 1227:1 1276:2
1 502:1 787:1 888:1 1042:3 1216:1 1225:3 1227:1 1243:1 1276:5
1 1211:1 1273:1 1276:4
1 502:1 688:1 754:1 787:1 888:1 1042:1 1066:1 1072:1 1216:1 1217:1 1219:1 1225:1 1227:1 1243:1 1249:1 1255:1 1276:2
1 502:1 888:1 1042:3 1216:1 1225:3 1227:1 1276:7
1 502:1 1042:1 1225:1 1227:1 1276:3
1 502:1 710:1 1042:1 1072:1 1225:1 1227:1 1237:1 1255:1 1276:2
1 187:1 502:3 650:1 688:1 754:2 787:3 888:2 1042:4 1066:2 1072:3 1216:2 1217:2 1219:1 1225:4 1227:3 1233:1 1243:3 1245:1 1249:2 1255:3 1276:6
1 502:1 710:1 1042:1 1072:1 1225:1 1227:1 1237:1 1255:1 1276:2
1 754:1 1042:1 1217:1 1225:1 1276:2
1 297:1 502:1 754:1 1042:1 1072:1 1217:1 1225:1 1227:1 1244:1 1255:1 1276:2
1 502:1 710:1 1042:1 1225:1 1227:1 1237:1 1276:2
1 461:1 502:1 688:1 764:1 1042:1 1066:1 1072:1 1219:1 1222:1 1225:1 1227:1 1249:1 1255:1 1260:1 1276:4 1278:3
1 502:1 754:1 1042:1 1217:1 1225:1 1227:1 1276:2
1 888:1 1042:2 1072:1 1216:1 1225:2 1255:1 1276:6
1 1211:1 1273:1 1276:5
1 297:1 710:1 754:1 1042:1 1217:1 1225:1 1237:1 1244:1 1276:1
1 502:1 787:1 1042:1 1072:1 1225:1 1227:1 1243:1 1255:1 1276:2
1 297:1 502:1 754:1 1042:1 1217:1 1225:1 1227:1 1244:1 1276:2
1 502:2 688:1 754:1 764:1 787:1 888:1 1042:4 1066:3 1072:2 1216:1 1217:1 1219:1 1222:1 1225:4 1227:2 1243:1 1249:3 1255:2 1276:6
1 502:1 1042:1 1225:1 1227:1 1276:3
1 1042:1 1225:1 1276:2
1 502:1 806:1 1042:1 1225:1 1227:1 1263:1 1276:5
1 502:1 1042:1 1225:1 1227:1 1276:3
1 754:1 1042:1 1217:1 1225:1 1276:2
1 502:1 754:1 1042:1 1217:1 1225:1 1227:1 1276:3
1 502:1 1042:1 1225:1 1227:1 1276:3
1 1211:1 1273:1 1276:3
1 502:1 1042:1 1072:1 1225:1 1227:1 1255:1 1276:3
1 1211:1 1273:1 1276:3
1 502:1 1042:1 1072:1 1225:1 1227:1 1255:1 1276:2
1 187:1 502:3 650:1 688:1 754:2 787:3 888:2 1042:4 1066:2 1072:3 1216:2 1217:2 1219:1 1225:4 1227:3 1233:1 1243:3 1245:1 1249:2 1255:3 1276:6
1 502:1 754:1 1042:1 1217:1 1225:1 1227:1 1276:2
1 502:1 888:1 1042:3 1216:1 1225:3 1227:1 1276:8
1 297:1 502:1 754:1 1042:1 1217:1 1225:1 1227:1 1244:1 1276:2
1 187:1 502:1 688:1 754:1 764:1 806:1 1042:1 1072:1 1217:1 1219:1 1222:1 1225:1 1227:1 1233:1 1255:1 1263:1 1276:3
1 502:1 1042:1 1072:1 1225:1 1227:1 1255:1 1276:2
1 888:1 1042:3 1072:1 1216:1 1225:3 1255:1 1276:8
1 502:1 688:1 754:1 888:1 1042:1 1072:1 1216:1 1217:1 1219:1 1225:1 1227:1 1255:1 1276:3
1 502:1 888:1 1042:3 1216:1 1225:3 1227:1 1276:7
1 502:1 888:1 1042:3 1216:1 1225:3 1227:1 1276:6
1 502:1 1042:1 1225:1 1227:1 1276:2
1 1211:1 1273:1 1276:4
1 1042:1 1225:1 1276:3
1 1211:1 1273:1 1276:4
1 502:1 1042:1 1225:1 1227:1 1276:2
1 1042:1 1072:1 1225:1 1255:1 1276:1
1 502:1 754:1 1042:1 1072:1 1217:1 1225:1 1227:1 1255:1 1276:1
1 888:1 1042:1 1072:1 1216:1 1225:1 1255:1 1276:3
1 754:1 1042:1 1072:1 1217:1 1225:1 1255:1 1276:2
1 888:1 1042:1 1216:1 1225:1 1276:4
1 502:1 710:1 1042:1 1072:1 1225:1 1227:1 1237:1 1255:1 1276:1
1 502:2 754:1 888:1 1042:3 1216:1 1217:1 1225:3 1227:2 1276:7
1 502:1 1042:1 1225:1 1227:1 1276:3
1 502:1 1042:1 1225:1 1227:1 1276:3
1 1211:1 1273:1 1276:3
1 1042:1 1072:1 1225:1 1255:1 1276:2
1 1211:1 1273:1 1276:4
1 502:2 754:1 888:1 1042:3 1216:1 1217:1 1225:3 1227:2 1276:7
1 502:1 888:1 1042:1 1216:1 1225:1 1227:1 1276:4
1 461:1 502:1 688:1 764:1 1042:1 1066:1 1072:1 1219:1 1222:1 1225:1 1227:1 1249:1 1255:1 1260:1 1276:4 1278:3
1 710:1 754:1 1042:1 1217:1 1225:1 1237:1 1276:2
1 502:2 806:1 1042:3 1225:3 1227:2 1263:1 1276:8
1 249:1 1042:1 1225:1 1270:1 1276:2
1 249:1 1042:1 1225:1 1270:1 1276:2
1 502:1 710:1 1042:1 1225:1 1227:1 1237:1 1276:1
1 502:1 710:1 754:1 1042:1 1217:1 1225:1 1227:1 1237:1 1276:2
1 806:1 1042:1 1072:1 1225:1 1255:1 1263:1 1276:10
1 502:1 1042:1 1072:1 1225:1 1227:1 1255:1 1276:2
1 502:1 1042:1 1225:1 1227:1 1276:3
1 888:1 1042:1 1072:1 1216:1 1225:1 1255:1 1276:3
1 502:1 1042:1 1225:1 1227:1 1276:3
1 502:1 806:1 1042:1 1225:1 1227:1 1263:1 1276:5
1 1042:1 1225:1 1276:3
1 502:1 754:1 1042:1 1217:1 1225:1 1227:1 1276:4
1 502:1 710:1 1042:1 1072:1 1225:1 1227:1 1237:1 1255:1 1276:2
1 1042:1 1225:1 1276:2
1 461:1 502:1 688:1 764:1 1042:1 1066:1 1072:1 1219:1 1222:1 1225:1 1227:1 1249:1 1255:1 1260:1 1276:3 1278:3
1 1211:1 1273:1 1276:4
1 502:1 710:1 1042:1 1225:1 1227:1 1237:1 1276:2
1 502:1 1042:1 1225:1 1227:1 1276:2
1 1042:1 1072:1 1225:1 1255:1 1276:3
1 1211:1 1273:1 1276:4
1 297:1 710:1 754:1 1042:1 1217:1 1225:1 1237:1 1244:1 1276:1
1 187:1 502:3 650:1 688:1 754:2 787:3 888:2 1042:4 1066:2 1072:3 1216:2 1217:2 1219:1 1225:4 1227:3 1233:1 1243:3 1245:1 1249:2 1255:3 1276:6
1 502:2 754:1 888:1 1042:3 1216:1 1217:1 1225:3 1227:2 1276:9
1 1211:1 1273:1 1276:4
1 502:1 1042:1 1225:1 1227:1 1276:3
1 502:1 1042:1 1072:1 1225:1 1227:1 1255:1 1276:1
1 502:2 754:1 888:1 1042:3 1216:1 1217:1 1225:3 1227:2 1276:8
1 187:1 502:1 688:1 754:1 764:1 806:1 1042:1 1072:1 1217:1 1219:1 1222:1 1225:1 1227:1 1233:1 1255:1 1263:1 1276:2
1 461:1 502:1 688:1 764:1 1042:1 1066:1 1072:1 1219:1 1222:1 1225:1 1227:1 1249:1 1255:1 1260:1 1276:4 1278:3
1 502:1 754:1 888:1 1042:1 1216:1 1217:1 1225:1 1227:1 1276:4
1 888:1 1042:1 1216:1 1225:1 1276:3
1 888:1 1042:1 1072:1 1216:1 1225:1 1255:1 1276:3
1 502:1 1042:1 1225:1 1227:1 1276:3
1 502:2 688:1 754:1 764:1 787:1 888:2 1042:4 1066:3 1072:2 1216:2 1217:1 1219:1 1222:1 1225:4 1227:2 1243:1 1249:3 1255:2 1276:6
1 502:1 710:1 754:1 1042:1 1217:1 1225:1 1227:1 1237:1 1276:2
1 461:1 502:1 688:1 764:1 1042:1 1066:1 1072:1 1219:1 1222:1 1225:1 1227:1 1249:1 1255:1 1260:1 1276:4 1278:3
1 502:1 1042:1 1225:1 1227:1 1276:1
1 888:1 1042:1 1072:1 1216:1 1225:1 1255:1 1276:1
1 502:1 888:1 1042:3 1216:1 1225:3 1227:1 1276:8
1 1211:1 1273:1 1276:5
1 187:1 502:1 688:1 754:1 764:1 806:1 1042:1 1072:1 1217:1 1219:1 1222:1 1225:1 1227:1 1233:1 1255:1 1263:1 1276:2
1 502:1 597:1 754:1 1042:1 1072:1 1217:1 1225:1 1227:1 1255:1 1269:1 1276:4
1 187:1 502:1 688:1 754:1 764:1 806:1 1042:1 1072:1 1217:1 1219:1 1222:1 1225:1 1227:1 1233:1 1255:1 1263:1 1276:2
1 502:2 688:1 754:1 764:1 787:1 888:2 1042:4 1066:3 1072:2 1216:2 1217:1 1219:1 1222:1 1225:4 1227:2 1243:1 1249:3 1255:2 1276:6
1 502:1 888:1 1042:1 1216:1 1225:1 1227:1 1276:2
1 888:1 1042:1 1072:1 1216:1 1225:1 1255:1 1276:3
1 502:1 1042:1 1225:1 1227:1 1276:3
1 502:1 754:1 1042:1 1072:1 1217:1 1225:1 1227:1 1255:1 1276:2
1 1042:1 1225:1 1276:3
1 1042:1 1225:1 1276:2
1 502:1 754:1 888:1 1042:1 1072:1 1216:1 1217:1 1225:1 1227:1 1255:1 1276:1
1 1042:1 1072:1 1225:1 1255:1 1276:3
1 1211:1 1273:1 1276:4
1 502:1 1042:1 1225:1 1227:1 1276:2
1 502:2 754:1 888:1 1042:3 1216:1 1217:1 1225:3 1227:2 1276:6
1 754:1 1042:1 1072:1 1217:1 1225:1 1255:1 1276:1
1 187:1 502:3 650:1 688:1 754:2 787:3 888:2 1042:4 1066:2 1072:3 1216:2 1217:2 1219:1 1225:4 1227:3 1233:1 1243:3 1245:1 1249:2 1255:3 1276:6
1 502:1 1042:1 1225:1 1227:1 1276:4
1 1211:1 1273:1 1276:4
1 1042:1 1225:1 1276:3
1 187:1 502:3 650:1 688:1 754:2 787:3 888:2 1042:4 1066:2 1072:3 1216:2 1217:2 1219:1 1225:4 1227:3 1233:1 1243:3 1245:1 1249:2 1255:3 1276:6
1 187:1 502:1 688:1 754:1 764:1 806:1 1042:1 1072:1 1217:1 1219:1 1222:1 1225:1 1227:1 1233:1 1255:1 1263:1 1276:2
1 502:1 1042:1 1225:1 1227:1 1276:2
1 502:1 710:1 1042:1 1225:1 1227:1 1237:1 1276:2
1 1042:1 1225:1 1276:2
1 1211:1 1273:1 1276:5
1 754:1 1042:1 1072:1 1217:1 1225:1 1255:1 1276:2
1 502:1 754:1 787:1 1042:1 1217:1 1225:1 1227:1 1243:1 1276:1
1 502:2 754:1 888:1 1042:3 1216:1 1217:1 1225:3 1227:2 1276:7
1 502:1 754:1 1042:1 1072:1 1217:1 1225:1 1227:1 1255:1 1276:2
1 143:1 502:1 888:1 1042:1 1072:1 1216:1 1225:1 1227:1 1238:1 1255:1 1276:2
1 502:1 1042:1 1225:1 1227:1 1276:3
1 502:1 888:1 1042:1 1072:1 1216:1 1225:1 1227:1 1255:1 1276:2
1 187:1 502:3 650:1 688:1 754:2 787:3 888:2 1042:4 1066:2 1072:3 1216:2 1217:2 1219:1 1225:4 1227:3 1233:1 1243:3 1245:1 1249:2 1255:3 1276:6
1 502:1 710:1 1042:1 1072:1 1225:1 1227:1 1237:1 1255:1 1276:2
1 502:1 754:1 888:1 1042:1 1072:1 1216:1 1217:1 1225:1 1227:1 1255:1 1276:1
1 297:1 502:1 1042:1 1072:1 1225:1 1227:1 1244:1 1255:1 1276:2
1 1042:1 1225:1 1276:3
1 297:1 502:1 710:1 754:1 1042:1 1217:1 1225:1 1227:1 1237:1 1244:1 1276:2
1 1211:1 1273:1 1276:4
1 502:1 1042:3 1225:3 1227:1 1276:7
1 502:2 650:1 688:1 754:1 764:1 888:2 1042:4 1066:3 1072:2 1216:2 1217:1 1219:1 1222:1 1225:4 1227:2 1245:1 1249:3 1255:2 1276:6
1 502:2 754:1 888:1 1042:3 1216:1 1217:1 1225:3 1227:2 1276:7
1 1211:1 1273:1 1276:3
1 502:1 1042:1 1225:1 1227:1 1276:2
1 297:1 502:1 1042:1 1225:1 1227:1 1244:1 1276:3
1 502:1 1042:1 1072:1 1225:1 1227:1 1255:1 1276:2
1 502:1 806:1 1042:1 1225:1 1227:1 1263:1 1276:5
1 502:1 710:1 1042:1 1225:1 1227:1 1237:1 1276:2
1 888:1 1042:3 1072:1 1216:1 1225:3 1255:1 1276:8
1 502:1 710:1 754:1 1042:1 1217:1 1225:1 1227:1 1237:1 1276:2
1 1042:1 1072:1 1225:1 1255:1 1276:3
1 502:1 710:1 754:1 1042:1 1217:1 1225:1 1227:1 1237:1 1276:2
1 502:1 754:1 1042:1 1217:1 1225:1 1227:1 1276:2
1 888:1 1042:1 1066:1 1216:1 1225:1 1249:1 1276:5
1 754:1 1042:1 1217:1 1225:1 1276:3
1 187:1 502:3 650:1 688:1 754:2 787:3 888:2 1042:4 1066:2 1072:3 1216:2 1217:2 1219:1 1225:4 1227:3 1233:1 1243:3 1245:1 1249:2 1255:3 1276:6
1 297:1 502:1 754:1 1042:1 1217:1 1225:1 1227:1 1244:1 1276:2
1 461:1 502:1 688:1 764:1 1042:1 1066:1 1072:1 1219:1 1222:1 1225:1 1227:1 1249:1 1255:1 1260:1 1276:3 1278:3
1 1211:1 1273:1 1276:3
1 249:1 1042:1 1066:1 1225:1 1249:1 1270:1 1276:2
1 502:1 1042:1 1225:1 1227:1 1276:2
1 502:1 754:1 1042:1 1217:1 1225:1 1227:1 1276:1
1 461:1 502:1 688:1 764:1 1042:1 1066:1 1072:1 1219:1 1222:1 1225:1 1227:1 1249:1 1255:1 1260:1 1276:4 1278:3
1 1042:1 1225:1 1276:2
1 502:1 1042:1 1072:1 1225:1 1227:1 1255:1 1276:2
1 754:1 888:1 1042:1 1072:1 1216:1 1217:1 1225:1 1255:1 1276:1
1 502:1 1042:1 1225:1 1227:1 1276:3
1 502:1 1042:1 1225:1 1227:1 1276:3
1 806:1 1042:1 1225:1 1263:1 1276:6
1 502:1 754:1 1042:1 1217:1 1225:1 1227:1 1276:4
1 502:1 710:1 1042:1 1225:1 1227:1 1237:1 1276:2
1 502:1 754:1 1042:1 1072:1 1217:1 1225:1 1227:1 1255:1 1276:2
1 502:1 754:1 888:1 1042:2 1216:1 1217:1 1225:2 1227:1 1276:7
1 187:1 502:3 650:1 688:1 754:2 787:3 888:2 1042:4 1066:2 1072:3 1216:2 1217:2 1219:1 1225:4 1227:3 1233:1 1243:3 1245:1 1249:2 1255:3 1276:6
1 1211:1 1273:1 1276:4
1 502:1 597:1 688:1 754:1 787:1 820:1 1042:1 1072:1 1214:1 1217:1 1219:1 1225:1 1227:1 1243:1 1255:1 1269:1 1276:2
1 502:1 806:1 1042:2 1225:2 1227:1 1263:1 1276:18
1 502:1 1042:3 1225:3 1227:1 1276:8
1 754:1 1042:1 1217:1 1225:1 1276:1
1 806:1 1042:2 1066:1 1225:2 1249:1 1263:1 1276:19
1 502:1 1042:3 1225:3 1227:1 1276:8
1 502:1 1042:1 1072:1 1225:1 1227:1 1255:1 1276:2
1 502:1 1042:1 1225:1 1227:1 1276:3
1 187:1 502:1 688:1 754:1 764:1 806:1 1042:1 1072:1 1217:1 1219:1 1222:1 1225:1 1227:1 1233:1 1255:1 1263:1 1276:2
1 1211:1 1273:1 1276:4
1 754:1 888:1 1042:1 1216:1 1217:1 1225:1 1276:2
1 502:1 1042:1 1225:1 1227:1 1276:2
1 502:1 806:2 1042:1 1225:1 1227:1 1263:2 1276:7
1 502:2 754:1 888:1 1042:3 1216:1 1217:1 1225:3 1227:2 1276:7
1 502:1 1042:3 1225:3 1227:1 1276:8
1 1211:1 1273:1 1276:4
1 502:1 1042:1 1225:1 1227:1 1276:2
1 502:1 1042:1 1225:1 1227:1 1276:3
1 502:1 710:1 1042:1 1225:1 1227:1 1237:1 1276:2
1 502:1 710:1 754:1 1042:1 1217:1 1225:1 1227:1 1237:1 1276:2
1 187:1 502:1 688:1 754:1 764:1 806:1 1042:1 1072:1 1217:1 1219:1 1222:1 1225:1 1227:1 1233:1 1255:1 1263:1 1276:2
1 502:1 888:1 1042:1 1072:1 1216:1 1225:1 1227:1 1255:1 1276:2
1 502:1 1042:1 1225:1 1227:1 1276:2
1 502:1 1042:1 1225:1 1227:1 1276:3
1 502:1 888:1 1042:3 1216:1 1225:3 1227:1 1276:7
1 461:1 502:1 688:1 764:1 1042:1 1066:1 1072:1 1219:1 1222:1 1225:1 1227:1 1249:1 1255:1 1260:1 1276:4 1278:3
1 502:1 1042:1 1225:1 1227:1 1276:2
1 1042:1 1225:1 1276:3
1 502:1 541:1 597:1 650:1 688:1 754:1 756:1 764:1 787:1 845:1 888:1 980:1 981:1 1042:1 1066:1 1072:1 1165:1 1193:1 1216:1 1217:1 1218:1 1219:1 1222:1 1225:1 1226:1 1227:1 1234:1 1235:1 1240:1 1243:1 1245:1 1249:1 1255:1 1258:1 1268:1 1269:1 1276:3
1 1211:1 1273:1 1276:4
1 1211:1 1273:1 1276:4
1 754:1 888:1 1042:1 1216:1 1217:1 1225:1 1276:3
1 502:1 1042:1 1225:1 1227:1 1276:2
1 187:1 502:1 688:1 754:1 764:1 806:1 1042:1 1072:1 1217:1 1219:1 1222:1 1225:1 1227:1 1233:1 1255:1 1263:1 1276:2
1 502:1 1042:1 1225:1 1227:1 1276:2
1 710:1 754:1 1042:1 1072:1 1217:1 1225:1 1237:1 1255:1 1276:2
1 1042:1 1225:1 1276:2
1 187:1 502:1 688:1 754:1 764:1 806:1 1042:1 1072:1 1217:1 1219:1 1222:1 1225:1 1227:1 1233:1 1255:1 1263:1 1276:2
1 502:1 1042:1 1225:1 1227:1 1276:2
1 187:1 502:3 650:1 688:1 754:2 787:3 888:2 1042:4 1066:2 1072:3 1216:2 1217:2 1219:1 1225:4 1227:3 1233:1 1243:3 1245:1 1249:2 1255:3 1276:6
1 502:1 888:1 1042:3 1216:1 1225:3 1227:1 1276:7
1 461:1 502:1 688:1 764:1 1042:1 1066:1 1072:1 1219:1 1222:1 1225:1 1227:1 1249:1 1255:1 1260:1 1276:4 1278:3
1 187:1 502:1 688:1 754:1 764:1 806:1 1042:1 1072:1 1217:1 1219:1 1222:1 1225:1 1227:1 1233:1 1255:1 1263:1 1276:2
1 502:1 754:1 1042:1 1217:1 1225:1 1227:1 1276:2
1 502:1 1042:1 1225:1 1227:1 1276:3
1 187:1 502:1 688:1 754:1 764:1 806:1 1042:1 1072:1 1217:1 1219:1 1222:1 1225:1 1227:1 1233:1 1255:1 1263:1 1276:2
1 502:1 888:1 1042:1 1072:1 1216:1 1225:1 1227:1 1255:1 1276:2
1 502:1 1042:1 1225:1 1227:1 1276:2
1 1042:1 1225:1 1276:2
1 754:1 1042:1 1217:1 1225:1 1276:1
1 1211:1 1273:1 1276:4
1 1211:1 1273:1 1276:5
1 903:1 1042:1 1072:1 1223:1 1225:1 1255:1 1276:2
1 502:2 754:1 888:1 1042:3 1216:1 1217:1 1225:3 1227:2 1276:6
1 888:1 1042:1 1216:1 1225:1 1276:2
1 502:1 754:1 1042:1 1217:1 1225:1 1227:1 1276:2
1 502:1 787:1 1042:1 1225:1 1227:1 1243:1 1276:2
1 187:1 502:1 688:1 754:1 764:1 806:1 1042:1 1072:1 1217:1 1219:1 1222:1 1225:1 1227:1 1233:1 1255:1 1263:1 1276:2
1 502:1 787:1 888:1 1042:1 1216:1 1225:1 1227:1 1243:1 1276:2
1 297:1 502:1 1042:1 1225:1 1227:1 1244:1 1276:2
1 806:1 1042:1 1225:1 1263:1 1276:4
1 1042:1 1225:1 1276:3
1 1211:1 1273:1 1276:6
1 502:1 754:1 1042:1 1217:1 1225:1 1227:1 1276:4
1 187:1 502:3 650:1 688:1 754:2 787:3 888:2 1042:4 1066:2 1072:3 1216:2 1217:2 1219:1 1225:4 1227:3 1233:1 1243:3 1245:1 1249:2 1255:3 1276:6
1 502:1 1042:1 1225:1 1227:1 1276:2
1 502:1 1042:1 1225:1 1227:1 1276:3
1 502:1 754:1 1042:1 1072:1 1217:1 1225:1 1227:1 1255:1 1276:2
1 1211:1 1273:1 1276:4
1 502:1 710:1 1042:1 1072:1 1225:1 1227:1 1237:1 1255:1 1276:2
1 502:1 710:1 1042:1 1225:1 1227:1 1237:1 1276:2
1 888:1 1042:1 1072:1 1216:1 1225:1 1255:1 1276:1
1 502:1 754:1 910:1 915:1 1042:1 1217:1 1225:1 1227:1 1229:1 1232:1 1276:3 1278:3
1 1042:1 1225:1 1276:2
1 502:1 888:1 1042:1 1072:1 1216:1 1225:1 1227:1 1255:1 1276:2
1 1211:1 1273:1 1276:3
1 502:1 710:1 754:1 1042:1 1217:1 1225:1 1227:1 1237:1 1276:2
1 461:1 502:1 688:1 764:1 1042:1 1066:1 1072:1 1219:1 1222:1 1225:1 1227:1 1249:1 1255:1 1260:1 1276:4 1278:3
1 502:1 754:1 1042:1 1072:1 1217:1 1225:1 1227:1 1255:1 1276:2
1 502:1 754:1 888:1 1042:2 1216:1 1217:1 1225:2 1227:1 1276:7
1 502:1 1042:1 1225:1 1227:1 1276:3
1 502:1 1042:1 1225:1 1227:1 1276:3
1 754:1 1042:1 1217:1 1225:1 1276:2
1 1042:1 1072:1 1225:1 1255:1 1276:3
1 502:1 754:1 1042:1 1072:1 1217:1 1225:1 1227:1 1255:1 1276:2
1 502:1 754:1 1042:1 1072:1 1217:1 1225:1 1227:1 1255:1 1276:2
1 502:1 754:1 888:1 1042:1 1216:1 1217:1 1225:1 1227:1 1276:3
1 888:1 1042:1 1072:1 1216:1 1225:1 1255:1 1276:1
1 502:1 1042:1 1072:1 1225:1 1227:1 1255:1 1276:2
1 502:1 888:1 1042:3 1216:1 1225:3 1227:1 1276:8
1 502:1 1042:1 1225:1 1227:1 1276:2
1 502:1 888:1 1042:1 1072:1 1216:1 1225:1 1227:1 1255:1 1276:2
1 888:1 1042:2 1072:1 1216:1 1225:2 1255:1 1276:7
1 888:1 1042:1 1216:1 1225:1 1276:2
1 502:1 754:1 888:1 1042:2 1216:1 1217:1 1225:2 1227:1 1276:7
1 1211:1 1273:1 1276:4
1 502:1 1042:1 1225:1 1227:1 1276:3
1 502:1 1042:1 1225:1 1227:1 1276:3
1 502:1 688:1 754:1 787:1 888:1 1042:1 1072:1 1216:1 1217:1 1219:1 1225:1 1227:1 1243:1 1255:1 1276:3
1 187:1 502:1 688:1 754:1 764:1 806:1 1042:1 1072:1 1217:1 1219:1 1222:1 1225:1 1227:1 1233:1 1255:1 1263:1 1276:2
1 297:1 502:1 754:1 1042:1 1072:1 1217:1 1225:1 1227:1 1244:1 1255:1 1276:2
1 502:1 1042:1 1225:1 1227:1 1276:3
1 502:1 1042:2 1072:1 1225:2 1227:1 1255:1 1276:12
1 502:1 1042:1 1225:1 1227:1 1276:3
1 502:2 688:1 754:1 764:1 787:1 1042:4 1066:2 1072:2 1217:1 1219:1 1222:1 1225:4 1227:2 1243:1 1249:2 1255:2 1276:6
1 502:2 688:1 754:1 764:1 787:1 1042:4 1066:2 1072:2 1217:1 1219:1 1222:1 1225:4 1227:2 1243:1 1249:2 1255:2 1276:6
1 502:1 754:1 787:1 1042:1 1217:1 1225:1 1227:1 1243:1 1276:1
1 305:1 502:1 597:1 688:1 754:1 764:1 787:1 888:1 1042:1 1066:1 1072:1 1076:1 1216:1 1217:1 1219:1 1222:1 1225:1 1227:1 1243:1 1249:1 1251:1 1255:1 1264:1 1269:1 1276:3
1 502:1 1042:1 1225:1 1227:1 1276:3
1 1211:1 1273:1 1276:4
1 754:1 1042:1 1217:1 1225:1 1276:2
1 502:1 1042:1 1225:1 1227:1 1276:3
1 502:1 754:1 1042:1 1217:1 1225:1 1227:1 1276:2
1 502:1 710:1 1042:1 1225:1 1227:1 1237:1 1276:2
1 249:1 1042:1 1225:1 1270:1 1276:2
1 187:1 502:1 688:1 754:1 764:1 806:1 1042:1 1072:1 1217:1 1219:1 1222:1 1225:1 1227:1 1233:1 1255:1 1263:1 1276:2
1 502:1 1042:1 1225:1 1227:1 1276:3
1 1042:1 1225:1 1276:3
1 249:1 1042:1 1066:1 1225:1 1249:1 1270:1 1276:2
1 502:1 754:1 1042:1 1217:1 1225:1 1227:1 1276:2
1 143:1 502:2 888:1 1042:3 1216:1 1225:3 1227:2 1238:1 1276:7
1 143:1 502:3 1042:3 1072:1 1225:3 1227:3 1238:1 1255:1 1276:8
1 1042:1 1225:1 1276:2
1 502:1 1042:1 1225:1 1227:1 1276:3
1 502:1 754:1 888:1 1042:1 1216:1 1217:1 1225:1 1227:1 1276:4
1 502:2 688:1 754:1 764:1 888:1 1042:4 1066:3 1072:2 1216:1 1217:1 1219:1 1222:1 1225:4 1227:2 1249:3 1255:2 1276:6
1 502:1 1042:1 1072:1 1225:1 1227:1 1255:1 1276:2
1 187:1 502:3 650:1 688:1 754:2 787:3 888:2 1042:4 1066:2 1072:3 1216:2 1217:2 1219:1 1225:4 1227:3 1233:1 1243:3 1245:1 1249:2 1255:3 1276:6
1 502:1 1042:1 1225:1 1227:1 1276:3
1 502:1 1042:1 1072:1 1225:1 1227:1 1255:1 1276:2
1 754:1 1042:1 1072:1 1217:1 1225:1 1255:1 1276:1
1 1211:1 1273:1 1276:4
1 297:1 502:1 710:1 754:1 1042:1 1072:1 1217:1 1225:1 1227:1 1237:1 1244:1 1255:1 1276:2
1 888:1 1042:3 1072:1 1216:1 1225:3 1255:1 1276:8
1 502:1 1042:1 1225:1 1227:1 1276:2
1 1042:1 1225:1 1276:2
1 502:2 754:1 888:1 1042:3 1216:1 1217:1 1225:3 1227:2 1276:6
1 502:1 1042:1 1225:1 1227:1 1276:2
1 502:1 1042:1 1225:1 1227:1 1276:3
1 710:1 754:1 1042:1 1072:1 1217:1 1225:1 1237:1 1255:1 1276:2
1 1211:1 1273:1 1276:4
1 1211:1 1273:1 1276:4
1 502:1 1042:1 1225:1 1227:1 1276:3
1 297:1 502:1 710:1 754:1 787:1 1042:1 1072:1 1217:1 1225:1 1227:1 1237:1 1243:1 1244:1 1255:1 1276:2
1 502:1 754:1 888:1 1042:2 1216:1 1217:1 1225:2 1227:1 1276:7
1 502:1 754:1 1042:1 1217:1 1225:1 1227:1 1276:2
1 187:1 502:1 688:1 754:1 764:1 806:1 1042:1 1072:1 1217:1 1219:1 1222:1 1225:1 1227:1 1233:1 1255:1 1263:1 1276:2
1 502:1 1042:1 1072:1 1225:1 1227:1 1255:1 1276:2
1 502:1 1042:1 1225:1 1227:1 1276:3
1 297:1 502:1 710:1 754:1 1042:1 1217:1 1225:1 1227:1 1237:1 1244:1 1276:2
1 1211:1 1273:1 1276:5
1 502:1 1042:1 1225:1 1227:1 1276:2
1 502:1 1042:1 1225:1 1227:1 1276:2
1 502:1 1042:1 1225:1 1227:1 1276:2
1 297:1 502:1 754:1 1042:1 1217:1 1225:1 1227:1 1244:1 1276:2
1 502:1 1042:1 1072:1 1225:1 1227:1 1255:1 1276:1
1 502:2 754:1 888:1 1042:3 1216:1 1217:1 1225:3 1227:2 1276:7
1 1211:1 1273:1 1276:5
1 187:1 502:1 688:1 754:1 764:1 806:1 1042:1 1072:1 1217:1 1219:1 1222:1 1225:1 1227:1 1233:1 1255:1 1263:1 1276:4
1 502:1 710:1 1042:1 1072:1 1225:1 1227:1 1237:1 1255:1 1276:2
1 1042:1 1225:1 1276:1
1 502:1 710:1 1042:1 1225:1 1227:1 1237:1 1276:2
1 187:1 502:1 688:1 754:1 764:1 806:1 1042:1 1072:1 1217:1 1219:1 1222:1 1225:1 1227:1 1233:1 1255:1 1263:1 1276:2
1 297:1 502:1 754:1 1042:1 1217:1 1225:1 1227:1 1244:1 1276:3
1 297:1 502:1 710:1 754:1 1042:1 1072:1 1217:1 1225:1 1227:1 1237:1 1244:1 1255:1 1276:2
1 187:1 502:3 650:1 688:1 754:2 787:3 888:2 1042:4 1066:2 1072:3 1216:2 1217:2 1219:1 1225:4 1227:3 1233:1 1243:3 1245:1 1249:2 1255:3 1276:6
1 461:1 502:1 688:1 764:1 1042:1 1066:1 1072:1 1219:1 1222:1 1225:1 1227:1 1249:1 1255:1 1260:1 1276:4 1278:3
1 502:2 754:1 888:1 1042:3 1216:1 1217:1 1225:3 1227:2 1276:6
1 502:1 1042:1 1225:1 1227:1 1276:2
1 1211:1 1273:1 1276:4
1 1211:1 1273:1 1276:3
1 297:1 502:1 754:1 1042:1 1072:1 1217:1 1225:1 1227:1 1244:1 1255:1 1276:2
1 502:1 1042:1 1225:1 1227:1 1276:2
1 888:1 1042:3 1072:1 1216:1 1225:3 1255:1 1276:7
1 249:1 461:1 502:1 541:1 688:1 754:1 764:1 787:1 888:1 910:1 915:1 1042:1 1066:1 1072:1 1142:1 1193:1 1198:1 1216:1 1217:1 1219:1 1222:1 1225:1 1227:1 1229:1 1232:1 1243:1 1249:1 1255:1 1258:1 1260:1 1262:1 1265:1 1268:1 1270:1 1276:3 1278:1
1 187:1 502:3 650:1 688:1 754:2 787:3 888:2 1042:4 1066:2 1072:3 1216:2 1217:2 1219:1 1225:4 1227:3 1233:1 1243:3 1245:1 1249:2 1255:3 1276:6
1 502:1 1042:1 1225:1 1227:1 1276:3
1 502:1 1042:3 1072:1 1225:3 1227:1 1255:1 1276:6
1 1276:3
1 187:1 502:1 688:1 754:1 764:1 806:1 1042:1 1072:1 1217:1 1219:1 1222:1 1225:1 1227:1 1233:1 1255:1 1263:1 1276:2
1 502:1 1042:3 1225:3 1227:1 1276:7
1 1211:1 1273:1 1276:4
1 461:1 502:1 688:1 764:1 1042:1 1066:1 1072:1 1219:1 1222:1 1225:1 1227:1 1249:1 1255:1 1260:1 1276:4 1278:3
1 502:1 1042:3 1225:3 1227:1 1276:8
1 502:1 541:1 597:1 650:1 688:1 754:1 756:1 764:1 787:1 845:1 888:1 980:1 981:1 1042:1 1066:1 1072:1 1165:1 1193:1 1216:1 1217:1 1218:1 1219:1 1222:1 1225:1 1226:1 1227:1 1234:1 1235:1 1240:1 1243:1 1245:1 1249:1 1255:1 1258:1 1268:1 1269:1 1276:3
1 502:1 1042:1 1225:1 1227:1 1276:3
1 1042:1 1225:1 1276:2
1 502:1 1042:1 1072:1 1225:1 1227:1 1255:1 1276:2
1 502:1 754:1 1042:1 1217:1 1225:1 1227:1 1276:2
1 187:1 502:1 688:1 754:1 764:1 806:1 1042:1 1072:1 1217:1 1219:1 1222:1 1225:1 1227:1 1233:1 1255:1 1263:1 1276:2
1 187:1 502:1 688:1 754:1 764:1 806:1 1042:1 1072:1 1217:1 1219:1 1222:1 1225:1 1227:1 1233:1 1255:1 1263:1 1276:2
1 461:1 502:1 688:1 764:1 1042:1 1066:1 1072:1 1219:1 1222:1 1225:1 1227:1 1249:1 1255:1 1260:1 1276:4 1278:3
1 502:1 888:1 1042:3 1216:1 1225:3 1227:1 1276:8
1 502:1 1042:1 1225:1 1227:1 1276:2
1 297:1 710:1 754:1 1042:1 1217:1 1225:1 1237:1 1244:1 1276:1
1 710:1 1042:1 1072:1 1225:1 1237:1 1255:1 1276:2
1 502:1 754:1 888:1 1042:1 1072:1 1216:1 1217:1 1225:1 1227:1 1255:1 1276:2
1 502:1 1042:1 1225:1 1227:1 1276:4
1 187:1 502:3 650:1 688:1 754:2 787:3 888:2 1042:4 1066:2 1072:3 1216:2 1217:2 1219:1 1225:4 1227:3 1233:1 1243:3 1245:1 1249:2 1255:3 1276:6
1 754:1 1042:1 1217:1 1225:1 1276:2
1 1211:1 1273:1 1276:4
1 502:1 1042:1 1225:1 1227:1 1276:3
1 502:1 710:1 1042:1 1225:1 1227:1 1237:1 1276:2
1 297:1 888:1 1042:1 1072:1 1216:1 1225:1 1244:1 1255:1 1276:1
1 754:1 1042:1 1217:1 1225:1 1276:1
1 502:1 1042:1 1225:1 1227:1 1276:3
1 1211:1 1273:1 1276:4
1 297:1 888:1 1042:1 1072:1 1216:1 1225:1 1244:1 1255:1 1276:1
1 187:1 502:1 688:1 754:1 764:1 806:1 1042:1 1072:1 1217:1 1219:1 1222:1 1225:1 1227:1 1233:1 1255:1 1263:1 1276:2
1 502:1 1042:1 1225:1 1227:1 1276:2
1 502:1 754:1 888:1 1042:3 1216:1 1217:1 1225:3 1227:1 1276:8
1 502:1 1042:1 1225:1 1227:1 1276:3
1 502:1 710:1 1042:1 1225:1 1227:1 1237:1 1276:2
1 502:1 754:1 1042:1 1217:1 1225:1 1227:1 1276:3
1 502:1 754:2 787:1 888:1 1042:1 1066:1 1216:1 1217:2 1224:1 1225:1 1227:1 1243:1 1249:1 1276:3
1 754:1 1042:1 1072:1 1217:1 1225:1 1255:1 1276:2
1 888:1 1042:3 1072:1 1216:1 1225:3 1255:1 1276:7
1 502:1 1042:1 1225:1 1227:1 1276:4
1 502:1 710:1 1042:1 1225:1 1227:1 1237:1 1276:2
1 502:1 1042:1 1225:1 1227:1 1276:4
1 187:1 502:1 688:1 754:1 764:1 806:1 1042:1 1072:1 1217:1 1219:1 1222:1 1225:1 1227:1 1233:1 1255:1 1263:1 1276:2
1 502:1 754:1 888:1 1042:1 1066:1 1216:1 1217:1 1225:1 1227:1 1249:1 1276:2
1 502:1 1042:1 1225:1 1227:1 1276:2
1 754:1 888:1 1042:1 1216:1 1217:1 1225:1 1276:2
1 502:1 1042:1 1225:1 1227:1 1276:3
1 502:1 1042:1 1225:1 1227:1 1276:3
1 1042:1 1225:1 1276:2
1 187:1 502:1 688:1 754:1 764:1 806:1 1042:1 1072:1 1217:1 1219:1 1222:1 1225:1 1227:1 1233:1 1255:1 1263:1 1276:2
1 502:1 1042:1 1225:1 1227:1 1276:1
1 502:1 888:1 1042:3 1216:1 1225:3 1227:1 1276:8
1 502:1 710:1 1042:1 1072:1 1225:1 1227:1 1237:1 1255:1 1276:2
1 297:1 502:1 754:1 1042:1 1072:1 1217:1 1225:1 1227:1 1244:1 1255:1 1276:2
1 502:1 710:1 754:1 1042:1 1217:1 1225:1 1227:1 1237:1 1276:2
1 187:1 502:1 688:1 754:1 764:1 806:1 1042:1 1072:1 1217:1 1219:1 1222:1 1225:1 1227:1 1233:1 1255:1 1263:1 1276:2
1 1042:1 1225:1 1276:2
1 888:1 1042:1 1072:1 1216:1 1225:1 1255:1 1276:6
1 502:2 688:1 754:1 764:1 1042:4 1066:2 1072:2 1217:1 1219:1 1222:1 1225:4 1227:2 1249:2 1255:2 1276:6
1 710:1 754:1 1042:1 1217:1 1225:1 1237:1 1276:2
1 754:1 1042:1 1072:1 1217:1 1225:1 1255:1 1276:1
1 502:1 754:1 1042:1 1217:1 1225:1 1227:1 1276:1
1 187:1 502:3 650:1 688:1 754:2 787:3 888:2 1042:4 1066:2 1072:3 1216:2 1217:2 1219:1 1225:4 1227:3 1233:1 1243:3 1245:1 1249:2 1255:3 1276:6
1 1042:1 1225:1 1276:4
1 502:1 1042:1 1225:1 1227:1 1276:3
1 187:1 502:1 688:1 754:1 764:1 806:1 1042:1 1072:1 1217:1 1219:1 1222:1 1225:1 1227:1 1233:1 1255:1 1263:1 1276:2
1 1042:1 1225:1 1276:5
1 806:1 1042:1 1225:1 1263:1 1276:5
1 754:1 1042:1 1217:1 1225:1 1276:2
1 502:1 888:1 1042:1 1072:1 1216:1 1225:1 1227:1 1255:1 1276:2
1 502:1 754:1 888:1 1042:1 1072:1 1216:1 1217:1 1225:1 1227:1 1255:1 1276:3
1 187:1 502:1 688:1 754:1 764:1 806:1 1042:1 1072:1 1217:1 1219:1 1222:1 1225:1 1227:1 1233:1 1255:1 1263:1 1276:2
1 1042:1 1225:1 1276:2
1 502:1 754:1 1042:1 1072:1 1217:1 1225:1 1227:1 1255:1 1276:3
1 502:1 1042:1 1225:1 1227:1 1276:2
1 502:1 754:1 1042:1 1072:1 1217:1 1225:1 1227:1 1255:1 1276:3
1 754:1 1042:1 1217:1 1225:1 1276:1
1 461:1 502:1 688:1 764:1 1042:1 1066:1 1072:1 1219:1 1222:1 1225:1 1227:1 1249:1 1255:1 1260:1 1276:4 1278:3
1 502:1 688:1 754:1 787:1 888:1 1042:1 1072:1 1216:1 1217:1 1219:1 1225:1 1227:1 1243:1 1255:1 1276:3
1 1211:1 1273:1 1276:3
1 502:1 1042:1 1225:1 1227:1 1276:3
1 187:1 502:1 688:1 754:1 764:1 806:1 1042:1 1072:1 1217:1 1219:1 1222:1 1225:1 1227:1 1233:1 1255:1 1263:1 1276:2
1 502:1 1042:1 1225:1 1227:1 1276:3
1 502:1 1042:1 1225:1 1227:1 1276:4
1 888:1 1042:1 1066:1 1216:1 1225:1 1249:1 1276:2
1 888:1 1042:1 1216:1 1225:1 1276:4
1 187:1 502:3 650:1 688:1 754:2 787:3 888:2 1042:4 1066:2 1072:3 1216:2 1217:2 1219:1 1225:4 1227:3 1233:1 1243:3 1245:1 1249:2 1255:3 1276:6
1 502:1 1042:1 1225:1 1227:1 1276:3
1 502:1 710:1 1042:1 1072:1 1225:1 1227:1 1237:1 1255:1 1276:2
1 1042:1 1225:1 1276:3
1 502:1 754:1 1042:1 1217:1 1225:1 1227:1 1276:2
1 1211:1 1273:1 1276:3
1 806:1 1042:1 1225:1 1263:1 1276:5
1 502:1 888:1 1042:1 1072:1 1216:1 1225:1 1227:1 1255:1 1276:2
1 888:1 1042:1 1072:1 1216:1 1225:1 1255:1 1276:3
1 187:1 502:3 650:1 688:1 754:2 787:3 888:2 1042:4 1066:2 1072:3 1216:2 1217:2 1219:1 1225:4 1227:3 1233:1 1243:3 1245:1 1249:2 1255:3 1276:6
1 502:1 1042:1 1225:1 1227:1 1276:2
1 187:1 502:1 688:1 754:1 764:1 806:1 1042:1 1072:1 1217:1 1219:1 1222:1 1225:1 1227:1 1233:1 1255:1 1263:1 1276:2
1 754:1 1042:1 1217:1 1225:1 1276:1
1 502:1 710:1 1042:1 1225:1 1227:1 1237:1 1276:2
1 1211:1 1273:1 1276:3
1 1211:1 1273:1 1276:3
1 754:1 1042:1 1217:1 1225:1 1276:1
1 1042:1 1225:1 1276:2
1 502:1 597:1 1042:3 1225:3 1227:1 1269:1 1276:7
1 502:1 1042:1 1225:1 1227:1 1276:2
1 754:1 1042:1 1072:1 1217:1 1225:1 1255:1 1276:2
1 502:1 1042:1 1225:1 1227:1 1276:3
1 502:1 754:1 888:1 1042:1 1216:1 1217:1 1225:1 1227:1 1276:2
1 502:2 688:1 754:1 764:1 1042:4 1066:2 1072:2 1217:1 1219:1 1222:1 1225:4 1227:2 1249:2 1255:2 1276:7
1 502:1 1042:1 1225:1 1227:1 1276:2
1 1042:1 1225:1 1276:2
1 1211:1 1273:1 1276:5
1 502:1 1042:1 1225:1 1227:1 1276:2
1 502:1 1042:1 1225:1 1227:1 1276:3
1 754:1 1042:1 1217:1 1225:1 1276:1
1 502:1 1042:1 1072:1 1225:1 1227:1 1255:1 1276:2
1 1042:1 1225:1 1276:2
1 888:1 1042:1 1072:1 1216:1 1225:1 1255:1 1276:4
1 1042:1 1225:1 1276:2
1 754:1 1042:1 1217:1 1225:1 1276:2
1 502:1 754:1 888:1 1042:1 1072:1 1216:1 1217:1 1225:1 1227:1 1255:1 1276:2
1 502:1 754:1 1042:1 1072:1 1217:1 1225:1 1227:1 1255:1 1276:1
1 710:1 754:1 1042:1 1217:1 1225:1 1237:1 1276:2
1 502:2 754:1 888:1 1042:3 1216:1 1217:1 1225:3 1227:2 1276:8
1 502:1 754:1 1042:1 1217:1 1225:1 1227:1 1276:1
1 502:1 754:1 888:1 1042:1 1072:1 1216:1 1217:1 1225:1 1227:1 1255:1 1276:1
1 297:1 502:1 710:1 754:1 1042:1 1217:1 1225:1 1227:1 1237:1 1244:1 1276:2
1 502:1 1042:3 1225:3 1227:1 1276:8
1 502:2 754:1 888:1 1042:3 1216:1 1217:1 1225:3 1227:2 1276:6
1 754:1 787:1 1042:1 1217:1 1225:1 1243:1 1276:1
1 502:1 1042:1 1225:1 1227:1 1276:3
1 502:1 1042:1 1225:1 1227:1 1276:3
1 502:1 1042:1 1225:1 1227:1 1276:3
1 502:1 1042:3 1072:1 1225:3 1227:1 1255:1 1276:5
1 502:1 710:1 1042:1 1225:1 1227:1 1237:1 1276:2
1 1042:1 1225:1 1276:1
1 297:1 754:1 888:1 1042:1 1216:1 1217:1 1225:1 1244:1 1276:1
1 502:1 1042:1 1225:1 1227:1 1276:3
1 754:1 1042:1 1217:1 1225:1 1276:2
1 502:1 1042:3 1225:3 1227:1 1276:7
1 502:1 1042:3 1225:3 1227:1 1276:7
1 502:2 754:1 888:1 1042:3 1216:1 1217:1 1225:3 1227:2 1276:8
1 710:1 1042:1 1072:1 1225:1 1237:1 1255:1 1276:1
1 502:1 754:1 1042:1 1072:1 1217:1 1225:1 1227:1 1255:1 1276:2
1 502:2 754:1 888:1 1042:3 1216:1 1217:1 1225:3 1227:2 1276:5
1 187:1 502:3 650:1 688:1 754:2 787:3 888:2 1042:4 1066:2 1072:3 1216:2 1217:2 1219:1 1225:4 1227:3 1233:1 1243:3 1245:1 1249:2 1255:3 1276:6
1 502:1 1042:1 1225:1 1227:1 1276:3
1 1042:1 1225:1 1276:2
1 502:1 1042:1 1225:1 1227:1 1276:1
1 502:1 1042:1 1225:1 1227:1 1276:3
1 888:1 1042:1 1072:1 1216:1 1225:1 1255:1 1276:3
1 502:2 688:1 754:1 764:1 1042:4 1066:2 1072:2 1217:1 1219:1 1222:1 1225:4 1227:2 1249:2 1255:2 1276:6
1 502:1 688:1 754:1 787:1 888:1 1042:1 1072:1 1216:1 1217:1 1219:1 1225:1 1227:1 1243:1 1255:1 1276:4
1 502:1 1042:1 1072:1 1225:1 1227:1 1255:1 1276:2
1 502:1 754:1 1042:1 1217:1 1225:1 1227:1 1276:1
1 187:1 502:3 650:1 688:1 754:2 787:3 888:2 1042:4 1066:2 1072:3 1216:2 1217:2 1219:1 1225:4 1227:3 1233:1 1243:3 1245:1 1249:2 1255:3 1276:6
1 1042:1 1072:1 1225:1 1255:1 1276:3
1 888:1 1042:1 1072:1 1216:1 1225:1 1255:1 1276:3
1 297:1 502:1 754:1 1042:1 1217:1 1225:1 1227:1 1244:1 1276:2
1 1211:1 1273:1 1276:4
1 1042:1 1225:1 1276:3
1 1042:1 1072:1 1225:1 1255:1 1276:2
1 888:1 1042:1 1072:1 1216:1 1225:1 1255:1 1276:1
1 502:1 754:1 1042:1 1217:1 1225:1 1227:1 1276:2
1 502:1 710:1 1042:1 1225:1 1227:1 1237:1 1276:2
1 1211:1 1273:1 1276:4
1 502:2 688:1 754:1 764:1 1042:4 1066:2 1072:2 1217:1 1219:1 1222:1 1225:4 1227:2 1249:2 1255:2 1276:6
1 502:1 688:1 754:1 787:1 888:1 1042:1 1072:1 1216:1 1217:1 1219:1 1225:1 1227:1 1243:1 1255:1 1276:3
1 502:1 1042:1 1072:1 1225:1 1227:1 1255:1 1276:2
1 888:1 1042:1 1072:1 1216:1 1225:1 1255:1 1276:1
1 502:1 1042:1 1072:1 1225:1 1227:1 1255:1 1276:1
1 502:2 754:1 888:1 1042:3 1216:1 1217:1 1225:3 1227:2 1276:7
1 502:1 888:1 1042:3 1216:1 1225:3 1227:1 1276:9
1 502:1 1042:1 1225:1 1227:1 1276:3
1 297:1 502:1 710:1 754:1 1042:1 1217:1 1225:1 1227:1 1237:1 1244:1 1276:2
1 187:1 502:1 688:1 754:1 764:1 806:1 1042:1 1072:1 1217:1 1219:1 1222:1 1225:1 1227:1 1233:1 1255:1 1263:1 1276:2
1 502:2 754:1 888:1 1042:3 1216:1 1217:1 1225:3 1227:2 1276:9
1 187:1 502:1 688:1 754:1 764:1 806:1 1042:1 1072:1 1217:1 1219:1 1222:1 1225:1 1227:1 1233:1 1255:1 1263:1 1276:2
1 502:1 1042:1 1225:1 1227:1 1276:3
1 502:1 754:1 1042:1 1072:1 1217:1 1225:1 1227:1 1255:1 1276:2
1 502:1 1042:1 1072:1 1225:1 1227:1 1255:1 1276:2
1 187:1 502:1 688:1 754:1 764:1 806:1 1042:1 1072:1 1217:1 1219:1 1222:1 1225:1 1227:1 1233:1 1255:1 1263:1 1276:2
1 502:2 688:1 754:1 764:1 787:1 888:1 1042:4 1066:3 1072:2 1216:1 1217:1 1219:1 1222:1 1225:4 1227:2 1243:1 1249:3 1255:2 1276:6
1 502:1 1042:1 1225:1 1227:1 1276:2
1 297:1 502:1 1042:1 1072:1 1225:1 1227:1 1244:1 1255:1 1276:2
1 502:1 1042:1 1225:1 1227:1 1276:3
1 502:1 1042:1 1225:1 1227:1 1276:3
1 461:1 502:1 688:1 764:1 1042:1 1066:1 1072:1 1219:1 1222:1 1225:1 1227:1 1249:1 1255:1 1260:1 1276:4 1278:3
1 502:2 688:1 754:1 764:1 888:2 1042:4 1066:3 1072:2 1216:2 1217:1 1219:1 1222:1 1225:4 1227:2 1249:3 1255:2 1276:6
1 888:1 1042:1 1216:1 1225:1 1276:2
1 502:1 1042:1 1225:1 1227:1 1276:3
1 187:1 502:3 650:1 688:1 754:2 787:3 888:2 1042:4 1066:2 1072:3 1216:2 1217:2 1219:1 1225:4 1227:3 1233:1 1243:3 1245:1 1249:2 1255:3 1276:6
1 502:1 1042:1 1225:1 1227:1 1276:2
1 754:1 1042:1 1072:1 1217:1 1225:1 1255:1 1276:1
1 754:1 1042:1 1072:1 1217:1 1225:1 1255:1 1276:2
1 502:2 688:1 754:1 764:1 787:1 888:1 1042:4 1066:3 1072:2 1216:1 1217:1 1219:1 1222:1 1225:4 1227:2 1243:1 1249:3 1255:2 1276:6
1 502:1 597:1 754:1 1042:1 1217:1 1225:1 1227:1 1269:1 1276:2
1 297:1 502:1 710:1 754:1 1042:1 1217:1 1225:1 1227:1 1237:1 1244:1 1276:2
1 502:1 1042:1 1072:1 1225:1 1227:1 1255:1 1276:2
1 1211:1 1273:1 1276:3
1 502:1 888:1 1042:3 1216:1 1225:3 1227:1 1276:7
1 1211:1 1273:1 1276:4
1 502:2 754:1 888:1 1042:3 1216:1 1217:1 1225:3 1227:2 1276:8
1 461:1 502:1 688:1 764:1 1042:1 1066:1 1072:1 1219:1 1222:1 1225:1 1227:1 1249:1 1255:1 1260:1 1276:4 1278:3
1 502:1 710:1 754:1 1042:1 1217:1 1225:1 1227:1 1237:1 1276:1
1 502:1 688:1 754:1 764:1 787:1 888:1 1042:1 1072:1 1216:1 1217:1 1219:1 1222:1 1225:1 1227:1 1243:1 1255:1 1276:3
1 502:2 754:1 888:1 1042:3 1216:1 1217:1 1225:3 1227:2 1276:7
1 502:1 1042:1 1225:1 1227:1 1276:2
1 710:1 754:1 1042:1 1072:1 1217:1 1225:1 1237:1 1255:1 1276:2
1 502:1 710:1 754:1 1042:1 1217:1 1225:1 1227:1 1237:1 1276:2
1 1042:1 1225:1 1276:2
1 502:1 1042:1 1072:1 1225:1 1227:1 1255:1 1276:2
1 502:1 1042:1 1225:1 1227:1 1276:2
1 502:1 1042:1 1072:1 1225:1 1227:1 1255:1 1276:2
1 502:1 1042:1 1225:1 1227:1 1276:2
1 754:1 1042:1 1072:1 1217:1 1225:1 1255:1 1276:2
1 502:1 710:1 1042:1 1072:1 1225:1 1227:1 1237:1 1255:1 1276:1
1 1211:1 1273:1 1276:4
1 502:1 754:1 1042:1 1217:1 1225:1 1227:1 1276:2
1 1042:1 1072:1 1225:1 1255:1 1276:3 1278:1
1 187:1 502:1 688:1 754:1 764:1 806:1 1042:1 1072:1 1217:1 1219:1 1222:1 1225:1 1227:1 1233:1 1255:1 1263:1 1276:2
1 502:1 888:1 1042:3 1216:1 1225:3 1227:1 1276:7
1 502:1 787:1 888:1 1042:3 1216:1 1225:3 1227:1 1243:1 1276:7
1 502:1 888:1 1042:3 1216:1 1225:3 1227:1 1276:8
1 710:1 1042:1 1225:1 1237:1 1276:2
1 297:1 710:1 754:1 1042:1 1217:1 1225:1 1237:1 1244:1 1276:2
1 187:1 502:3 650:1 688:1 754:2 787:3 888:2 1042:4 1066:2 1072:3 1216:2 1217:2 1219:1 1225:4 1227:3 1233:1 1243:3 1245:1 1249:2 1255:3 1276:6
1 502:1 754:1 764:1 787:1 888:1 1042:1 1066:1 1072:1 1216:1 1217:1 1222:1 1225:1 1227:1 1243:1 1249:1 1255:1 1276:8
1 1042:1 1072:1 1225:1 1255:1 1276:3
1 888:1 1042:1 1072:1 1216:1 1225:1 1255:1 1276:3
1 187:1 502:1 688:1 754:1 764:1 806:1 1042:1 1072:1 1217:1 1219:1 1222:1 1225:1 1227:1 1233:1 1255:1 1263:1 1276:2
1 502:1 1042:1 1054:1 1225:1 1227:1 1231:1 1276:3
1 502:1 1042:1 1225:1 1227:1 1276:3
1 297:1 888:1 1042:1 1072:1 1216:1 1225:1 1244:1 1255:1 1276:1
1 502:1 754:1 1042:1 1072:1 1217:1 1225:1 1227:1 1255:1 1276:3
1 502:2 688:1 754:1 764:1 787:1 1042:4 1066:2 1072:2 1217:1 1219:1 1222:1 1225:4 1227:2 1243:1 1249:2 1255:2 1276:6
1 502:1 1042:1 1225:1 1227:1 1276:3
1 754:1 1042:1 1072:1 1217:1 1225:1 1255:1 1276:4
1 502:1 1042:1 1225:1 1227:1 1276:2
1 502:2 754:1 888:1 1042:3 1216:1 1217:1 1225:3 1227:2 1276:7
1 297:1 502:1 710:1 754:1 1042:1 1072:1 1217:1 1225:1 1227:1 1237:1 1244:1 1255:1 1276:2
1 502:1 1042:1 1225:1 1227:1 1276:3
1 754:1 1042:1 1072:1 1217:1 1225:1 1255:1 1276:1
1 502:2 754:1 888:1 1042:3 1216:1 1217:1 1225:3 1227:2 1276:8
1 806:1 1042:1 1225:1 1263:1 1276:4
1 502:1 806:1 1042:1 1225:1 1227:1 1263:1 1276:5
1 502:1 754:1 1042:1 1072:1 1217:1 1225:1 1227:1 1255:1 1276:1
1 502:1 1042:1 1072:1 1225:1 1227:1 1255:1 1276:2
1 1276:2
1 297:1 502:1 754:1 1042:1 1217:1 1225:1 1227:1 1244:1 1276:2
1 297:1 502:1 754:1 1042:1 1217:1 1225:1 1227:1 1244:1 1276:2
1 187:1 502:1 688:1 754:1 764:1 806:1 1042:1 1072:1 1217:1 1219:1 1222:1 1225:1 1227:1 1233:1 1255:1 1263:1 1276:2
1 502:1 754:1 1042:1 1072:1 1217:1 1225:1 1227:1 1255:1 1276:3
1
1 187:1 502:1 688:1 754:1 764:1 806:1 1042:1 1072:1 1217:1 1219:1 1222:1 1225:1 1227:1 1233:1 1255:1 1263:1 1276:2
1 502:1 1042:1 1225:1 1227:1 1276:3
1 502:1 1042:1 1072:1 1225:1 1227:1 1255:1 1276:1
1 1042:1 1225:1 1276:2
1 502:1 1042:1 1225:1 1227:1 1276:3
1 502:1 1042:3 1225:3 1227:1 1276:8
1 806:1 1042:1 1225:1 1263:1 1276:5 1278:315
1 502:2 688:1 754:1 764:1 787:1 888:2 1042:4 1066:3 1072:2 1216:2 1217:1 1219:1 1222:1 1225:4 1227:2 1243:1 1249:3 1255:2 1276:6
1 502:1 1042:1 1225:1 1227:1 1276:4
1 502:1 1042:1 1225:1 1227:1 1276:3
1 502:1 710:1 1042:1 1225:1 1227:1 1237:1 1276:2
1 502:1 1042:1 1225:1 1227:1 1276:4
1 710:1 754:1 1042:1 1217:1 1225:1 1237:1 1276:2
1 502:1 1042:1 1225:1 1227:1 1276:3
1 502:1 710:1 1042:1 1225:1 1227:1 1237:1 1276:2
1 1042:1 1225:1 1276:4
1 888:1 1042:1 1072:1 1216:1 1225:1 1255:1 1276:3
1 1042:1 1220:1 1225:1 1276:3
1 1211:1 1273:1 1276:3
1 187:1 502:1 688:1 754:1 764:1 806:1 1042:1 1072:1 1217:1 1219:1 1222:1 1225:1 1227:1 1233:1 1255:1 1263:1 1276:2
1 187:1 502:3 650:1 688:1 754:2 787:3 888:2 1042:4 1066:2 1072:3 1216:2 1217:2 1219:1 1225:4 1227:3 1233:1 1243:3 1245:1 1249:2 1255:3 1276:6
1 502:1 1042:1 1225:1 1227:1 1276:3
1 888:1 1042:1 1216:1 1225:1 1276:4
1 187:1 502:3 650:1 688:1 754:2 787:3 888:2 1042:4 1066:2 1072:3 1216:2 1217:2 1219:1 1225:4 1227:3 1233:1 1243:3 1245:1 1249:2 1255:3 1276:6
1 502:2 688:1 754:1 764:1 787:1 888:1 1042:4 1066:3 1072:2 1216:1 1217:1 1219:1 1222:1 1225:4 1227:2 1243:1 1249:3 1255:2 1276:6
1 502:1 787:1 888:1 1042:3 1216:1 1225:3 1227:1 1243:1 1276:6
1 502:1 710:1 1042:1 1072:1 1225:1 1227:1 1237:1 1255:1 1276:1
1 502:1 1042:1 1225:1 1227:1 1276:4
1 502:1 1042:3 1225:3 1227:1 1276:8
1 502:2 787:1 888:1 1042:2 1072:1 1216:1 1225:2 1227:2 1243:1 1255:1 1276:6
1 297:1 710:1 754:1 888:1 1042:1 1072:1 1216:1 1217:1 1225:1 1237:1 1244:1 1255:1 1276:1
1 502:1 754:1 1042:1 1217:1 1225:1 1227:1 1276:2
1 502:2 688:1 754:1 764:1 1042:4 1066:2 1072:2 1217:1 1219:1 1222:1 1225:4 1227:2 1249:2 1255:2 1276:6
1 502:1 710:1 1042:1 1072:1 1225:1 1227:1 1237:1 1255:1 1276:2
1 1042:1 1225:1 1276:3
1 502:1 754:1 1042:1 1072:1 1217:1 1225:1 1227:1 1255:1 1276:2
1 502:1 1042:1 1225:1 1227:1 1276:3
1 502:1 888:1 1042:3 1216:1 1225:3 1227:1 1276:6
1 754:1 1042:1 1217:1 1225:1 1276:2
1 888:1 1042:1 1072:1 1216:1 1225:1 1255:1 1276:3
1 187:1 502:3 650:1 688:1 754:2 787:3 888:2 1042:4 1066:2 1072:3 1216:2 1217:2 1219:1 1225:4 1227:3 1233:1 1243:3 1245:1 1249:2 1255:3 1276:6
1 502:1 1042:1 1225:1 1227:1 1276:3
1 502:2 754:1 888:1 1042:3 1216:1 1217:1 1225:3 1227:2 1276:8
1 502:1 1042:1 1225:1 1227:1 1276:2
1 502:2 650:1 688:1 754:1 764:1 888:2 1042:4 1066:3 1072:2 1216:2 1217:1 1219:1 1222:1 1225:4 1227:2 1245:1 1249:3 1255:2 1276:6
1 1211:1 1273:1 1276:4
1 150:1 161:1 360:1 545:1 668:1 886:1 888:1 923:1 940:1 1042:1 1072:1 1215:1 1216:1 1225:1 1228:1 1242:1 1246:1 1253:1 1255:1 1259:1 1261:1 1275:1 1276:4
1 502:1 1042:1 1225:1 1227:1 1276:3
1 502:1 888:1 1042:3 1216:1 1225:3 1227:1 1276:7
1 502:1 1042:1 1225:1 1227:1 1276:3
1 502:1 754:1 1042:1 1217:1 1225:1 1227:1 1276:3
1 1042:1 1225:1 1276:2
1 187:1 502:1 688:1 754:1 764:1 806:1 1042:1 1072:1 1217:1 1219:1 1222:1 1225:1 1227:1 1233:1 1255:1 1263:1 1276:2
1 502:2 688:1 754:1 764:1 787:1 888:2 1042:4 1066:3 1072:2 1216:2 1217:1 1219:1 1222:1 1225:4 1227:2 1243:1 1249:3 1255:2 1276:6
1 297:1 502:1 688:1 754:1 764:1 888:1 1042:1 1066:1 1072:1 1216:1 1217:1 1219:1 1222:1 1225:1 1227:1 1244:1 1249:1 1255:1 1276:4
1 502:2 754:1 888:1 1042:3 1216:1 1217:1 1225:3 1227:2 1276:9
1 1211:1 1273:1 1276:5
1 888:1 1042:1 1072:1 1216:1 1225:1 1255:1 1276:1
1 461:1 502:1 688:1 764:1 1042:1 1066:1 1072:1 1219:1 1222:1 1225:1 1227:1 1249:1 1255:1 1260:1 1276:4 1278:3
1 502:1 754:1 888:1 1042:1 1072:1 1216:1 1217:1 1225:1 1227:1 1255:1 1276:1
1 502:1 1042:1 1225:1 1227:1 1276:3
1 806:1 1042:1 1225:1 1263:1 1276:4
1 1042:1 1072:1 1225:1 1255:1 1276:2
1 1211:1 1273:1 1276:6
1 710:1 754:1 1042:1 1217:1 1225:1 1237:1 1276:2
1 502:1 1042:1 1225:1 1227:1 1276:2
1 502:1 710:1 1042:1 1072:1 1225:1 1227:1 1237:1 1255:1 1276:2
1 502:1 1042:1 1225:1 1227:1 1276:3
1 1211:1 1273:1 1276:4
1 187:1 502:1 688:1 754:1 764:1 806:1 1042:1 1072:1 1217:1 1219:1 1222:1 1225:1 1227:1 1233:1 1255:1 1263:1 1276:2
1 502:1 710:1 754:1 1042:1 1217:1 1225:1 1227:1 1237:1 1276:2
1 888:1 1042:1 1216:1 1225:1 1276:4
1 1211:1 1273:1 1276:5
1 1042:1 1225:1 1276:3
1 1211:1 1273:1 1276:4
1 502:1 710:1 754:1 1042:1 1072:1 1217:1 1225:1 1227:1 1237:1 1255:1 1276:2
1 502:1 754:1 1042:1 1217:1 1225:1 1227:1 1276:2
1 502:1 710:1 1042:1 1072:1 1225:1 1227:1 1237:1 1255:1 1276:2
1 461:1 502:1 688:1 764:1 1042:1 1066:1 1072:1 1219:1 1222:1 1225:1 1227:1 1249:1 1255:1 1260:1 1276:3 1278:3
1 187:1 502:3 650:1 688:1 754:2 787:3 888:2 1042:4 1066:2 1072:3 1216:2 1217:2 1219:1 1225:4 1227:3 1233:1 1243:3 1245:1 1249:2 1255:3 1276:6
1 502:1 710:1 1042:1 1072:1 1225:1 1227:1 1237:1 1255:1 1276:2
1 1211:1 1273:1 1276:4
1 710:1 787:1 910:1 915:1 1042:1 1072:1 1225:1 1229:1 1232:1 1237:1 1243:1 1255:1 1276:2
1 502:1 1042:1 1225:1 1227:1 1276:3
1 888:1 1042:1 1072:1 1216:1 1225:1 1255:1 1276:1
1 888:1 1042:1 1216:1 1225:1 1276:4
1 1042:1 1225:1 1276:2
1 502:1 1042:1 1225:1 1227:1 1276:3
1 502:2 754:1 888:1 1042:3 1216:1 1217:1 1225:3 1227:2 1276:7
1 187:1 502:1 688:1 754:1 764:1 806:1 1042:1 1072:1 1217:1 1219:1 1222:1 1225:1 1227:1 1233:1 1255:1 1263:1 1276:2
1 502:1 1042:1 1225:1 1227:1 1276:4
1 502:1 1042:1 1225:1 1227:1 1276:2
1 502:2 688:1 754:1 764:1 787:1 888:2 1042:4 1066:3 1072:2 1216:2 1217:1 1219:1 1222:1 1225:4 1227:2 1243:1 1249:3 1255:2 1276:6
1 502:1 1042:3 1225:3 1227:1 1276:8
1 249:1 1042:1 1225:1 1270:1 1276:2
1 502:1 754:1 1042:1 1072:1 1217:1 1225:1 1227:1 1255:1 1276:2
1 502:1 1042:1 1225:1 1227:1 1276:3
1 502:1 1042:1 1225:1 1227:1 1276:2
1 502:1 754:1 888:1 1042:3 1216:1 1217:1 1225:3 1227:1 1276:6
1 161:1 360:1 545:1 814:1 863:1 886:1 923:1 988:1 1042:1 1086:1 1215:1 1225:1 1228:1 1242:1 1248:1 1253:1 1257:1 1271:1 1272:1 1275:1 1276:2
1 502:1 688:1 754:1 787:1 888:1 1042:1 1072:1 1216:1 1217:1 1219:1 1225:1 1227:1 1243:1 1255:1 1276:3
1 1211:1 1273:1 1276:4
1 502:1 710:1 1042:1 1072:1 1225:1 1227:1 1237:1 1255:1 1276:2
1 502:1 1042:1 1225:1 1227:1 1276:3
1 502:1 1042:1 1225:1 1227:1 1276:3
1 502:1 710:1 1042:1 1225:1 1227:1 1237:1 1276:2
1 187:1 502:1 688:1 754:1 764:1 806:1 1042:1 1072:1 1217:1 1219:1 1222:1 1225:1 1227:1 1233:1 1255:1 1263:1 1276:2
1 1042:1 1225:1 1276:4
1 502:2 754:1 888:1 1042:3 1216:1 1217:1 1225:3 1227:2 1276:8
1 1211:1 1273:1 1276:4
1 1211:1 1273:1 1276:4
1 502:1 1042:1 1225:1 1227:1 1276:3
1 502:1 1042:1 1225:1 1227:1 1276:3
1 502:1 1042:1 1225:1 1227:1 1276:3
1 187:1 502:1 688:1 754:1 764:1 806:1 1042:1 1072:1 1217:1 1219:1 1222:1 1225:1 1227:1 1233:1 1255:1 1263:1 1276:2
1 502:1 754:1 1042:1 1072:1 1217:1 1225:1 1227:1 1255:1 1276:1
1 502:1 1042:1 1225:1 1227:1 1276:3
1 187:1 502:3 650:1 688:1 754:2 787:3 888:2 1042:4 1066:2 1072:3 1216:2 1217:2 1219:1 1225:4 1227:3 1233:1 1243:3 1245:1 1249:2 1255:3 1276:6
1 187:1 502:1 688:1 754:1 764:1 806:1 1042:1 1072:1 1217:1 1219:1 1222:1 1225:1 1227:1 1233:1 1255:1 1263:1 1276:2
1 187:1 502:3 650:1 688:1 754:2 787:3 888:2 1042:4 1066:2 1072:3 1216:2 1217:2 1219:1 1225:4 1227:3 1233:1 1243:3 1245:1 1249:2 1255:3 1276:6
1 502:1 888:1 1042:3 1216:1 1225:3 1227:1 1276:8
1 187:1 502:1 688:1 754:1 764:1 806:1 1042:1 1072:1 1217:1 1219:1 1222:1 1225:1 1227:1 1233:1 1255:1 1263:1 1276:2
1 187:1 502:1 688:1 754:1 764:1 806:1 1042:1 1072:1 1217:1 1219:1 1222:1 1225:1 1227:1 1233:1 1255:1 1263:1 1276:2
1 502:1 1042:1 1225:1 1227:1 1276:2
1 502:1 1042:1 1225:1 1227:1 1276:3
1 1042:1 1225:1 1276:2
1 502:2 754:1 888:1 1042:3 1216:1 1217:1 1225:3 1227:2 1276:8
1 502:1 754:1 1042:1 1217:1 1225:1 1227:1 1276:1
1 187:1 502:1 688:1 754:1 764:1 806:1 1042:1 1072:1 1217:1 1219:1 1222:1 1225:1 1227:1 1233:1 1255:1 1263:1 1276:2
1 502:2 754:1 888:1 1042:3 1216:1 1217:1 1225:3 1227:2 1276:6
1 754:1 1042:1 1072:1 1217:1 1225:1 1255:1 1276:1
1 502:1 888:1 1042:3 1216:1 1225:3 1227:1 1276:8
1 502:1 1042:1 1225:1 1227:1 1276:3
1 1042:1 1225:1 1276:3
1 1211:1 1273:1 1276:4
1 502:1 1042:1 1225:1 1227:1 1276:3
1 1042:1 1072:1 1225:1 1255:1 1276:1
1 502:1 1042:1 1225:1 1227:1 1276:3
1 502:1 754:1 1042:1 1217:1 1225:1 1227:1 1276:2
1 1042:1 1225:1 1276:8
1 1042:1 1072:1 1225:1 1255:1 1276:2
1 888:1 1042:1 1216:1 1225:1 1276:4
1 502:1 754:1 1042:1 1217:1 1225:1 1227:1 1276:1
1 1211:1 1273:1 1276:4
1 1042:1 1225:1 1276:2
1 502:1 888:1 1042:1 1072:1 1216:1 1225:1 1227:1 1255:1 1276:3
1 710:1 1042:1 1072:1 1225:1 1237:1 1255:1 1276:1
1 187:1 502:1 688:1 754:1 764:1 806:1 1042:1 1072:1 1217:1 1219:1 1222:1 1225:1 1227:1 1233:1 1255:1 1263:1 1276:2
1 1211:1 1273:1 1276:4
1 754:1 1042:1 1072:1 1217:1 1225:1 1255:1 1276:1
1 1042:1 1072:1 1225:1 1255:1 1276:2
1 502:1 1042:1 1225:1 1227:1 1276:3
1 502:1 1042:1 1225:1 1227:1 1276:3
1 502:1 754:1 888:1 1042:1 1072:1 1216:1 1217:1 1225:1 1227:1 1255:1 1276:2
1 502:1 1042:1 1225:1 1227:1 1276:3
1 502:1 888:1 1042:3 1216:1 1225:3 1227:1 1276:7
1 1042:1 1225:1 1276:4
1 502:2 597:1 688:1 754:1 764:1 787:1 888:1 1042:4 1066:3 1072:2 1216:1 1217:1 1219:1 1222:1 1225:4 1227:2 1243:1 1249:3 1255:2 1269:1 1276:6
1 1211:1 1273:1 1276:3
1 297:1 502:1 710:1 754:1 1042:1 1217:1 1225:1 1227:1 1237:1 1244:1 1276:2
1 1211:1 1273:1 1276:4
1 806:1 1042:1 1225:1 1263:1 1276:6
1 787:1 915:1 940:1 1042:1 1072:1 1193:1 1225:1 1232:1 1243:1 1255:1 1258:1 1261:1 1276:2 1278:2
1 187:1 502:1 688:1 754:1 764:1 806:1 1042:1 1072:1 1217:1 1219:1 1222:1 1225:1 1227:1 1233:1 1255:1 1263:1 1276:2
1 806:1 1042:1 1225:1 1263:1 1276:5
1 502:1 1042:1 1225:1 1227:1 1276:3
1 1211:1 1273:1 1276:4
1 502:2 597:1 688:1 754:1 764:1 787:1 888:2 1042:4 1066:3 1072:2 1216:2 1217:1 1219:1 1222:1 1225:4 1227:2 1243:1 1249:3 1255:2 1269:1 1276:6
1 502:2 754:1 888:1 1042:3 1216:1 1217:1 1225:3 1227:2 1276:8
1 1042:1 1072:1 1225:1 1255:1 1276:2
1 461:1 502:1 688:1 764:1 1042:1 1066:1 1072:1 1219:1 1222:1 1225:1 1227:1 1249:1 1255:1 1260:1 1276:4 1278:3
1 502:1 710:1 1042:1 1072:1 1225:1 1227:1 1237:1 1255:1 1276:2
1 502:2 754:1 888:1 1042:3 1216:1 1217:1 1225:3 1227:2 1276:6
1 502:1 1042:1 1225:1 1227:1 1276:2
1 502:1 1042:1 1225:1 1227:1 1276:2
1 1042:1 1225:1 1276:2
1 502:1 787:1 806:1 1042:1 1066:1 1225:1 1227:1 1243:1 1249:1 1263:1 1276:3
1 710:1 754:1 1042:1 1217:1 1225:1 1237:1 1276:2
1 502:1 1042:1 1225:1 1227:1 1276:2
1 187:1 502:3 650:1 688:1 754:2 787:3 888:2 1042:4 1066:2 1072:3 1216:2 1217:2 1219:1 1225:4 1227:3 1233:1 1243:3 1245:1 1249:2 1255:3 1276:6
1 297:1 754:1 1042:1 1072:1 1217:1 1225:1 1244:1 1255:1 1276:2
1 1211:1 1273:1 1276:4
1 187:1 502:1 688:1 754:1 764:1 806:1 1042:1 1072:1 1217:1 1219:1 1222:1 1225:1 1227:1 1233:1 1255:1 1263:1 1276:3
1 502:1 1042:1 1072:1 1225:1 1227:1 1255:1 1276:2
1 1211:1 1273:1 1276:4
1 710:1 754:1 1042:1 1217:1 1225:1 1237:1 1276:2
1 888:1 1042:1 1072:1 1216:1 1225:1 1255:1 1276:1
1 1042:1 1225:1 1276:4
1 502:1 710:1 1042:1 1072:1 1225:1 1227:1 1237:1 1255:1 1276:2
1 502:1 1042:1 1225:1 1227:1 1276:3
1 502:2 754:1 888:1 1042:3 1216:1 1217:1 1225:3 1227:2 1276:7
1 502:1 1042:1 1225:1 1227:1 1276:3
1 187:1 502:1 688:1 754:1 764:1 806:1 1042:1 1072:1 1217:1 1219:1 1222:1 1225:1 1227:1 1233:1 1255:1 1263:1 1276:2
1 502:1 787:1 806:1 1042:1 1066:1 1225:1 1227:1 1243:1 1249:1 1263:1 1276:3
1 502:1 1042:1 1225:1 1227:1 1276:3
1
1 461:1 502:1 688:1 764:1 1042:1 1066:1 1072:1 1219:1 1222:1 1225:1 1227:1 1249:1 1255:1 1260:1 1276:4 1278:3
1 502:1 754:1 1042:1 1217:1 1225:1 1227:1 1276:2
1 187:1 502:1 688:1 754:1 764:1 806:1 1042:1 1072:1 1217:1 1219:1 1222:1 1225:1 1227:1 1233:1 1255:1 1263:1 1276:4
1 502:1 710:1 1042:1 1225:1 1227:1 1237:1 1276:2
1 502:1 754:1 764:1 787:1 1042:1 1066:1 1072:1 1217:1 1222:1 1225:1 1227:1 1243:1 1249:1 1255:1 1276:9
1 502:1 1042:1 1225:1 1227:1 1276:2
1 754:1 1042:1 1217:1 1225:1 1276:1
1 754:1 1042:1 1217:1 1225:1 1276:1
1 502:1 1042:1 1225:1 1227:1 1276:1
1 502:1 1042:1 1225:1 1227:1 1276:3
1 754:1 1042:1 1072:1 1217:1 1225:1 1255:1 1276:2
1 187:1 502:1 688:1 754:1 764:1 806:1 1042:1 1072:1 1217:1 1219:1 1222:1 1225:1 1227:1 1233:1 1255:1 1263:1 1276:2
1 502:1 1042:1 1054:1 1225:1 1227:1 1231:1 1276:3
1 187:1 502:3 650:1 688:1 754:2 787:3 888:2 1042:4 1066:2 1072:3 1216:2 1217:2 1219:1 1225:4 1227:3 1233:1 1243:3 1245:1 1249:2 1255:3 1276:6
1 502:2 754:1 888:1 1042:3 1216:1 1217:1 1225:3 1227:2 1276:6
1 502:1 754:1 787:1 1042:1 1217:1 1225:1 1227:1 1243:1 1276:1
1 888:1 1042:1 1072:1 1216:1 1225:1 1255:1 1276:1
1 502:1 754:1 1042:1 1217:1 1225:1 1227:1 1276:2
1 502:1 710:1 1042:1 1072:1 1225:1 1227:1 1237:1 1255:1 1276:2
1 754:1 1042:1 1072:1 1217:1 1225:1 1255:1 1276:2
1 888:1 1042:1 1216:1 1225:1 1276:4
1 754:1 1042:1 1217:1 1225:1 1276:2
1 502:2 754:1 888:1 1042:3 1216:1 1217:1 1225:3 1227:2 1276:6
1 502:1 754:1 1042:1 1217:1 1225:1 1227:1 1276:1
1 187:1 502:1 688:1 754:1 764:1 806:1 1042:1 1072:1 1217:1 1219:1 1222:1 1225:1 1227:1 1233:1 1255:1 1263:1 1276:2
1 1042:1 1225:1 1276:3
1 1042:1 1072:1 1225:1 1255:1 1276:2
1 502:1 1042:1 1225:1 1227:1 1276:3
1 502:2 597:1 688:1 754:1 764:1 787:1 888:2 1042:4 1066:3 1072:2 1216:2 1217:1 1219:1 1222:1 1225:4 1227:2 1243:1 1249:3 1255:2 1269:1 1276:6
1 1211:1 1273:1 1276:5
1 502:1 1042:1 1225:1 1227:1 1276:3
1 502:2 688:1 1042:2 1066:1 1072:2 1219:1 1225:2 1227:2 1249:1 1255:2 1276:7
1 1042:1 1225:1 1276:3
1 502:1 754:1 888:1 1042:1 1072:1 1216:1 1217:1 1225:1 1227:1 1255:1 1276:2
1 187:1 502:1 688:1 754:1 764:1 806:1 1042:1 1072:1 1217:1 1219:1 1222:1 1225:1 1227:1 1233:1 1255:1 1263:1 1276:2
1 502:1 754:1 888:1 1042:1 1072:1 1216:1 1217:1 1225:1 1227:1 1255:1 1276:1
1 297:1 502:1 754:1 1042:1 1217:1 1225:1 1227:1 1244:1 1276:2
1 502:1 710:1 1042:1 1072:1 1225:1 1227:1 1237:1 1255:1 1276:2
1 502:1 710:1 1042:1 1072:1 1225:1 1227:1 1237:1 1255:1 1276:2
1 888:1 1042:1 1072:1 1216:1 1225:1 1255:1 1276:1
1 888:1 1042:3 1072:1 1216:1 1225:3 1255:1 1276:8
1 187:1 502:1 688:1 754:1 764:1 806:1 1042:1 1072:1 1217:1 1219:1 1222:1 1225:1 1227:1 1233:1 1255:1 1263:1 1276:3
1 502:2 688:1 754:1 764:1 787:1 1042:4 1066:2 1072:2 1217:1 1219:1 1222:1 1225:4 1227:2 1243:1 1249:2 1255:2 1276:6
1 502:1 525:1 541:1 764:1 787:1 820:1 888:1 915:1 1042:1 1066:1 1072:1 1193:1 1198:1 1214:1 1216:1 1222:1 1225:1 1227:1 1232:1 1243:1 1249:1 1254:1 1255:1 1258:1 1262:1 1268:1 1276:3
1 461:1 502:1 688:1 764:1 1042:1 1066:1 1072:1 1219:1 1222:1 1225:1 1227:1 1249:1 1255:1 1260:1 1276:4 1278:3
1 297:1 754:1 888:1 1042:1 1216:1 1217:1 1225:1 1244:1 1276:1
1 373:1 502:1 787:1 982:1 1042:1 1072:1 1225:1 1227:1 1239:1 1243:1 1247:1 1255:1 1276:2
1 502:1 1042:1 1225:1 1227:1 1276:3
1 502:1 754:1 1042:1 1072:1 1217:1 1225:1 1227:1 1255:1 1276:2
1 1042:1 1225:1 1276:5
1 502:1 1042:1 1225:1 1227:1 1276:3
1 502:2 688:1 754:1 764:1 888:2 1042:4 1066:3 1072:2 1216:2 1217:1 1219:1 1222:1 1225:4 1227:2 1249:3 1255:2 1276:6
1 502:1 1042:1 1225:1 1227:1 1276:3
1 502:1 754:1 1042:1 1217:1 1225:1 1227:1 1276:1
1 502:1 1042:1 1225:1 1227:1 1276:3
1 297:1 502:1 710:1 754:1 787:1 888:1 1042:1 1072:1 1216:1 1217:1 1225:1 1227:1 1237:1 1243:1 1244:1 1255:1 1276:2
1 502:1 888:1 1042:3 1216:1 1225:3 1227:1 1276:7
1 888:1 1042:1 1072:1 1216:1 1225:1 1255:1 1276:3
1 502:1 888:1 1042:1 1072:1 1216:1 1225:1 1227:1 1255:1 1276:4 1278:1
1 597:1 1042:1 1225:1 1269:1 1276:3
1 461:1 502:1 688:1 764:1 1042:1 1066:1 1072:1 1219:1 1222:1 1225:1 1227:1 1249:1 1255:1 1260:1 1276:3 1278:3
1 502:1 688:1 754:1 787:1 888:1 1042:1 1072:1 1216:1 1217:1 1219:1 1225:1 1227:1 1243:1 1255:1 1276:3
1 461:1 502:1 688:1 764:1 1042:1 1066:1 1072:1 1219:1 1222:1 1225:1 1227:1 1249:1 1255:1 1260:1 1276:4 1278:3
1 502:1 1042:1 1225:1 1227:1 1276:3
1 502:2 688:1 754:1 764:1 787:1 888:1 1042:4 1066:3 1072:2 1216:1 1217:1 1219:1 1222:1 1225:4 1227:2 1243:1 1249:3 1255:2 1276:6
1 1211:1 1273:1 1276:4
1 754:1 1042:1 1072:1 1217:1 1225:1 1255:1 1276:2
1 888:1 1042:1 1072:1 1216:1 1225:1 1255:1 1276:2
1 502:1 1042:1 1072:1 1225:1 1227:1 1255:1 1276:2
1 502:1 787:1 888:1 1042:3 1216:1 1225:3 1227:1 1243:1 1276:4
1 806:1 1042:2 1225:2 1263:1 1276:13
1 502:2 754:1 888:1 1042:3 1216:1 1217:1 1225:3 1227:2 1276:9
1 502:1 1042:1 1225:1 1227:1 1276:3
1 1211:1 1273:1 1276:3
1 187:1 502:1 688:1 754:1 764:1 806:1 1042:1 1072:1 1217:1 1219:1 1222:1 1225:1 1227:1 1233:1 1255:1 1263:1 1276:2
1 502:1 1042:1 1072:1 1225:1 1227:1 1255:1 1276:2
1 187:1 502:1 688:1 754:1 764:1 806:1 1042:1 1072:1 1217:1 1219:1 1222:1 1225:1 1227:1 1233:1 1255:1 1263:1 1276:2
1 754:1 888:1 1042:1 1216:1 1217:1 1225:1 1276:3
1 1042:1 1072:1 1225:1 1255:1 1276:2
1 710:1 1042:1 1072:1 1225:1 1237:1 1255:1 1276:2
1 502:1 888:1 1042:1 1216:1 1225:1 1227:1 1276:5
1 502:1 806:1 1042:1 1225:1 1227:1 1263:1 1276:4
1 502:1 1042:1 1225:1 1227:1 1276:3
1 502:1 888:1 1042:3 1216:1 1225:3 1227:1 1276:7
1 502:1 754:1 1042:1 1072:1 1217:1 1225:1 1227:1 1255:1 1276:2
1 502:1 1042:1 1225:1 1227:1 1276:3
1 502:1 1042:1 1225:1 1227:1 1276:2
1 502:1 1042:1 1225:1 1227:1 1276:3
1 502:1 710:1 1042:1 1225:1 1227:1 1237:1 1276:2
1 1042:1 1072:1 1225:1 1255:1 1276:3
1 1042:1 1225:1 1276:4
1 502:1 1042:1 1225:1 1227:1 1276:2
1 502:1 754:1 1042:1 1072:1 1217:1 1225:1 1227:1 1255:1 1276:2
1 187:1 502:1 688:1 754:1 764:1 806:1 1042:1 1072:1 1217:1 1219:1 1222:1 1225:1 1227:1 1233:1 1255:1 1263:1 1276:2
1 502:1 710:1 754:1 1042:1 1072:1 1217:1 1225:1 1227:1 1237:1 1255:1 1276:1
1 502:1 1042:1 1225:1 1227:1 1276:1
1 502:1 1042:3 1225:3 1227:1 1276:8
1 297:1 502:1 710:1 754:1 1042:1 1072:1 1217:1 1225:1 1227:1 1237:1 1244:1 1255:1 1276:2
-1 510:1 1042:1 1225:1 1276:1
-1 510:1 1042:1 1225:1 1276:1
-1 510:1 1042:1 1225:1 1276:1
-1 510:1 1042:1 1225:1 1276:1
-1 510:1 1042:1 1225:1 1276:1
-1 510:1 1042:1 1225:1 1276:1
-1 510:1 1042:1 1225:1 1276:1
-1 510:1 1042:1 1225:1 1276:1
-1 510:1 1042:1 1225:1 1276:1
-1 373:1 502:1 754:1 787:1 806:1 1038:1 1042:1 1072:1 1165:1 1217:1 1225:1 1226:1 1227:1 1243:1 1247:1 1255:1 1263:1 1276:2
-1 510:1 1042:1 1225:1 1276:1
-1 510:1 1042:1 1225:1 1276:1
-1 510:1 1042:1 1225:1 1276:1
-1 265:1 502:1 510:1 754:1 1042:1 1217:1 1225:1 1227:1 1276:1
-1 510:1 1042:1 1225:1 1276:1
-1 510:1 1042:1 1225:1 1276:1
-1 510:1 916:1 1042:1 1225:1 1276:1
-1 510:1 1042:1 1225:1 1276:1
-1 510:1 1042:1 1225:1 1276:1
-1 510:1 1042:1 1225:1 1276:1
-1 510:1 1042:1 1225:1 1276:1
-1 510:1 1042:1 1225:1 1276:1
-1 181:1 510:1 916:1 1042:1 1225:1 1276:1
-1 181:1 510:1 916:1 1042:1 1225:1 1276:1
-1 510:1 916:1 1042:1 1225:1 1276:1
-1 510:1 1042:1 1225:1 1276:1
-1 230:1 265:1 281:1 502:1 688:1 754:1 787:1 910:1 1042:1 1072:1 1217:1 1219:1 1225:1 1227:1 1229:1 1243:1 1255:1 1276:2
-1 178:1 510:1 1042:1 1225:1 1276:2
-1 223:1 230:1 238:1 265:1 647:1 650:1 839:1 1024:1 1042:1 1225:1 1245:1 1276:1 1278:1
-1 502:1 787:1 806:1 888:1 1042:1 1072:1 1216:1 1225:1 1227:1 1243:1 1255:1 1263:1 1276:3
-1 502:1 1042:1 1066:1 1225:1 1227:1 1249:1 1276:4
-1 502:1 806:1 1042:1 1066:1 1072:1 1225:1 1227:1 1249:1 1255:1 1263:1 1276:2
-1 502:1 597:1 688:1 754:1 756:1 787:1 806:1 888:1 1042:1 1066:1 1072:1 1216:1 1217:1 1218:1 1219:1 1225:1 1227:1 1243:1 1249:1 1255:1 1263:1 1269:1 1276:3
-1 502:1 597:1 688:1 787:1 806:1 888:1 1042:1 1066:1 1072:1 1216:1 1219:1 1225:1 1227:1 1243:1 1249:1 1255:1 1263:1 1269:1 1276:4
-1 1211:1 1273:1 1276:3
-1 1211:1 1273:1 1276:3
-1 284:1 344:1 450:1 502:1 541:1 628:1 754:1 787:1 888:1 892:1 1027:1 1042:1 1066:1 1072:1 1216:1 1217:1 1225:1 1227:1 1243:1 1249:1 1255:1 1268:1 1276:1
-1 1211:1 1273:1 1276:3
-1 461:1 502:1 597:1 725:1 754:1 764:1 1042:1 1072:1 1217:1 1222:1 1225:1 1227:1 1255:1 1260:1 1269:1 1276:2
-1 461:1 502:1 597:1 688:1 754:1 756:1 787:1 806:1 888:1 1042:1 1066:1 1072:1 1216:1 1217:1 1218:1 1219:1 1225:1 1227:1 1243:1 1249:1 1255:1 1260:1 1263:1 1269:1 1276:1
-1 429:1 502:1 597:1 688:1 754:1 764:1 888:1 1042:1 1216:1 1217:1 1219:1 1222:1 1225:1 1227:1 1269:1 1276:2
-1 305:1 502:1 597:1 688:1 709:1 754:1 787:1 888:1 1042:1 1066:1 1072:1 1076:1 1216:1 1217:1 1219:1 1225:1 1227:1 1236:1 1243:1 1249:1 1251:1 1255:1 1264:1 1269:1 1276:2
-1 1276:1
-1 159:1 208:1 210:1 299:1 420:1 422:1 431:1 436:1 486:1 500:1 507:1 532:1 537:1 606:1 806:1 848:1 977:1 1000:1 1139:1 1221:1 1263:1 1276:1 1278:3
-1 1042:1 1225:1 1276:3
-1 502:2 597:1 650:1 688:1 754:1 1042:4 1066:2 1072:2 1217:1 1219:1 1225:4 1227:2 1245:1 1249:2 1255:2 1269:1 1276:6
-1 502:2 688:1 754:1 764:1 787:2 1042:4 1066:2 1072:2 1217:1 1219:1 1222:1 1225:4 1227:2 1243:2 1249:2 1255:2 1276:6
-1 650:1 806:2 1042:1 1225:1 1245:1 1263:2 1276:2
-1 344:1 502:1 787:1 892:1 1042:1 1072:1 1225:1 1227:1 1243:1 1255:1 1276:1
-1 159:1 208:1 210:1 239:1 247:1 299:1 420:1 422:1 431:1 486:1 500:1 507:1 532:1 537:1 583:1 606:1 631:1 806:1 842:1 977:1 1000:1 1089:1 1139:1 1221:1 1263:1 1276:2
-1 344:1 611:1 1042:1 1225:1 1276:1
-1 1211:1 1273:1 1276:2
-1 296:1 502:1 806:1 1042:1 1225:1 1227:1 1263:1 1276:2
-1 373:1 502:1 519:1 754:1 787:1 806:2 1042:1 1072:1 1217:1 1225:1 1227:1 1243:1 1247:1 1255:1 1263:2 1276:2
-1 1211:1 1273:1 1276:2
-1 1211:1 1273:1 1276:2
-1 1211:1 1273:1 1276:2
-1 502:1 597:1 715:1 754:1 806:1 1042:1 1217:1 1225:1 1227:1 1263:1 1269:1 1276:2
-1 502:1 806:1 1042:1 1225:1 1227:1 1263:1 1276:5
-1 446:1 461:1 502:1 597:1 688:1 754:1 764:1 787:1 794:1 820:1 888:1 1042:1 1066:1 1072:1 1214:1 1216:1 1217:1 1219:1 1222:1 1225:1 1227:1 1243:1 1249:1 1255:1 1260:1 1269:1 1276:1
-1 806:1 1042:1 1225:1 1263:1 1276:2
-1 373:1 502:1 541:1 597:1 688:1 754:1 764:1 787:1 820:1 910:1 1042:1 1066:1 1072:1 1214:1 1217:1 1219:1 1222:1 1225:1 1227:1 1229:1 1243:1 1247:1 1249:1 1255:1 1268:1 1269:1 1276:1
-1 903:1 1223:1 1276:1
-1 806:1 1042:1 1225:1 1263:1 1276:4
-1 502:1 806:1 1042:1 1225:1 1227:1 1263:1 1276:4
-1 300:1 344:1 373:1 502:1 748:1 756:1 787:1 800:1 888:1 892:1 910:1 915:1 1027:1 1042:1 1066:1 1072:1 1193:1 1216:1 1218:1 1225:1 1227:1 1229:1 1232:1 1243:1 1247:1 1249:1 1255:1 1258:1 1276:1
-1 502:1 754:1 787:1 806:1 888:1 1038:1 1042:1 1066:1 1216:1 1217:1 1225:1 1227:1 1243:1 1249:1 1263:1 1276:2
-1 1211:1 1273:1 1276:3
-1 446:1 502:1 597:1 754:1 794:1 888:1 1042:1 1066:1 1072:1 1216:1 1217:1 1225:1 1227:1 1249:1 1255:1 1269:1 1276:1
-1 502:2 688:1 1042:2 1066:1 1072:2 1219:1 1225:2 1227:2 1249:1 1255:2 1276:7
-1 373:1 502:1 597:1 688:1 754:1 787:1 806:2 1042:1 1072:1 1217:1 1219:1 1225:1 1227:1 1243:1 1247:1 1255:1 1263:2 1269:1 1276:5
-1 1211:1 1273:1 1276:3
-1 1211:1 1273:1 1276:2
-1 502:1 754:1 764:1 787:1 888:1 915:1 1042:1 1066:1 1072:1 1216:1 1217:1 1222:1 1225:1 1227:1 1232:1 1243:1 1249:1 1255:1 1276:2
-1 214:1 446:1 764:1 787:1 806:1 888:1 1042:1 1066:1 1072:1 1198:1 1216:1 1222:1 1225:1 1243:1 1249:1 1255:1 1262:1 1263:1 1276:1
-1 181:1 502:1 787:1 888:1 915:1 916:1 1042:1 1072:1 1216:1 1225:1 1227:1 1232:1 1243:1 1255:1 1276:1
-1 1211:1 1273:1 1276:4
-1 1211:1 1273:1 1276:3
-1 502:1 597:1 688:1 754:1 787:1 888:1 1042:1 1066:1 1072:1 1216:1 1217:1 1219:1 1225:1 1227:1 1243:1 1249:1 1255:1 1269:1 1276:1 1278:1
-1 502:1 910:1 1042:1 1225:1 1227:1 1229:1 1276:1
-1 903:1 1223:1 1276:1
-1 806:1 877:1 888:1 910:1 1042:1 1066:1 1072:1 1211:1 1216:1 1225:1 1229:1 1249:1 1255:1 1263:1 1273:1 1274:1 1276:3 1278:4
-1 502:1 597:1 639:1 688:1 754:1 787:1 1042:1 1066:1 1072:1 1217:1 1219:1 1225:1 1227:1 1243:1 1249:1 1255:1 1269:1 1276:11
-1 1211:1 1273:1 1276:3
-1 1211:1 1273:1 1276:2
-1 373:1 502:1 650:1 754:1 787:1 888:1 934:1 1042:1 1066:1 1072:1 1216:1 1217:1 1225:1 1227:1 1243:1 1245:1 1247:1 1249:1 1255:1 1256:1 1276:2
-1 502:1 754:1 787:1 888:1 1042:1 1072:1 1216:1 1217:1 1225:1 1227:1 1243:1 1255:1 1276:2
-1 297:1 502:3 650:1 688:1 754:1 764:1 787:1 806:1 888:1 980:1 1042:4 1066:3 1072:2 1216:1 1217:1 1219:1 1222:1 1225:4 1227:3 1234:1 1243:1 1244:1 1245:1 1249:3 1255:2 1263:1 1276:5
-1 297:1 502:3 688:1 754:1 764:1 787:1 806:1 888:1 980:1 1042:4 1066:3 1072:2 1216:1 1217:1 1219:1 1222:1 1225:4 1227:3 1234:1 1243:1 1244:1 1249:3 1255:2 1263:1 1276:5
-1 1211:1 1273:1 1276:3
-1 1211:1 1273:1 1276:3
-1 146:1 159:1 208:1 210:1 239:1 247:1 298:1 299:1 366:1 420:1 422:1 431:1 537:1 562:1 602:1 606:1 805:1 806:1 848:1 924:1 1045:1 1221:1 1263:1 1276:1
-1 502:1 597:1 688:1 754:1 787:1 888:1 910:1 1042:1 1066:1 1072:1 1076:1 1193:1 1216:1 1217:1 1219:1 1225:1 1227:1 1229:1 1243:1 1249:1 1255:1 1258:1 1264:1 1269:1 1276:2
-1 378:1 502:1 597:1 688:1 754:1 787:1 888:1 980:1 1042:1 1072:1 1216:1 1217:1 1219:1 1225:1 1227:1 1234:1 1243:1 1255:1 1269:1 1276:2
-1 1211:1 1273:1 1276:3
-1 806:1 980:1 1042:1 1225:1 1234:1 1263:1 1276:6
-1 650:1 1042:1 1225:1 1245:1 1276:2
-1 502:1 806:1 874:1 1038:1 1042:1 1225:1 1227:1 1263:1 1276:2
-1 437:1 650:1 766:1 1042:1 1225:1 1245:1 1276:3
-1 249:1 502:1 597:1 650:1 754:1 787:1 888:1 910:1 1042:1 1066:1 1072:1 1216:1 1217:1 1225:1 1227:1 1229:1 1243:1 1245:1 1249:1 1255:1 1269:1 1270:1 1276:1
-1 178:1 230:1 261:1 265:1 288:1 611:1 784:1 850:1 883:1 898:1 948:1 1042:1 1208:1 1225:1 1276:2
-1 502:1 597:1 650:1 688:1 754:1 764:1 787:1 888:1 910:1 1042:1 1066:1 1072:1 1076:1 1193:1 1216:1 1217:1 1219:1 1222:1 1225:1 1227:1 1229:1 1243:1 1245:1 1249:1 1255:1 1258:1 1264:1 1269:1 1276:1
-1 1042:1 1225:1 1276:2
-1 1276:4
-1 1042:1 1072:1 1225:1 1255:1 1276:3
-1 502:1 888:1 1042:1 1066:1 1216:1 1225:1 1227:1 1249:1 1276:3
-1 143:1 502:1 688:1 754:1 787:1 888:1 956:1 1042:1 1072:1 1216:1 1217:1 1219:1 1225:1 1227:1 1238:1 1243:1 1255:1 1276:3
-1 159:1 208:1 210:1 234:1 299:1 420:1 422:1 431:1 486:1 500:1 507:1 532:1 537:1 562:1 596:1 606:1 806:1 842:1 944:1 977:1 1000:1 1221:1 1263:1 1276:1
-1 208:1 210:1 239:1 299:1 334:1 398:1 420:1 422:1 431:1 537:1 562:1 606:1 612:1 806:1 877:1 924:1 964:1 1221:1 1263:1 1274:1 1276:3
-1 208:1 210:1 239:1 299:1 362:1 398:1 410:1 420:1 422:1 431:1 486:1 507:1 537:1 562:1 606:1 612:1 687:1 780:1 806:1 820:1 877:1 924:1 964:1 978:1 981:1 1089:1 1170:1 1214:1 1221:1 1235:1 1263:1 1274:1 1276:2
-1 806:1 877:1 1042:1 1072:1 1225:1 1255:1 1263:1 1274:1 1276:1
-1 502:1 597:1 688:1 754:1 888:1 910:1 1042:1 1066:1 1072:1 1076:1 1216:1 1217:1 1219:1 1225:1 1227:1 1229:1 1249:1 1255:1 1264:1 1269:1 1276:1
-1 502:1 884:1 1042:1 1066:1 1072:1 1211:1 1225:1 1227:1 1249:1 1255:1 1273:1 1276:1
-1 208:1 210:1 299:1 420:1 422:1 431:1 486:1 500:1 532:1 537:1 606:1 708:1 806:1 1139:1 1221:1 1263:1 1276:2
-1 137:1 297:1 502:1 525:1 554:1 621:1 650:1 754:1 764:1 787:1 888:1 910:1 1024:1 1042:1 1066:1 1072:1 1142:1 1165:1 1193:1 1216:1 1217:1 1222:1 1225:1 1226:1 1227:1 1229:1 1243:1 1244:1 1245:1 1249:1 1254:1 1255:1 1258:1 1265:1 1276:2 1278:919
-1 446:1 787:1 806:1 888:1 1042:1 1066:1 1072:1 1216:1 1225:1 1243:1 1249:1 1255:1 1263:1 1276:1
-1 161:1 210:1 299:1 422:1 431:1 486:1 502:1 507:1 532:1 537:1 576:1 606:1 663:1 666:1 692:1 842:1 877:1 888:1 1042:1 1066:1 1072:1 1216:1 1221:1 1225:1 1227:1 1249:1 1253:1 1255:1 1274:1 1276:2
-1 143:1 161:1 167:1 461:1 473:1 502:1 542:1 663:1 692:1 888:1 981:1 1042:1 1066:1 1072:1 1193:1 1216:1 1225:1 1227:1 1235:1 1238:1 1249:1 1253:1 1255:1 1258:1 1260:1 1267:1 1276:1
-1 888:1 1042:1 1072:1 1216:1 1225:1 1255:1 1276:1
-1 161:1 663:1 692:1 888:1 1042:1 1072:1 1216:1 1225:1 1253:1 1255:1 1276:1
-1 359:1 820:1 888:1 981:1 1042:1 1072:1 1214:1 1216:1 1225:1 1235:1 1255:1 1276:1
-1 161:1 502:1 541:1 663:1 692:1 1042:1 1072:1 1225:1 1227:1 1253:1 1255:1 1268:1 1276:1
-1 161:1 502:1 663:1 692:1 787:1 820:1 888:1 981:1 1042:1 1072:1 1214:1 1216:1 1225:1 1227:1 1235:1 1243:1 1253:1 1255:1 1276:1
-1 1211:1 1273:1 1276:3
-1 187:1 502:1 688:1 764:1 787:1 820:1 910:1 1042:1 1066:1 1072:1 1214:1 1219:1 1222:1 1225:1 1227:1 1229:1 1233:1 1243:1 1249:1 1255:1 1276:1 1278:3
-1 1042:1 1225:1 1276:3
-1 502:2 688:1 1042:2 1066:1 1072:2 1219:1 1225:2 1227:2 1249:1 1255:2 1276:7
-1 373:1 650:1 877:1 1042:1 1072:1 1225:1 1245:1 1247:1 1255:1 1274:1 1276:4
-1 502:1 787:1 806:1 1042:1 1072:1 1225:1 1227:1 1243:1 1255:1 1263:1 1276:3
-1 502:1 787:1 806:1 1042:1 1072:1 1225:1 1227:1 1243:1 1255:1 1263:1 1276:3
-1 502:2 538:1 597:1 650:1 688:1 754:1 764:1 787:2 888:2 980:1 1042:5 1066:3 1072:2 1101:1 1216:2 1217:1 1219:1 1222:1 1225:5 1227:2 1234:1 1243:2 1245:1 1249:3 1255:2 1269:1 1276:6
-1 223:1 553:1 647:1 742:1 806:2 878:1 1042:1 1104:1 1225:1 1263:2 1276:3
-1 159:1 208:1 210:1 299:1 373:1 398:1 422:1 431:1 443:1 500:1 537:1 606:1 806:1 877:1 914:1 1089:1 1165:1 1221:1 1226:1 1247:1 1263:1 1274:1 1276:2
-1 1042:1 1225:1 1276:2
-1 502:2 688:1 754:1 888:1 1042:3 1066:1 1072:2 1216:1 1217:1 1219:1 1225:3 1227:2 1249:1 1255:2 1276:6
-1 1211:1 1273:1 1276:3
-1 1211:1 1273:1 1276:3
-1 230:1 265:1 515:1 1042:1 1225:1 1276:2
-1 502:1 806:1 1042:1 1225:1 1227:1 1263:1 1276:5
-1 502:1 621:1 739:1 764:1 840:1 888:1 1042:1 1072:1 1216:1 1222:1 1225:1 1227:1 1255:1 1276:3
-1 150:1 161:1 360:1 371:1 502:1 526:1 545:1 574:1 668:1 886:1 909:1 923:1 966:1 1042:1 1086:1 1215:1 1225:1 1227:1 1228:1 1242:1 1246:1 1253:1 1259:1 1271:1 1275:1 1276:3
-1 806:2 1042:1 1072:1 1225:1 1255:1 1263:2 1276:3
-1 256:1 502:1 597:1 806:1 1042:1 1046:1 1225:1 1227:1 1263:1 1269:1 1276:2
-1 680:1 806:1 1042:1 1225:1 1263:1 1276:2
-1 1211:1 1273:1 1276:2
-1 1211:1 1273:1 1276:2
-1 884:1 888:1 1042:1 1072:1 1190:1 1216:1 1225:1 1255:1 1276:1
-1 1211:1 1273:1 1276:2
-1 373:1 602:1 884:1 888:1 1042:1 1072:1 1190:1 1211:1 1216:1 1225:1 1247:1 1255:1 1273:1 1276:1 1278:9
-1 884:1 1042:1 1072:1 1190:1 1225:1 1255:1 1276:3 1278:26
-1 903:1 1223:1 1276:1
-1 210:1 299:1 420:1 422:1 431:1 436:1 486:1 537:1 606:1 806:1 848:1 977:1 990:1 1000:1 1139:1 1221:1 1250:1 1263:1 1276:1
-1 1211:1 1273:1 1276:4
-1 1042:1 1225:1 1276:1
-1 502:1 787:1 806:1 845:1 877:1 910:1 1042:1 1072:1 1225:1 1227:1 1229:1 1240:1 1243:1 1255:1 1263:1 1274:1 1276:1
-1 210:1 299:1 422:1 431:1 537:1 555:1 576:1 606:1 806:1 877:1 1042:1 1072:1 1098:1 1221:1 1225:1 1255:1 1263:1 1274:1 1276:1
-1 136:1 502:1 650:1 754:1 1042:1 1217:1 1225:1 1227:1 1245:1 1276:2
-1 903:1 1223:1 1276:1
-1 502:1 597:1 688:1 754:1 787:1 888:1 1042:1 1066:1 1072:1 1076:1 1121:1 1216:1 1217:1 1219:1 1225:1 1227:1 1243:1 1249:1 1255:1 1264:1 1269:1 1276:2
-1 806:1 1042:1 1072:1 1225:1 1255:1 1263:1 1276:2
-1 208:1 210:1 299:1 422:1 431:1 537:1 606:1 700:1 806:1 877:1 1221:1 1263:1 1274:1 1276:2
-1 502:1 754:1 1042:1 1131:1 1217:1 1225:1 1227:1 1276:3
-1 152:1 502:1 565:1 597:1 617:1 650:1 685:1 787:1 888:1 910:1 922:1 950:1 1042:1 1090:1 1216:1 1225:1 1227:1 1229:1 1243:1 1245:1 1269:1 1276:2 1278:3660
-1 502:2 688:1 1042:4 1066:1 1072:3 1219:1 1225:4 1227:2 1249:1 1255:3 1276:5
-1 502:2 688:1 1042:4 1066:1 1072:3 1219:1 1225:4 1227:2 1249:1 1255:3 1276:4
-1 178:1 181:1 230:1 265:1 611:1 784:1 850:1 883:1 898:1 916:1 948:1 1042:1 1225:1 1276:1
-1 311:1 314:1 502:1 640:1 650:1 888:1 1042:1 1072:1 1216:1 1225:1 1227:1 1245:1 1255:1 1276:2
-1 311:1 502:1 650:1 754:1 806:1 888:1 1038:1 1042:1 1072:1 1216:1 1217:1 1225:1 1227:1 1245:1 1255:1 1263:1 1276:2
-1 502:2 688:1 1042:2 1066:1 1072:2 1219:1 1225:2 1227:2 1249:1 1255:2 1276:7
-1 146:1 159:1 208:1 210:1 239:1 252:1 298:1 299:1 366:1 398:1 420:1 422:1 431:1 506:1 507:1 532:1 537:1 562:1 590:1 606:1 805:1 806:1 877:1 1073:1 1162:1 1221:1 1263:1 1274:1 1276:2
-1 1211:1 1273:1 1276:4
-1 502:1 688:1 754:1 764:1 787:1 888:1 1042:1 1072:1 1216:1 1217:1 1219:1 1222:1 1225:1 1227:1 1243:1 1255:1 1276:3
-1 502:1 688:1 754:1 764:1 787:1 888:1 1042:1 1072:1 1216:1 1217:1 1219:1 1222:1 1225:1 1227:1 1243:1 1255:1 1276:3
-1 128:1 159:1 208:1 210:1 239:1 252:1 299:1 335:1 393:1 398:1 409:1 420:1 422:1 431:1 486:1 537:1 550:1 555:1 562:1 590:1 605:1 606:1 776:1 806:1 877:1 924:1 967:1 978:1 1066:1 1089:1 1111:1 1221:1 1249:1 1263:1 1274:1 1276:3
-1 128:1 159:1 208:1 210:1 225:1 299:1 335:1 339:1 398:1 422:1 431:1 500:1 537:1 606:1 659:1 806:1 877:1 914:1 1068:1 1089:1 1221:1 1263:1 1274:1 1276:1
-1 502:1 806:1 877:1 888:1 1042:1 1072:1 1216:1 1225:1 1227:1 1255:1 1263:1 1274:1 1276:2
-1 502:1 541:1 754:1 787:1 806:2 910:1 1042:1 1217:1 1225:1 1227:1 1229:1 1243:1 1263:2 1268:1 1276:5
-1 159:1 210:1 239:1 247:1 252:1 299:1 398:1 420:1 422:1 431:1 486:1 507:1 532:1 537:1 550:1 562:1 590:1 606:1 806:1 877:1 879:1 893:1 929:1 1000:1 1089:1 1139:1 1221:1 1263:1 1274:1 1276:2
-1 877:1 1274:1 1276:1
-1 373:1 502:1 806:1 1042:1 1072:1 1225:1 1227:1 1247:1 1255:1 1263:1 1276:4
-1 877:1 1274:1 1276:1
-1 1042:1 1225:1 1276:2
-1 877:1 1274:1 1276:1
-1 502:1 597:1 650:1 688:1 754:1 764:1 787:1 888:1 980:1 1042:1 1066:1 1072:1 1216:1 1217:1 1219:1 1222:1 1225:1 1227:1 1234:1 1243:1 1245:1 1249:1 1255:1 1269:1 1276:4
-1 502:1 525:1 542:1 754:1 787:1 888:1 915:1 1042:1 1193:1 1216:1 1217:1 1225:1 1227:1 1232:1 1243:1 1254:1 1258:1 1267:1 1276:2 1278:2
-1 502:1 597:1 754:1 787:1 1042:1 1072:1 1217:1 1225:1 1227:1 1243:1 1255:1 1269:1 1276:1
-1 502:1 806:1 888:1 1038:1 1042:1 1066:1 1216:1 1225:1 1227:1 1249:1 1263:1 1276:3
-1 1211:1 1273:1 1276:2
-1 502:1 650:1 754:1 787:1 1042:1 1072:1 1217:1 1225:1 1227:1 1243:1 1245:1 1255:1 1276:1
-1 502:1 597:1 688:1 710:1 754:1 764:1 787:1 888:1 910:1 915:1 1042:1 1066:1 1072:1 1216:1 1217:1 1219:1 1222:1 1225:1 1227:1 1229:1 1232:1 1237:1 1243:1 1249:1 1255:1 1269:1 1276:1
-1 1211:1 1273:1 1276:3
-1 1211:1 1273:1 1276:2
-1 502:1 597:1 688:1 754:1 1042:1 1131:1 1217:1 1219:1 1225:1 1227:1 1269:1 1276:3
-1 686:1 810:1 832:1 887:1 1042:1 1225:1 1276:4
-1 1211:1 1273:1 1276:3
-1 1211:1 1273:1 1276:2
-1 223:1 344:1 647:1 1042:1 1225:1 1276:1
-1 502:2 688:1 754:1 787:1 1042:4 1066:2 1072:2 1217:1 1219:1 1225:4 1227:2 1243:1 1249:2 1255:2 1276:6
-1 502:2 650:1 688:1 754:1 764:1 787:1 888:1 982:1 1042:4 1066:3 1072:2 1193:1 1216:1 1217:1 1219:1 1222:1 1225:4 1227:2 1239:1 1243:1 1245:1 1249:3 1255:2 1258:1 1276:6
-1 1211:1 1273:1 1276:3
-1 378:1 1042:1 1225:1 1276:2
-1 502:1 731:1 754:1 756:1 787:2 1042:2 1160:1 1217:1 1218:1 1225:2 1227:1 1243:2 1276:4
-1 502:1 650:1 764:1 787:1 1042:1 1072:1 1222:1 1225:1 1227:1 1243:1 1245:1 1255:1 1276:2
-1 502:1 650:1 764:1 787:1 1042:1 1072:1 1222:1 1225:1 1227:1 1243:1 1245:1 1255:1 1276:2
-1 1211:1 1273:1 1276:3
-1 223:1 647:1 806:1 878:1 1042:1 1104:1 1225:1 1263:1 1276:2
-1 502:1 787:1 1042:1 1066:1 1225:1 1227:1 1243:1 1249:1 1276:3
-1 1042:1 1225:1 1276:2
-1 150:1 161:1 297:1 327:1 360:1 399:1 502:1 526:1 541:1 545:1 574:1 650:1 668:1 683:1 688:1 709:1 711:1 754:1 764:1 787:1 814:1 863:1 886:1 888:1 910:1 923:1 966:1 1042:1 1066:1 1072:1 1086:1 1215:1 1216:1 1217:1 1219:1 1222:1 1225:1 1227:1 1228:1 1229:1 1236:1 1242:1 1243:1 1244:1 1245:1 1246:1 1249:1 1253:1 1255:1 1257:1 1259:1 1268:1 1271:1 1272:1 1275:1 1276:2 1278:124
-1 143:1 150:1 153:1 161:1 216:1 297:1 346:1 360:1 371:1 373:1 482:1 502:1 508:1 526:1 541:1 545:1 564:1 574:1 650:1 668:1 678:1 683:1 688:1 709:1 710:1 711:1 735:1 754:1 764:1 787:1 814:1 820:1 863:1 877:1 886:1 888:1 909:1 910:1 915:1 923:1 955:1 988:1 1011:1 1042:1 1058:1 1064:1 1066:1 1070:1 1072:1 1086:1 1142:1 1193:1 1214:1 1215:1 1216:1 1217:1 1219:1 1222:1 1225:1 1227:1 1228:1 1229:1 1232:1 1236:1 1237:1 1238:1 1242:1 1243:1 1244:1 1245:1 1246:1 1247:1 1248:1 1249:1 1253:1 1255:1 1257:1 1258:1 1259:1 1265:1 1268:1 1271:1 1272:1 1274:1 1275:1 1276:4 1278:190
-1 161:1 360:1 545:1 877:1 886:1 923:1 1042:1 1086:1 1215:1 1225:1 1228:1 1242:1 1253:1 1271:1 1274:1 1275:1 1276:1
-1 249:1 373:1 502:1 688:1 754:1 787:1 877:1 888:1 910:1 915:1 1042:1 1066:1 1072:1 1216:1 1217:1 1219:1 1225:1 1227:1 1229:1 1232:1 1243:1 1247:1 1249:1 1255:1 1270:1 1274:1 1276:1
-1 502:1 597:1 688:1 754:1 787:1 888:1 910:1 1042:1 1066:1 1072:1 1076:1 1216:1 1217:1 1219:1 1225:1 1227:1 1229:1 1243:1 1249:1 1255:1 1264:1 1269:1 1276:3
-1 178:1 230:1 265:1 515:1 621:1 739:1 1042:1 1225:1 1276:2
-1 502:1 688:1 754:1 764:1 787:1 888:1 1042:1 1072:1 1216:1 1217:1 1219:1 1222:1 1225:1 1227:1 1243:1 1255:1 1276:4
-1 502:1 688:1 754:1 764:1 787:1 888:1 1042:1 1072:1 1216:1 1217:1 1219:1 1222:1 1225:1 1227:1 1243:1 1255:1 1276:4
-1 806:1 979:1 1038:1 1042:1 1225:1 1263:1 1276:2
-1 502:2 688:1 1042:2 1066:1 1072:2 1219:1 1225:2 1227:2 1249:1 1255:2 1276:7
-1 806:2 1042:1 1225:1 1263:2 1276:2
-1 437:1 465:1 1042:1 1225:1 1276:2
-1 502:1 688:1 754:1 764:1 787:1 888:1 1042:1 1072:1 1216:1 1217:1 1219:1 1222:1 1225:1 1227:1 1243:1 1255:1 1276:3
-1 1276:3
-1 1042:1 1225:1 1276:2
-1 210:1 299:1 422:1 431:1 486:1 502:1 537:1 606:1 787:1 806:1 915:1 1042:1 1198:1 1221:1 1225:1 1227:1 1232:1 1243:1 1262:1 1263:1 1276:2
-1 502:2 688:1 1042:2 1066:1 1072:2 1219:1 1225:2 1227:2 1249:1 1255:2 1276:7
-1 650:1 1042:1 1225:1 1245:1 1276:2
-1 230:1 265:1 438:1 502:1 589:1 754:1 787:1 806:1 811:1 1042:1 1217:1 1225:1 1227:1 1243:1 1263:1 1276:2
-1 806:2 1042:1 1225:1 1263:2 1276:2
-1 486:1 502:1 688:1 787:1 806:1 1042:1 1072:1 1080:1 1219:1 1225:1 1227:1 1243:1 1255:1 1263:1 1276:3 1278:39
-1 502:1 597:1 688:1 754:1 787:1 806:1 934:1 1042:1 1072:1 1217:1 1219:1 1225:1 1227:1 1243:1 1255:1 1256:1 1263:1 1269:1 1276:4
-1 326:1 502:1 709:1 888:1 1042:1 1066:1 1216:1 1225:1 1227:1 1236:1 1249:1 1276:2
-1 903:1 1223:1 1276:2
-1 210:1 299:1 422:1 431:1 537:1 606:1 806:1 842:1 1000:1 1221:1 1263:1 1276:2
-1 210:1 299:1 422:1 431:1 486:1 507:1 537:1 606:1 806:1 842:1 1000:1 1139:1 1221:1 1263:1 1276:2
-1 1211:1 1273:1 1276:4
-1 502:1 688:1 806:1 1042:1 1219:1 1225:1 1227:1 1263:1 1276:2
-1 297:1 502:1 597:1 650:1 688:1 709:1 754:1 764:1 787:1 888:1 1042:1 1066:1 1072:1 1216:1 1217:1 1219:1 1222:1 1225:1 1227:1 1236:1 1243:1 1244:1 1245:1 1249:1 1255:1 1269:1 1276:5
-1 502:2 688:1 1042:2 1066:1 1072:2 1219:1 1225:2 1227:2 1249:1 1255:2 1276:7
-1 502:2 688:1 1042:2 1066:1 1072:2 1219:1 1225:2 1227:2 1249:1 1255:2 1276:7
-1 1211:1 1273:1 1276:3
-1 249:1 378:1 400:1 448:1 502:1 613:1 754:1 1002:1 1042:1 1217:1 1225:1 1227:1 1270:1 1276:1
-1 344:1 479:1 502:1 688:1 754:1 892:1 969:1 1028:1 1042:1 1141:1 1217:1 1219:1 1225:1 1227:1 1276:1
-1 502:2 650:1 688:1 754:1 888:1 1042:3 1066:1 1072:2 1216:1 1217:1 1219:1 1225:3 1227:2 1245:1 1249:1 1255:2 1276:6
-1 1211:1 1273:1 1276:4
-1 502:2 688:1 1042:2 1066:1 1072:2 1219:1 1225:2 1227:2 1249:1 1255:2 1276:7
-1 149:1 401:1 502:1 536:1 673:1 688:1 754:1 764:1 888:1 980:1 1042:1 1072:1 1216:1 1217:1 1219:1 1222:1 1225:1 1227:1 1234:1 1255:1 1266:1 1276:2
-1 143:1 373:1 502:1 541:1 597:1 688:1 710:1 754:1 764:1 787:1 794:1 820:1 888:1 910:1 915:1 981:1 1042:1 1066:1 1072:1 1076:1 1165:1 1193:1 1198:1 1214:1 1216:1 1217:1 1219:1 1222:1 1225:1 1226:1 1227:1 1229:1 1232:1 1235:1 1237:1 1238:1 1243:1 1247:1 1249:1 1255:1 1258:1 1262:1 1264:1 1268:1 1269:1 1276:1
-1 143:1 325:1 368:1 373:1 502:1 525:1 541:1 754:1 764:1 787:1 888:1 910:1 915:1 934:1 981:1 1042:1 1064:1 1066:1 1072:1 1142:1 1216:1 1217:1 1222:1 1225:1 1227:1 1229:1 1232:1 1235:1 1238:1 1243:1 1247:1 1249:1 1254:1 1255:1 1256:1 1265:1 1268:1 1276:1
-1 502:2 688:1 1042:2 1066:1 1072:2 1219:1 1225:2 1227:2 1249:1 1255:2 1276:7
-1 806:1 1263:1 1276:3
-1 502:1 566:1 597:1 650:1 688:1 754:1 787:1 806:1 888:1 980:1 1042:1 1072:1 1216:1 1217:1 1219:1 1225:1 1227:1 1234:1 1243:1 1245:1 1255:1 1263:1 1269:1 1276:4
-1 130:1 208:1 210:1 212:1 225:1 247:1 299:1 331:1 350:1 366:1 398:1 420:1 422:1 431:1 486:1 500:1 502:1 507:1 516:1 532:1 533:1 537:1 544:1 558:1 562:1 606:1 631:1 633:1 641:1 648:1 699:1 754:1 761:1 787:1 805:1 806:1 824:1 833:1 842:1 877:1 915:1 924:1 940:1 944:1 977:1 1000:1 1015:1 1089:1 1139:1 1142:1 1148:1 1170:1 1217:1 1221:1 1227:1 1232:1 1243:1 1261:1 1263:1 1265:1 1274:1 1276:2
-1 256:1 806:1 820:1 877:1 910:1 1042:1 1072:1 1214:1 1225:1 1229:1 1255:1 1263:1 1274:1 1276:2
-1 159:1 210:1 244:1 248:1 252:1 262:1 383:1 420:1 422:1 431:1 562:1 612:1 655:1 712:1 806:1 818:1 877:1 889:1 914:1 1089:1 1184:1 1221:1 1263:1 1274:1 1276:2 1278:23
-1 257:1 502:1 688:1 754:1 806:1 888:1 1042:1 1066:1 1072:1 1216:1 1217:1 1219:1 1225:1 1227:1 1249:1 1255:1 1263:1 1276:2
-1 502:1 688:1 714:1 787:1 806:1 820:1 877:1 888:1 1042:1 1072:1 1080:1 1214:1 1216:1 1219:1 1225:1 1227:1 1243:1 1255:1 1263:1 1274:1 1276:1 1278:39
-1 210:1 299:1 422:1 431:1 486:1 537:1 606:1 737:1 787:1 806:1 855:1 1042:1 1187:1 1221:1 1225:1 1243:1 1263:1 1276:3
-1 143:1 486:1 502:1 787:1 806:1 820:1 981:1 1042:1 1066:1 1072:1 1214:1 1225:1 1227:1 1235:1 1238:1 1243:1 1249:1 1255:1 1263:1 1276:1
-1 502:1 714:1 787:1 806:1 842:1 888:1 910:1 998:1 1000:1 1042:1 1072:1 1080:1 1154:1 1216:1 1225:1 1227:1 1229:1 1243:1 1255:1 1263:1 1276:3 1278:39
-1 610:1 787:1 806:1 1042:1 1225:1 1243:1 1263:1 1276:3
-1 249:1 373:1 502:1 541:1 710:1 754:1 787:1 794:1 888:1 910:1 980:1 1042:1 1072:1 1165:1 1193:1 1216:1 1217:1 1225:1 1226:1 1227:1 1229:1 1234:1 1237:1 1243:1 1247:1 1255:1 1258:1 1268:1 1270:1 1276:2
-1 502:2 688:1 1042:2 1066:1 1072:2 1219:1 1225:2 1227:2 1249:1 1255:2 1276:7
-1 903:1 1223:1 1276:1
-1 502:2 806:1 1042:4 1066:2 1072:1 1225:4 1227:2 1249:2 1255:1 1263:1 1276:5
-1 1042:1 1225:1 1276:2
-1 1042:1 1225:1 1276:2
-1 249:1 502:1 688:1 754:1 764:1 787:1 820:1 888:1 915:1 1042:1 1066:1 1072:1 1214:1 1216:1 1217:1 1219:1 1222:1 1225:1 1227:1 1232:1 1243:1 1249:1 1255:1 1270:1 1276:2
-1 806:1 1263:1 1276:3
-1 230:1 265:1 305:1 502:1 597:1 688:1 754:1 787:1 888:1 1042:1 1066:1 1072:1 1076:1 1216:1 1217:1 1219:1 1225:1 1227:1 1243:1 1249:1 1251:1 1255:1 1264:1 1269:1 1276:2
-1 256:1 787:1 806:1 820:1 877:1 910:1 1042:1 1072:1 1214:1 1225:1 1229:1 1243:1 1255:1 1263:1 1274:1 1276:2
-1 1211:1 1273:1 1276:3
-1 249:1 297:1 443:1 502:1 597:1 650:1 688:1 709:1 754:1 764:1 787:1 845:1 888:1 910:1 934:1 980:1 1042:1 1066:1 1072:1 1216:1 1217:1 1219:1 1222:1 1225:1 1227:1 1229:1 1234:1 1236:1 1240:1 1243:1 1244:1 1245:1 1249:1 1255:1 1256:1 1269:1 1270:1 1276:1
-1 502:2 597:1 688:1 754:1 764:1 787:2 888:1 1042:4 1066:3 1072:2 1216:1 1217:1 1219:1 1222:1 1225:4 1227:2 1243:2 1249:3 1255:2 1269:1 1276:6
-1 806:2 980:1 1042:1 1225:1 1234:1 1263:2 1276:3
-1 1042:1 1225:1 1276:2
-1 1042:1 1225:1 1276:2
-1 1042:1 1225:1 1276:3
-1 1211:1 1273:1 1276:3
-1 1042:1 1225:1 1276:3
-1 806:1 1042:1 1225:1 1263:1 1276:3
-1 502:1 754:1 787:1 806:2 888:1 980:1 1042:1 1216:1 1217:1 1225:1 1227:1 1234:1 1243:1 1263:2 1276:2
-1 159:1 208:1 210:1 299:1 420:1 422:1 431:1 436:1 486:1 500:1 532:1 537:1 606:1 806:1 848:1 977:1 990:1 1000:1 1139:1 1221:1 1250:1 1263:1 1276:1 1278:3
-1 1042:1 1225:1 1276:3
-1 210:1 299:1 355:1 422:1 431:1 486:1 537:1 606:1 806:1 842:1 877:1 998:1 1000:1 1042:1 1049:1 1072:1 1163:1 1221:1 1225:1 1255:1 1263:1 1274:1 1276:1
-1 249:1 502:1 688:1 754:1 787:1 806:1 845:1 877:1 888:1 910:1 940:1 1042:1 1216:1 1217:1 1219:1 1225:1 1227:1 1229:1 1240:1 1243:1 1261:1 1263:1 1270:1 1274:1 1276:2
-1 760:1 787:1 806:1 888:1 1042:1 1216:1 1225:1 1243:1 1263:1 1276:3
-1 760:1 787:1 806:1 888:1 1042:1 1216:1 1225:1 1243:1 1263:1 1276:3
-1 225:1 239:1 398:1 423:1 537:1 562:1 675:1 687:1 780:1 806:1 983:1 1075:1 1089:1 1146:1 1187:1 1263:1 1276:2
-1 389:1 502:1 597:1 650:1 688:1 754:1 764:1 787:1 888:1 910:1 1042:1 1072:1 1216:1 1217:1 1219:1 1222:1 1225:1 1227:1 1229:1 1243:1 1245:1 1255:1 1269:1 1276:2 1278:69
-1 230:1 265:1 611:1 806:2 850:1 1042:1 1225:1 1263:2 1276:3
-1 502:1 688:1 754:1 764:1 787:1 820:1 888:1 1042:1 1066:1 1072:1 1214:1 1216:1 1217:1 1219:1 1222:1 1225:1 1227:1 1243:1 1249:1 1255:1 1276:3
-1 502:1 597:1 806:2 1042:1 1225:1 1227:1 1263:2 1269:1 1276:2
-1 1211:1 1273:1 1276:3
-1 373:1 376:1 618:1 1007:1 1042:1 1072:1 1225:1 1247:1 1255:1 1276:1
-1 373:1 376:1 618:1 1007:1 1042:1 1072:1 1225:1 1247:1 1255:1 1276:1
-1 903:1 1223:1 1276:1
-1 373:1 502:1 597:1 650:1 754:1 787:1 806:2 888:1 934:1 1042:1 1066:1 1072:1 1216:1 1217:1 1225:1 1227:1 1243:1 1245:1 1247:1 1249:1 1255:1 1256:1 1263:2 1269:1 1276:2
-1 230:1 265:1 373:1 502:1 611:1 806:2 850:1 1042:1 1168:1 1225:1 1227:1 1247:1 1263:2 1276:2
-1 378:1 502:1 754:1 762:1 965:1 1042:1 1217:1 1225:1 1227:1 1276:1 1278:5
-1 210:1 298:1 299:1 373:1 422:1 431:1 461:1 502:1 537:1 606:1 756:1 806:1 877:1 893:1 983:1 1042:1 1072:1 1187:1 1218:1 1221:1 1225:1 1227:1 1247:1 1255:1 1260:1 1263:1 1274:1 1276:2
-1 208:1 210:1 252:1 299:1 398:1 420:1 422:1 431:1 500:1 502:1 532:1 537:1 562:1 576:1 577:1 592:1 606:1 806:1 877:1 893:1 1221:1 1227:1 1263:1 1274:1 1276:2
-1 806:1 877:1 1042:1 1072:1 1225:1 1255:1 1263:1 1274:1 1276:1
-1 1211:1 1273:1 1276:3
-1 373:1 502:1 787:1 1042:1 1225:1 1227:1 1243:1 1247:1 1276:2
-1 502:2 688:1 1042:2 1066:1 1072:2 1219:1 1225:2 1227:2 1249:1 1255:2 1276:7
-1 1211:1 1273:1 1276:2
-1 502:1 688:1 754:1 764:1 787:1 888:1 1042:1 1072:1 1216:1 1217:1 1219:1 1222:1 1225:1 1227:1 1243:1 1255:1 1276:2
-1 502:2 688:1 754:1 764:1 1042:5 1066:2 1072:2 1217:1 1219:1 1222:1 1225:5 1227:2 1249:2 1255:2 1276:6
-1 806:1 888:1 1042:1 1072:1 1216:1 1225:1 1255:1 1263:1 1276:1
-1 265:1 373:1 502:1 505:1 650:1 710:1 739:1 754:1 764:1 787:1 888:1 910:1 934:1 1042:1 1066:1 1070:1 1072:1 1165:1 1216:1 1217:1 1222:1 1225:1 1226:1 1227:1 1229:1 1237:1 1243:1 1245:1 1247:1 1249:1 1255:1 1256:1 1276:2 1278:59
-1 323:1 502:1 754:1 806:1 1042:1 1072:1 1142:1 1217:1 1225:1 1227:1 1255:1 1263:1 1265:1 1276:1
-1 297:1 502:1 597:1 650:1 688:1 709:1 754:1 764:1 787:1 888:1 1042:1 1066:1 1072:1 1216:1 1217:1 1219:1 1222:1 1225:1 1227:1 1236:1 1243:1 1244:1 1245:1 1249:1 1255:1 1269:1 1276:5
-1 502:1 597:1 688:1 754:1 764:1 787:1 1042:1 1066:1 1072:1 1217:1 1219:1 1222:1 1225:1 1227:1 1243:1 1249:1 1255:1 1269:1 1276:5
-1 208:1 210:1 225:1 299:1 398:1 420:1 422:1 431:1 486:1 507:1 537:1 606:1 684:1 806:1 1035:1 1043:1 1089:1 1221:1 1263:1 1276:3
-1 1211:1 1273:1 1276:4
-1 1211:1 1273:1 1276:4
-1 1042:1 1225:1 1276:2
-1 720:1 806:1 1042:1 1072:1 1225:1 1255:1 1263:1 1276:3
-1 1211:1 1273:1 1276:3
-1 1211:1 1273:1 1276:3
-1 502:1 688:1 754:1 888:1 1042:1 1066:1 1072:1 1193:1 1216:1 1217:1 1219:1 1225:1 1227:1 1249:1 1255:1 1258:1 1276:1
-1 502:2 597:1 688:1 754:1 764:1 1042:5 1066:2 1072:2 1217:1 1219:1 1222:1 1225:5 1227:2 1249:2 1255:2 1269:1 1276:7
-1 502:2 597:1 650:2 688:1 754:1 888:1 1042:3 1066:2 1072:1 1216:1 1217:1 1219:1 1225:3 1227:2 1245:2 1249:2 1255:1 1269:1 1276:6
-1 1042:1 1225:1 1276:2
-1 502:2 650:1 688:1 754:1 764:1 888:1 1042:4 1066:3 1072:2 1216:1 1217:1 1219:1 1222:1 1225:4 1227:2 1245:1 1249:3 1255:2 1276:6
-1 502:2 597:1 650:1 688:1 754:1 764:1 888:1 1042:4 1066:3 1072:2 1216:1 1217:1 1219:1 1222:1 1225:4 1227:2 1245:1 1249:3 1255:2 1269:1 1276:6
-1 159:1 208:1 210:1 225:1 299:1 366:1 398:1 420:1 422:1 431:1 486:1 500:1 507:1 532:1 537:1 562:1 590:1 606:1 612:1 806:1 820:1 877:1 924:1 982:1 1066:1 1089:1 1214:1 1221:1 1239:1 1249:1 1263:1 1274:1 1276:2
-1 263:1 806:1 1042:1 1225:1 1263:1 1276:8
-1 594:1 806:1 931:1 1042:1 1130:1 1225:1 1263:1 1276:6
-1 265:1 502:1 754:1 806:2 1042:1 1217:1 1225:1 1227:1 1263:2 1276:2
-1 502:2 597:1 688:1 754:1 787:2 888:1 1042:3 1066:2 1072:2 1216:1 1217:1 1219:1 1225:3 1227:2 1243:2 1249:2 1255:2 1269:1 1276:6
-1 502:2 597:1 688:1 754:1 787:1 888:1 1042:4 1066:2 1072:2 1216:1 1217:1 1219:1 1225:4 1227:2 1243:1 1249:2 1255:2 1269:1 1276:6
-1 594:1 806:1 931:1 1042:1 1130:1 1225:1 1263:1 1276:6
-1 502:1 597:1 688:1 754:1 1042:1 1072:1 1217:1 1219:1 1225:1 1227:1 1255:1 1269:1 1276:1
-1 146:1 159:1 208:1 210:1 225:1 252:1 266:1 299:1 335:1 398:1 420:1 422:1 431:1 500:1 537:1 606:1 806:1 877:1 914:1 924:1 930:1 1089:1 1221:1 1263:1 1274:1 1276:2
-1 297:1 502:2 597:1 688:1 754:1 764:1 787:3 888:1 1042:4 1066:3 1072:2 1216:1 1217:1 1219:1 1222:1 1225:4 1227:2 1243:3 1244:1 1249:3 1255:2 1269:1 1276:6
-1 210:1 537:1 606:1 787:1 806:1 842:1 1000:1 1042:1 1072:1 1139:1 1225:1 1243:1 1255:1 1263:1 1276:2
-1 1211:1 1273:1 1276:3
-1 1211:1 1273:1 1276:4
-1 1211:1 1273:1 1276:3
-1 1211:1 1273:1 1276:3
-1 1211:1 1273:1 1276:3
-1 1211:1 1273:1 1276:3
-1 1211:1 1273:1 1276:3
-1 486:1 502:1 714:1 806:1 842:1 934:1 1000:1 1042:1 1072:1 1139:1 1225:1 1227:1 1255:1 1256:1 1263:1 1276:3
-1 502:1 754:1 787:1 888:1 1042:1 1216:1 1217:1 1225:1 1227:1 1243:1 1276:1
-1 502:1 525:1 542:1 754:1 787:1 888:1 915:1 1042:1 1193:1 1216:1 1217:1 1225:1 1227:1 1232:1 1243:1 1254:1 1258:1 1267:1 1276:2 1278:2
-1 903:1 1223:1 1276:1
-1 502:1 688:1 754:1 764:1 787:1 888:1 1042:1 1072:1 1216:1 1217:1 1219:1 1222:1 1225:1 1227:1 1243:1 1255:1 1276:3
-1 502:1 650:1 754:1 806:1 1042:1 1217:1 1225:1 1227:1 1245:1 1263:1 1276:2
-1 806:1 1042:1 1225:1 1263:1 1276:2
-1 502:1 597:1 688:1 754:1 787:1 806:1 888:1 980:1 1042:1 1072:1 1216:1 1217:1 1219:1 1225:1 1227:1 1234:1 1243:1 1255:1 1263:1 1269:1 1276:2
-1 502:1 754:1 806:1 1042:1 1217:1 1225:1 1227:1 1263:1 1276:2
-1 1211:1 1273:1 1276:2
-1 210:1 239:1 247:1 252:1 299:1 420:1 422:1 431:1 507:1 537:1 550:1 562:1 576:1 583:1 590:1 606:1 631:1 805:1 806:1 924:1 977:1 1089:1 1221:1 1263:1 1276:3
-1 502:1 787:1 806:1 849:1 874:1 1038:1 1042:1 1066:1 1181:1 1225:1 1227:1 1243:1 1249:1 1263:1 1276:2
-1 305:1 502:1 688:1 754:1 806:1 888:1 1038:1 1042:1 1216:1 1217:1 1219:1 1225:1 1227:1 1251:1 1263:1 1276:3
-1 1211:1 1273:1 1276:3
-1 502:1 787:1 806:1 1042:1 1072:1 1225:1 1227:1 1243:1 1255:1 1263:1 1276:3
-1 1042:1 1225:1 1276:1
-1 373:1 502:1 688:1 754:1 787:1 1042:1 1217:1 1219:1 1225:1 1227:1 1243:1 1247:1 1276:2
-1 806:2 931:1 949:1 1042:1 1225:1 1263:2 1276:5
-1 980:1 1042:1 1225:1 1234:1 1276:2
-1 705:1 787:1 806:2 931:1 949:1 1042:1 1225:1 1243:1 1263:2 1276:5
-1 502:1 650:1 688:1 754:1 787:1 1042:1 1072:1 1217:1 1219:1 1225:1 1227:1 1243:1 1245:1 1255:1 1276:2
-1 806:2 1042:1 1225:1 1263:2 1276:2
-1 143:1 249:1 461:1 502:1 688:1 722:1 754:1 820:1 888:1 910:1 915:1 1042:1 1066:1 1072:1 1198:1 1214:1 1216:1 1217:1 1219:1 1225:1 1227:1 1229:1 1232:1 1238:1 1249:1 1255:1 1260:1 1262:1 1270:1 1276:1
-1 744:1 1276:3
-1 705:1 730:1 806:2 931:1 949:1 1042:1 1225:1 1263:2 1276:6
-1 344:1 1042:1 1225:1 1276:2
-1 1211:1 1273:1 1276:4
-1 437:1 650:1 1042:1 1225:1 1245:1 1276:2
-1 502:2 688:1 1042:2 1066:1 1072:2 1219:1 1225:2 1227:2 1249:1 1255:2 1276:7
-1 201:1 249:1 260:1 274:1 347:1 378:1 400:1 435:1 448:1 467:1 490:1 502:1 587:1 613:1 624:1 646:1 719:1 754:1 872:1 888:1 951:1 1002:1 1042:1 1204:1 1216:1 1217:1 1225:1 1227:1 1270:1 1276:1
-1 437:1 1042:1 1225:1 1276:2
-1 806:2 1036:1 1042:1 1225:1 1263:2 1276:2
-1 502:2 688:1 1042:2 1066:1 1072:2 1219:1 1225:2 1227:2 1249:1 1255:2 1276:6
-1 297:1 502:2 597:1 650:1 688:1 754:1 764:1 787:3 888:1 1042:7 1066:3 1072:2 1216:1 1217:1 1219:1 1222:1 1225:7 1227:2 1243:3 1244:1 1245:1 1249:3 1255:2 1269:1 1276:6
-1 1211:1 1273:1 1276:4
-1 502:1 650:1 1042:1 1072:1 1225:1 1227:1 1245:1 1255:1 1276:3
-1 502:1 650:1 1042:1 1072:1 1225:1 1227:1 1245:1 1255:1 1276:3
-1 502:1 597:1 688:1 709:1 754:1 764:1 787:1 888:1 910:1 1042:1 1066:1 1072:1 1076:1 1216:1 1217:1 1219:1 1222:1 1225:1 1227:1 1229:1 1236:1 1243:1 1249:1 1255:1 1264:1 1269:1 1276:1
-1 903:1 1223:1 1276:1
-1 159:1 208:1 210:1 252:1 299:1 310:1 366:1 398:1 420:1 422:1 431:1 500:1 532:1 533:1 537:1 562:1 605:1 606:1 806:1 924:1 944:1 1133:1 1210:1 1221:1 1263:1 1276:2
-1 132:1 167:1 254:1 413:1 502:1 542:1 754:1 794:1 806:1 820:1 877:1 888:1 915:1 1042:1 1066:1 1072:1 1142:1 1193:1 1214:1 1216:1 1217:1 1225:1 1227:1 1232:1 1249:1 1255:1 1258:1 1263:1 1265:1 1267:1 1274:1 1276:2
-1 132:1 167:1 187:1 413:1 461:1 482:1 502:1 542:1 688:1 754:1 764:1 787:1 794:1 806:1 820:1 877:1 888:1 915:1 918:1 1042:1 1066:1 1072:1 1142:1 1214:1 1216:1 1217:1 1219:1 1222:1 1225:1 1227:1 1232:1 1233:1 1243:1 1249:1 1255:1 1260:1 1263:1 1265:1 1267:1 1274:1 1276:1
-1 502:1 688:1 754:1 787:1 1042:1 1072:1 1217:1 1219:1 1225:1 1227:1 1243:1 1255:1 1276:3
-1 806:2 1042:1 1225:1 1263:2 1276:2
-1 1211:1 1273:1 1276:3
-1 1211:1 1273:1 1276:2
-1 1042:1 1225:1 1276:1
-1 502:1 661:1 806:1 1042:1 1225:1 1227:1 1263:1 1276:2
-1 210:1 299:1 422:1 431:1 486:1 537:1 576:1 606:1 806:1 842:1 1042:1 1072:1 1221:1 1225:1 1255:1 1263:1 1276:3
-1 1211:1 1273:1 1276:3
-1 210:1 299:1 422:1 431:1 486:1 502:1 537:1 546:1 606:1 688:1 754:1 806:1 888:1 1042:1 1072:1 1216:1 1217:1 1219:1 1221:1 1225:1 1227:1 1255:1 1263:1 1276:1
-1 903:1 1223:1 1276:1
-1 1211:1 1273:1 1276:3
-1 1211:1 1273:1 1276:3
-1 146:1 210:1 225:1 239:1 299:1 373:1 398:1 420:1 422:1 431:1 537:1 567:1 606:1 806:1 867:1 877:1 914:1 1221:1 1247:1 1263:1 1274:1 1276:2
-1 218:1 249:1 311:1 502:1 512:1 542:1 642:1 650:1 688:1 709:1 754:1 787:1 806:1 877:1 888:1 910:1 1008:1 1042:1 1066:1 1072:1 1216:1 1217:1 1219:1 1225:1 1227:1 1229:1 1236:1 1243:1 1245:1 1249:1 1255:1 1263:1 1267:1 1270:1 1274:1 1276:1
-1 502:1 661:1 806:1 877:1 1042:1 1225:1 1227:1 1263:1 1274:1 1276:1
-1 502:1 562:1 806:1 877:1 1042:1 1225:1 1227:1 1263:1 1274:1 1276:2
-1 1211:1 1273:1 1276:3
-1 502:1 806:1 877:1 1042:1 1072:1 1225:1 1227:1 1255:1 1263:1 1274:1 1276:1
-1 208:1 210:1 431:1 606:1 697:1 700:1 806:1 877:1 942:1 1263:1 1274:1 1276:2
-1 502:1 697:1 700:1 806:1 877:1 1042:1 1072:1 1225:1 1227:1 1255:1 1263:1 1274:1 1276:2
-1 257:1 502:1 688:1 754:1 806:1 888:1 1042:1 1066:1 1072:1 1216:1 1217:1 1219:1 1225:1 1227:1 1249:1 1255:1 1263:1 1276:2
-1 1042:1 1225:1 1276:1
-1 373:1 502:1 764:1 806:1 877:1 910:1 1042:1 1222:1 1225:1 1227:1 1229:1 1247:1 1263:1 1274:1 1276:2
-1 164:1 502:1 541:1 650:1 710:1 764:1 787:1 981:1 1042:1 1072:1 1222:1 1225:1 1227:1 1235:1 1237:1 1243:1 1245:1 1255:1 1268:1 1276:3 1278:2
-1 502:1 597:1 650:1 688:1 754:1 764:1 787:1 888:1 1042:1 1066:1 1072:1 1128:1 1216:1 1217:1 1219:1 1222:1 1225:1 1227:1 1243:1 1245:1 1249:1 1255:1 1269:1 1276:5
-1 1211:1 1273:1 1276:3
-1 241:1 502:1 787:1 806:1 842:1 877:1 888:1 990:1 1000:1 1042:1 1066:1 1072:1 1139:1 1216:1 1225:1 1227:1 1243:1 1249:1 1250:1 1255:1 1263:1 1274:1 1276:1
-1 241:1 502:1 787:1 806:1 842:1 877:1 888:1 990:1 1000:1 1042:1 1066:1 1072:1 1139:1 1216:1 1225:1 1227:1 1243:1 1249:1 1250:1 1255:1 1263:1 1274:1 1276:1
-1 159:1 210:1 299:1 420:1 422:1 431:1 436:1 486:1 507:1 537:1 606:1 806:1 888:1 977:1 990:1 1000:1 1042:1 1139:1 1216:1 1221:1 1225:1 1250:1 1263:1 1276:1 1278:3
-1 502:1 806:1 820:1 877:1 885:1 915:1 918:1 940:1 946:1 1042:1 1057:1 1072:1 1214:1 1225:1 1227:1 1232:1 1255:1 1261:1 1263:1 1274:1 1276:3
-1 373:1 424:1 806:1 1042:1 1072:1 1225:1 1247:1 1255:1 1263:1 1276:1
-1 594:1 806:1 931:1 1042:1 1130:1 1225:1 1263:1 1276:6
-1 405:1 715:1 806:1 1042:1 1225:1 1263:1 1276:3
-1 169:1 502:1 597:1 688:1 754:1 764:1 906:1 1042:1 1186:1 1217:1 1219:1 1222:1 1225:1 1227:1 1269:1 1276:2 1278:2
-1 363:1 502:1 806:1 1042:1 1225:1 1227:1 1263:1 1276:2
-1 1211:1 1273:1 1276:4
-1 502:2 597:1 688:1 754:1 764:1 787:1 888:1 1042:5 1066:3 1072:2 1076:1 1216:1 1217:1 1219:1 1222:1 1225:5 1227:2 1243:1 1249:3 1255:2 1264:1 1269:1 1276:6
-1 502:2 688:1 754:1 764:1 787:2 888:1 1042:5 1066:3 1072:2 1216:1 1217:1 1219:1 1222:1 1225:5 1227:2 1243:2 1249:3 1255:2 1276:6
-1 159:1 208:1 210:1 252:1 299:1 398:1 420:1 422:1 431:1 486:1 500:1 502:1 507:1 532:1 537:1 562:1 606:1 688:1 754:1 787:1 806:1 877:1 888:1 910:1 924:1 944:1 1042:1 1066:1 1212:1 1216:1 1217:1 1219:1 1221:1 1225:1 1227:1 1229:1 1243:1 1249:1 1263:1 1274:1 1276:2
-1 502:1 787:1 806:1 1038:1 1042:1 1225:1 1227:1 1243:1 1263:1 1276:3
-1 502:2 688:1 754:1 764:1 787:2 888:1 1042:4 1066:2 1072:2 1216:1 1217:1 1219:1 1222:1 1225:4 1227:2 1243:2 1249:2 1255:2 1276:6
-1 1211:1 1273:1 1276:3
-1 502:1 806:1 1042:1 1225:1 1227:1 1263:1 1276:2
-1 178:1 181:1 230:1 265:1 611:1 784:1 883:1 916:1 948:1 1042:1 1225:1 1276:1
-1 373:1 502:1 764:1 806:1 877:1 910:1 1042:1 1072:1 1222:1 1225:1 1227:1 1229:1 1247:1 1255:1 1263:1 1274:1 1276:2
-1 502:1 688:1 1042:1 1066:1 1072:1 1219:1 1225:1 1227:1 1249:1 1255:1 1276:5
-1 132:1 159:1 208:1 210:1 225:1 244:1 247:1 252:1 299:1 351:1 366:1 398:1 420:1 422:1 431:1 486:1 500:1 507:1 516:1 532:1 537:1 550:1 562:1 596:1 606:1 612:1 791:1 806:1 820:1 834:1 842:1 877:1 915:1 924:1 940:1 941:1 944:1 977:1 1000:1 1066:1 1083:1 1089:1 1170:1 1214:1 1221:1 1232:1 1249:1 1261:1 1263:1 1274:1 1276:3
-1 502:1 597:1 650:1 688:1 754:1 787:1 888:1 1042:1 1072:1 1216:1 1217:1 1219:1 1225:1 1227:1 1243:1 1245:1 1255:1 1269:1 1276:4
-1 502:1 688:1 754:1 764:1 787:1 888:1 1042:1 1072:1 1216:1 1217:1 1219:1 1222:1 1225:1 1227:1 1243:1 1255:1 1276:2
-1 502:1 787:1 806:1 1042:1 1072:1 1225:1 1227:1 1243:1 1255:1 1263:1 1276:3
-1 208:1 210:1 239:1 247:1 299:1 420:1 422:1 431:1 486:1 500:1 507:1 532:1 537:1 562:1 606:1 631:1 708:1 806:1 842:1 977:1 1000:1 1139:1 1221:1 1263:1 1276:2
-1 210:1 252:1 299:1 398:1 422:1 431:1 486:1 502:1 537:1 606:1 806:1 845:1 877:1 910:1 1000:1 1042:1 1072:1 1221:1 1225:1 1227:1 1229:1 1240:1 1255:1 1263:1 1274:1 1276:2
-1 159:1 208:1 210:1 239:1 247:1 252:1 299:1 398:1 420:1 422:1 431:1 462:1 486:1 500:1 502:1 507:1 532:1 537:1 550:1 562:1 606:1 631:1 714:1 806:1 842:1 877:1 888:1 910:1 977:1 1000:1 1066:1 1139:1 1216:1 1221:1 1227:1 1229:1 1249:1 1263:1 1274:1 1276:3
-1 806:1 1042:1 1225:1 1263:1 1276:2
-1 806:2 1042:1 1225:1 1263:2 1276:2
-1 502:1 584:1 597:1 688:1 754:1 764:1 787:1 806:1 888:1 992:1 1042:1 1072:1 1216:1 1217:1 1219:1 1222:1 1225:1 1227:1 1243:1 1255:1 1263:1 1269:1 1276:1
-1 187:1 502:1 688:1 754:1 764:1 806:1 1042:1 1072:1 1217:1 1219:1 1222:1 1225:1 1227:1 1233:1 1255:1 1263:1 1276:2
-1 127:1 146:1 159:1 208:1 210:1 239:1 252:1 285:1 299:1 366:1 398:1 420:1 422:1 431:1 500:1 533:1 537:1 550:1 562:1 596:1 606:1 612:1 806:1 848:1 877:1 914:1 924:1 936:1 944:1 978:1 1089:1 1221:1 1263:1 1274:1 1276:2
-1 159:1 208:1 210:1 239:1 252:1 299:1 398:1 422:1 431:1 500:1 537:1 550:1 562:1 606:1 806:1 914:1 924:1 1206:1 1221:1 1263:1 1276:3
-1 129:1 187:1 459:1 502:1 688:1 710:1 806:1 992:1 1042:1 1072:1 1219:1 1225:1 1227:1 1233:1 1237:1 1255:1 1263:1 1276:2
-1 806:2 1042:1 1072:1 1225:1 1255:1 1263:2 1276:4
-1 169:1 407:1 502:1 627:1 1042:1 1225:1 1227:1 1276:3 1278:2
-1 502:1 541:1 597:1 754:1 787:1 888:1 910:1 1029:1 1042:1 1066:1 1072:1 1076:1 1142:1 1216:1 1217:1 1225:1 1227:1 1229:1 1243:1 1249:1 1255:1 1264:1 1265:1 1268:1 1269:1 1276:1
-1 449:1 502:1 688:1 787:1 1042:1 1219:1 1225:1 1227:1 1243:1 1276:2
-1 305:1 502:1 597:1 688:1 754:1 888:1 1042:1 1066:1 1072:1 1076:1 1142:1 1216:1 1217:1 1219:1 1225:1 1227:1 1249:1 1251:1 1255:1 1264:1 1265:1 1269:1 1276:2
-1 1211:1 1273:1 1276:3
-1 502:1 754:1 806:1 992:1 1042:1 1217:1 1225:1 1227:1 1263:1 1276:2
-1 502:1 688:1 754:1 764:1 787:1 888:1 1042:1 1072:1 1216:1 1217:1 1219:1 1222:1 1225:1 1227:1 1243:1 1255:1 1276:3
-1 502:1 764:1 787:1 806:1 888:1 992:1 1042:1 1072:1 1216:1 1222:1 1225:1 1227:1 1243:1 1255:1 1263:1 1276:1
-1 903:1 1223:1 1276:1
-1 396:1 502:1 637:1 688:1 705:1 730:1 787:1 806:2 870:1 931:1 949:1 1042:1 1219:1 1225:1 1227:1 1230:1 1243:1 1263:2 1276:5 1278:35
-1 502:1 597:1 650:1 688:1 754:1 756:1 764:1 787:1 888:1 1042:1 1066:1 1072:1 1095:1 1216:1 1217:1 1218:1 1219:1 1222:1 1225:1 1227:1 1243:1 1245:1 1249:1 1255:1 1269:1 1276:5
-1 492:1 502:1 688:1 764:1 806:1 877:1 1042:1 1072:1 1219:1 1222:1 1225:1 1227:1 1255:1 1263:1 1274:1 1276:2
-1 806:2 1042:1 1225:1 1263:2 1276:3
-1 806:2 1042:1 1225:1 1263:2 1276:2
-1 230:1 265:1 515:1 1042:1 1225:1 1276:2
-1 230:1 265:1 385:1 502:1 754:1 806:2 1042:1 1217:1 1225:1 1227:1 1263:2 1276:2
-1 154:1 806:1 1042:1 1225:1 1263:1 1276:3
-1 903:1 1223:1 1276:1
-1 903:1 1223:1 1276:1
-1 1211:1 1273:1 1276:3
-1 502:1 597:1 688:1 754:1 787:1 806:2 888:1 1042:1 1066:1 1072:1 1209:31 1216:1 1217:1 1219:1 1225:1 1227:1 1243:1 1249:1 1255:1 1263:2 1269:1 1276:2
-1 159:1 208:1 210:1 252:1 299:1 335:1 398:1 420:1 422:1 431:1 500:1 537:1 562:1 605:1 606:1 612:1 641:1 806:1 877:1 914:1 924:1 1089:1 1221:1 1263:1 1274:1 1276:1
-1 1211:1 1273:1 1276:3
-1 806:1 877:1 888:1 910:1 1042:1 1066:1 1072:1 1216:1 1225:1 1229:1 1249:1 1255:1 1263:1 1274:1 1276:1
-1 700:1 806:1 877:1 1042:1 1225:1 1263:1 1274:1 1276:2
-1 502:1 806:1 1038:1 1042:1 1225:1 1227:1 1263:1 1276:2
-1 486:1 787:1 877:1 1042:1 1225:1 1243:1 1274:1 1276:1
-1 502:1 597:1 1042:1 1225:1 1227:1 1269:1 1276:4
-1 502:1 597:1 688:1 754:1 764:1 787:1 806:1 874:1 888:1 910:1 982:1 1042:1 1066:1 1072:1 1216:1 1217:1 1219:1 1222:1 1225:1 1227:1 1229:1 1239:1 1243:1 1249:1 1255:1 1263:1 1269:1 1276:2
-1 305:1 502:1 597:1 621:1 688:1 754:1 764:1 787:1 888:1 952:1 1042:1 1072:1 1216:1 1217:1 1219:1 1222:1 1225:1 1227:1 1243:1 1251:1 1255:1 1269:1 1276:2
-1 210:1 299:1 422:1 431:1 502:1 537:1 606:1 754:1 806:1 910:1 1042:1 1217:1 1221:1 1225:1 1227:1 1229:1 1263:1 1276:2
-1 210:1 299:1 422:1 431:1 486:1 537:1 606:1 806:1 1042:1 1066:1 1221:1 1225:1 1249:1 1263:1 1276:2
-1 1211:1 1273:1 1276:2
-1 806:2 1042:1 1225:1 1263:2 1276:2
-1 806:2 1042:1 1225:1 1263:2 1276:2
-1 502:2 688:1 1042:4 1066:1 1072:3 1219:1 1225:4 1227:2 1249:1 1255:3 1276:4
-1 1042:1 1225:1 1276:2
-1 1211:1 1273:1 1276:3
-1 1211:1 1273:1 1276:2
-1 143:1 208:1 210:1 264:1 299:1 422:1 431:1 502:1 532:1 537:1 606:1 787:1 806:1 877:1 888:1 910:1 915:1 981:1 1042:1 1066:1 1072:1 1187:1 1198:1 1216:1 1221:1 1225:1 1227:1 1229:1 1232:1 1235:1 1238:1 1243:1 1249:1 1255:1 1262:1 1263:1 1274:1 1276:1
-1 1211:1 1273:1 1276:3
-1 1042:1 1225:1 1276:1
-1 208:1 210:1 252:1 299:1 422:1 431:1 507:1 537:1 606:1 806:1 848:1 877:1 1221:1 1263:1 1274:1 1276:2
-1 502:1 688:1 754:1 787:1 888:1 1042:1 1072:1 1216:1 1217:1 1219:1 1225:1 1227:1 1243:1 1255:1 1276:2
-1 1211:1 1273:1 1276:3
-1 1211:1 1273:1 1276:3
-1 143:1 171:1 208:1 210:1 225:1 239:1 247:1 252:1 297:1 299:1 366:1 398:1 420:1 422:1 431:1 486:1 500:1 502:1 507:1 532:1 537:1 562:1 605:1 606:1 688:1 754:1 805:1 806:1 830:1 842:1 848:1 877:1 915:1 924:1 981:1 983:1 985:1 1000:1 1051:1 1089:1 1217:1 1219:1 1221:1 1227:1 1232:1 1235:1 1238:1 1244:1 1263:1 1274:1 1276:3
-1 1211:1 1273:1 1276:3
-1 806:1 1042:1 1225:1 1263:1 1276:5
-1 1211:1 1273:1 1276:2
-1 210:1 299:1 422:1 431:1 486:1 502:1 537:1 606:1 787:1 806:1 910:1 1042:1 1072:1 1221:1 1225:1 1227:1 1229:1 1243:1 1255:1 1263:1 1276:2
-1 1211:1 1273:1 1276:4
-1 806:1 1136:1 1263:1 1276:1
-1 502:1 597:1 806:1 1042:1 1225:1 1227:1 1263:1 1269:1 1276:2
-1 888:1 1042:1 1216:1 1225:1 1276:2
-1 502:1 754:1 980:1 1042:1 1066:1 1072:1 1217:1 1225:1 1227:1 1234:1 1249:1 1255:1 1276:2
-1 297:1 502:1 688:1 754:1 764:1 787:1 888:1 1042:1 1066:1 1072:1 1216:1 1217:1 1219:1 1222:1 1225:1 1227:1 1243:1 1244:1 1249:1 1255:1 1276:4
-1 311:1 502:1 597:1 650:1 688:1 754:1 787:1 806:1 888:1 1042:1 1072:1 1193:1 1216:1 1217:1 1219:1 1225:1 1227:1 1243:1 1245:1 1255:1 1258:1 1263:1 1269:1 1276:2
-1 502:2 597:1 688:1 754:1 764:1 787:2 888:1 1042:5 1066:3 1072:3 1216:1 1217:1 1219:1 1222:1 1225:5 1227:2 1243:2 1249:3 1255:3 1269:1 1276:6
-1 373:1 502:1 597:1 650:1 688:1 754:1 756:1 787:1 910:1 1042:1 1072:1 1217:1 1218:1 1219:1 1225:1 1227:1 1229:1 1243:1 1245:1 1247:1 1255:1 1269:1 1276:2
-1 373:1 461:1 502:1 597:1 650:1 688:1 754:1 756:1 787:1 910:1 1042:1 1072:1 1217:1 1218:1 1219:1 1225:1 1227:1 1229:1 1243:1 1245:1 1247:1 1255:1 1260:1 1269:1 1276:2
-1 502:1 806:1 1042:1 1072:1 1225:1 1227:1 1255:1 1263:1 1276:2
-1 502:1 597:1 754:1 764:1 1042:1 1072:1 1217:1 1222:1 1225:1 1227:1 1255:1 1269:1 1276:2
-1 249:1 378:1 448:1 502:1 754:1 1042:1 1217:1 1225:1 1227:1 1270:1 1276:1
-1 903:1 1223:1 1276:1
-1 227:1 249:1 378:1 502:1 597:1 621:1 688:1 754:1 764:1 787:1 792:1 820:1 888:1 910:1 1042:1 1066:1 1072:1 1193:1 1214:1 1216:1 1217:1 1219:1 1222:1 1225:1 1227:1 1229:1 1243:1 1249:1 1255:1 1258:1 1269:1 1270:1 1276:1
-1 1211:1 1273:1 1276:3
-1 502:1 754:1 787:1 1042:1 1072:1 1217:1 1225:1 1227:1 1243:1 1255:1 1276:2
-1 1042:1 1225:1 1276:1
-1 502:2 597:1 650:1 688:1 754:1 1042:4 1066:2 1072:2 1217:1 1219:1 1225:4 1227:2 1245:1 1249:2 1255:2 1269:1 1276:6
-1 806:2 1042:1 1225:1 1263:2 1276:2
-1 311:1 502:1 650:1 754:1 806:1 849:1 874:1 888:1 980:1 1042:1 1072:1 1216:1 1217:1 1225:1 1227:1 1234:1 1245:1 1255:1 1263:1 1276:3 1278:9
-1 502:1 806:1 1038:1 1042:1 1225:1 1227:1 1263:1 1276:2
-1 502:2 688:1 1042:2 1066:1 1072:2 1219:1 1225:2 1227:2 1249:1 1255:2 1276:6
-1 502:1 650:1 754:1 764:1 787:1 888:1 910:1 1042:1 1066:1 1072:1 1216:1 1217:1 1222:1 1225:1 1227:1 1229:1 1243:1 1245:1 1249:1 1255:1 1276:2
-1 502:1 1024:1 1042:1 1225:1 1227:1 1276:2
-1 265:1 373:1 502:1 650:1 754:1 787:1 888:1 934:1 1042:1 1066:1 1072:1 1216:1 1217:1 1225:1 1227:1 1243:1 1245:1 1247:1 1249:1 1255:1 1256:1 1276:2 1278:40
-1 150:1 161:1 360:1 502:1 508:1 545:1 668:1 688:1 711:1 754:1 787:1 814:1 863:1 886:1 910:1 923:1 988:1 1042:1 1072:1 1086:1 1193:1 1215:1 1217:1 1219:1 1225:1 1227:1 1228:1 1229:1 1242:1 1243:1 1246:1 1248:1 1253:1 1255:1 1257:1 1258:1 1259:1 1271:1 1272:1 1275:1 1276:2
-1 1211:1 1273:1 1276:3
-1 502:1 597:1 715:1 754:1 806:1 1042:1 1101:1 1217:1 1225:1 1227:1 1263:1 1269:1 1276:2
-1 502:1 597:1 715:1 754:1 806:1 1042:1 1217:1 1225:1 1227:1 1263:1 1269:1 1276:2
-1 502:1 597:1 715:1 754:1 806:1 1042:1 1217:1 1225:1 1227:1 1263:1 1269:1 1276:2
-1 1042:1 1225:1 1276:2
-1 502:1 688:1 754:1 764:1 787:1 888:1 1042:1 1072:1 1216:1 1217:1 1219:1 1222:1 1225:1 1227:1 1243:1 1255:1 1276:2
-1 903:1 1223:1 1276:1
-1 502:2 597:1 688:1 754:1 756:1 764:1 787:1 888:1 1042:3 1066:1 1072:2 1216:1 1217:1 1218:1 1219:1 1222:1 1225:3 1227:2 1243:1 1249:1 1255:2 1269:1 1276:6
-1 502:1 806:1 1038:1 1042:1 1225:1 1227:1 1263:1 1276:3
-1 159:1 210:1 299:1 398:1 422:1 431:1 486:1 502:1 537:1 606:1 806:1 842:1 877:1 910:1 1000:1 1042:1 1066:1 1072:1 1089:1 1139:1 1221:1 1225:1 1227:1 1229:1 1249:1 1255:1 1263:1 1274:1 1276:3
-1 171:1 210:1 299:1 393:1 422:1 431:1 502:1 537:1 555:1 597:1 606:1 688:1 754:1 787:1 806:1 820:1 877:1 915:1 1042:1 1072:1 1214:1 1217:1 1219:1 1221:1 1225:1 1227:1 1232:1 1243:1 1255:1 1263:1 1269:1 1274:1 1276:2
-1 249:1 378:1 400:1 448:1 502:1 597:1 613:1 688:1 754:1 787:1 989:1 1042:1 1072:1 1217:1 1219:1 1225:1 1227:1 1243:1 1255:1 1269:1 1270:1 1276:1
-1 502:1 541:1 884:1 888:1 910:1 1042:1 1066:1 1072:1 1216:1 1225:1 1227:1 1229:1 1249:1 1255:1 1268:1 1276:2
-1 502:1 764:1 806:1 888:1 1042:1 1066:1 1072:1 1216:1 1222:1 1225:1 1227:1 1249:1 1255:1 1263:1 1276:1 1278:1
-1 594:1 806:1 931:1 1042:1 1130:1 1225:1 1263:1 1276:6
-1 1211:1 1273:1 1276:5
-1 133:1 230:1 265:1 311:1 502:1 597:1 650:1 688:1 754:1 787:1 806:1 874:1 888:1 952:1 980:1 1042:1 1072:1 1216:1 1217:1 1219:1 1225:1 1227:1 1234:1 1243:1 1245:1 1255:1 1263:1 1269:1 1276:2 1278:61
-1 502:1 688:1 754:1 764:1 787:1 888:1 1042:1 1072:1 1216:1 1217:1 1219:1 1222:1 1225:1 1227:1 1243:1 1255:1 1276:3
-1 844:1 877:1 1274:1 1276:2
-1 877:1 1042:1 1225:1 1274:1 1276:1
-1 502:1 597:1 688:1 754:1 787:1 806:1 888:1 1042:1 1066:1 1072:1 1216:1 1217:1 1219:1 1225:1 1227:1 1243:1 1249:1 1255:1 1263:1 1269:1 1276:4
-1 171:1 806:1 1042:1 1225:1 1263:1 1276:2
-1 502:1 597:1 754:1 1042:1 1072:1 1217:1 1225:1 1227:1 1255:1 1269:1 1276:1
-1 1211:1 1273:1 1276:3
-1 210:1 299:1 422:1 431:1 486:1 502:1 537:1 606:1 688:1 709:1 754:1 806:1 845:1 877:1 888:1 1042:1 1066:1 1072:1 1142:1 1173:1 1216:1 1217:1 1219:1 1221:1 1225:1 1227:1 1236:1 1240:1 1249:1 1255:1 1263:1 1265:1 1274:1 1276:1
-1 502:1 806:1 888:1 1042:1 1066:1 1072:1 1216:1 1225:1 1227:1 1249:1 1255:1 1263:1 1276:2
-1 679:1 1042:1 1225:1 1276:2
-1 502:1 806:1 1042:1 1225:1 1227:1 1263:1 1276:4
-1 373:1 806:2 980:1 1042:1 1225:1 1234:1 1247:1 1263:2 1276:3
-1 502:1 888:1 1042:1 1128:1 1216:1 1225:1 1227:1 1276:2
-1 502:1 888:1 1042:1 1128:1 1216:1 1225:1 1227:1 1276:2
-1 223:1 502:1 647:1 806:1 925:1 1042:1 1104:1 1225:1 1227:1 1263:1 1276:3
-1 230:1 265:1 270:1 806:1 1042:1 1225:1 1263:1 1276:2
-1 980:1 1042:1 1072:1 1225:1 1234:1 1255:1 1276:2
-1 884:1 1042:1 1072:1 1225:1 1255:1 1276:1
-1 806:2 980:1 1042:1 1225:1 1234:1 1263:2 1276:3
-1 502:2 688:1 754:1 756:1 764:1 787:1 888:1 980:1 1042:4 1066:2 1072:2 1216:1 1217:1 1218:1 1219:1 1222:1 1225:4 1227:2 1234:1 1243:1 1249:2 1255:2 1276:6
-1 502:2 597:1 688:1 754:1 764:1 980:1 1042:4 1066:2 1072:2 1217:1 1219:1 1222:1 1225:4 1227:2 1234:1 1249:2 1255:2 1269:1 1276:6
-1 249:1 297:1 373:1 502:1 541:1 542:1 650:1 688:1 754:1 764:1 787:1 820:1 888:1 910:1 915:1 982:1 1042:1 1066:1 1070:1 1072:1 1165:1 1193:1 1198:1 1214:1 1216:1 1217:1 1219:1 1222:1 1225:1 1226:1 1227:1 1229:1 1232:1 1239:1 1243:1 1244:1 1245:1 1247:1 1249:1 1255:1 1258:1 1262:1 1267:1 1268:1 1270:1 1276:2
-1 1211:1 1273:1 1276:3
-1 1211:1 1273:1 1276:2
-1 296:1 502:2 611:1 1042:4 1066:2 1072:1 1225:4 1227:2 1249:2 1255:1 1276:5
-1 230:1 265:2 502:2 597:1 688:1 754:1 764:1 888:1 1042:4 1066:3 1072:2 1216:1 1217:1 1219:1 1222:1 1225:4 1227:2 1249:3 1255:2 1269:1 1276:6
-1 230:1 265:1 515:1 611:1 856:1 1042:1 1225:1 1276:4
-1 502:1 688:1 754:1 787:1 888:1 1042:1 1072:1 1216:1 1217:1 1219:1 1225:1 1227:1 1243:1 1255:1 1276:2
-1 159:1 208:1 210:1 225:1 299:1 398:1 420:1 422:1 431:1 507:1 537:1 562:1 590:1 606:1 631:1 806:1 820:1 826:1 1089:1 1214:1 1221:1 1263:1 1276:2
-1 806:1 1042:1 1225:1 1263:1 1276:5
-1 806:2 1042:1 1225:1 1263:2 1276:3
-1 1211:1 1273:1 1276:4
-1 903:1 1223:1 1276:1
-1 190:1 208:1 210:1 212:1 239:1 247:1 273:1 299:1 310:1 334:1 375:1 398:1 416:1 420:1 422:1 431:1 486:1 500:1 502:1 507:1 532:1 537:1 562:1 583:1 606:1 626:1 631:1 641:1 684:1 708:1 806:1 824:1 842:1 853:1 877:1 924:1 977:1 1000:1 1035:1 1089:1 1139:1 1148:1 1170:1 1173:1 1197:1 1221:1 1227:1 1263:1 1274:1 1276:3
-1 208:1 210:1 239:1 299:1 420:1 422:1 431:1 500:1 532:1 537:1 562:1 606:1 806:1 1221:1 1263:1 1276:2
-1 1211:1 1273:1 1276:2
-1 373:1 502:1 597:1 688:1 754:1 756:1 787:1 1042:1 1072:1 1217:1 1218:1 1219:1 1225:1 1227:1 1243:1 1247:1 1255:1 1269:1 1276:1
-1 903:1 1223:1 1276:1
-1 502:2 688:1 1042:2 1066:1 1072:2 1219:1 1225:2 1227:2 1249:1 1255:2 1276:7
-1 249:1 486:1 502:1 688:1 754:1 782:1 787:1 806:1 877:1 1042:1 1066:1 1072:1 1121:1 1217:1 1219:1 1225:1 1227:1 1243:1 1249:1 1255:1 1263:1 1270:1 1274:1 1276:2
-1 502:1 688:1 754:1 764:1 787:1 888:1 1042:1 1072:1 1216:1 1217:1 1219:1 1222:1 1225:1 1227:1 1243:1 1255:1 1276:3
-1 903:1 1223:1 1276:1
-1 1276:3
-1 502:1 806:1 877:1 1042:1 1225:1 1227:1 1263:1 1274:1 1276:2
-1 143:1 256:1 373:1 502:1 597:1 650:1 688:1 754:1 787:1 806:1 845:1 888:1 910:1 1042:1 1072:1 1165:1 1216:1 1217:1 1219:1 1225:1 1226:1 1227:1 1229:1 1238:1 1240:1 1243:1 1245:1 1247:1 1255:1 1263:1 1269:1 1276:4
-1 1211:1 1273:1 1276:3
-1 502:2 688:1 754:1 764:1 787:1 1042:4 1066:2 1072:2 1217:1 1219:1 1222:1 1225:4 1227:2 1243:1 1249:2 1255:2 1276:6
-1 454:1 806:1 888:1 1042:1 1216:1 1225:1 1263:1 1276:1
-1 483:1 747:1 888:1 1066:1 1216:1 1249:1 1276:2
-1 806:2 1042:1 1225:1 1263:2 1276:5
-1 502:1 787:1 1042:1 1072:1 1225:1 1227:1 1243:1 1255:1 1276:3
-1 1211:1 1273:1 1276:2
-1 172:1 208:1 210:1 225:1 247:1 252:1 299:1 398:1 420:1 422:1 431:1 486:1 500:1 537:1 562:1 590:1 606:1 612:1 666:1 806:1 877:1 914:1 924:1 967:1 978:1 1092:1 1221:1 1263:1 1274:1 1276:3
-1 502:1 688:1 754:1 764:1 787:1 888:1 1042:1 1072:1 1216:1 1217:1 1219:1 1222:1 1225:1 1227:1 1243:1 1255:1 1276:3
-1 1211:1 1273:1 1276:3
-1 265:3 297:1 502:2 597:1 688:1 754:1 756:1 764:1 787:1 888:2 934:1 1042:5 1066:3 1072:2 1216:2 1217:1 1218:1 1219:1 1222:1 1225:5 1227:2 1243:1 1244:1 1249:3 1255:2 1256:1 1269:1 1276:6
-1 1211:1 1273:1 1276:3
-1 956:1 1042:1 1225:1 1276:3
-1 189:1 230:1 265:1 491:1 515:1 1042:1 1225:1 1276:1
-1 189:1 230:1 265:1 515:1 1042:1 1225:1 1276:1
-1 189:1 230:1 265:1 491:1 515:1 1042:1 1225:1 1276:1
-1 275:1 344:1 441:1 502:1 781:1 892:1 1019:1 1042:1 1225:1 1227:1 1276:1
-1 903:1 1223:1 1276:1
-1 1042:1 1225:1 1276:2
-1 223:1 312:1 647:1 806:2 857:1 878:1 1042:1 1104:1 1207:1 1225:1 1263:2 1276:2
-1 502:1 597:1 754:1 787:1 1042:1 1072:1 1217:1 1225:1 1227:1 1243:1 1255:1 1269:1 1276:1
-1 437:1 1042:1 1225:1 1276:3
-1 437:1 1042:1 1225:1 1276:3
-1 437:1 1042:1 1225:1 1276:3
-1 437:1 1042:1 1225:1 1276:3
-1 180:1 478:1 502:1 754:1 1008:1 1042:1 1072:1 1217:1 1225:1 1227:1 1255:1 1276:2
-1 502:3 597:1 637:1 688:1 754:1 764:1 787:2 888:1 934:1 980:1 1042:5 1066:2 1072:2 1216:1 1217:1 1219:1 1222:1 1225:5 1227:3 1230:1 1234:1 1243:2 1249:2 1255:2 1256:1 1269:1 1276:6
-1 502:1 787:1 806:1 910:1 1042:1 1225:1 1227:1 1229:1 1243:1 1263:1 1276:6
-1 127:1 159:1 172:1 208:1 210:1 212:1 239:1 247:1 252:1 264:1 266:1 299:1 310:1 366:1 398:1 420:1 422:1 431:1 486:1 488:1 500:1 507:1 516:1 532:1 537:1 555:1 562:1 577:1 590:1 605:1 606:1 612:1 654:1 798:1 806:1 842:1 848:1 877:1 915:1 924:1 937:1 940:1 944:1 967:1 978:1 986:1 1066:1 1089:1 1114:1 1187:1 1221:1 1232:1 1249:1 1261:1 1263:1 1274:1 1276:2
-1 208:1 210:1 252:1 299:1 420:1 422:1 431:1 537:1 605:1 606:1 787:1 806:1 877:1 924:1 1042:1 1089:1 1221:1 1225:1 1243:1 1263:1 1274:1 1276:2
-1 146:1 159:1 192:1 194:1 208:1 210:1 239:1 252:1 299:1 335:1 362:1 398:1 420:1 422:1 431:1 486:1 500:1 503:1 507:1 532:1 537:1 550:1 562:1 606:1 631:1 806:1 842:1 848:1 861:1 877:1 924:1 944:1 1000:1 1066:1 1089:1 1139:1 1221:1 1249:1 1263:1 1274:1 1276:2
-1 210:1 299:1 422:1 431:1 475:1 486:1 537:1 806:1 910:1 1042:1 1072:1 1221:1 1225:1 1229:1 1255:1 1263:1 1276:1
-1 210:1 299:1 422:1 431:1 502:1 537:1 606:1 806:1 1042:1 1221:1 1225:1 1227:1 1263:1 1276:3
-1 903:1 1223:1 1276:1
-1 502:1 688:1 754:1 764:1 787:1 888:1 1042:1 1072:1 1216:1 1217:1 1219:1 1222:1 1225:1 1227:1 1243:1 1255:1 1276:3
-1 1211:1 1273:1 1276:3
-1 502:1 806:1 877:1 888:1 1042:1 1066:1 1072:1 1142:1 1216:1 1225:1 1227:1 1249:1 1255:1 1263:1 1265:1 1274:1 1276:2
-1 1042:1 1225:1 1276:1
-1 486:1 502:1 688:1 754:1 787:1 806:1 877:1 1042:1 1066:1 1072:1 1092:1 1217:1 1219:1 1225:1 1227:1 1243:1 1249:1 1255:1 1263:1 1274:1 1276:1
-1 1211:1 1273:1 1276:2
-1 806:1 1042:1 1072:1 1225:1 1255:1 1263:1 1276:3
-1 305:1 502:1 597:1 650:1 673:1 688:1 754:1 888:1 1042:1 1066:1 1072:1 1076:1 1216:1 1217:1 1219:1 1225:1 1227:1 1245:1 1249:1 1251:1 1255:1 1264:1 1266:1 1269:1 1276:2
-1 305:1 502:1 597:1 650:1 673:1 688:1 754:1 888:1 1042:1 1066:1 1072:1 1076:1 1216:1 1217:1 1219:1 1225:1 1227:1 1245:1 1249:1 1251:1 1255:1 1264:1 1266:1 1269:1 1276:2
-1 159:1 161:1 205:1 208:1 210:1 247:1 273:1 299:1 398:1 420:1 422:1 431:1 486:1 532:1 537:1 562:1 606:1 612:1 631:1 663:1 666:1 687:1 692:1 851:1 890:1 924:1 1066:1 1089:1 1221:1 1249:1 1253:1 1276:1
-1 472:1 502:1 754:1 787:1 806:1 1042:1 1072:1 1217:1 1225:1 1227:1 1243:1 1255:1 1263:1 1276:2
-1 472:1 502:2 650:1 688:1 754:1 764:1 1042:4 1066:2 1072:2 1217:1 1219:1 1222:1 1225:4 1227:2 1245:1 1249:2 1255:2 1276:6
-1 502:1 688:1 754:1 787:1 806:1 874:1 1038:1 1042:1 1072:1 1217:1 1219:1 1225:1 1227:1 1243:1 1255:1 1263:1 1276:2
-1 502:2 688:1 754:1 787:1 980:1 1042:4 1066:2 1072:2 1217:1 1219:1 1225:4 1227:2 1234:1 1243:1 1249:2 1255:2 1276:6
-1 1042:1 1225:1 1276:1
-1 1042:1 1225:1 1276:2
-1 1211:1 1273:1 1276:3
-1 744:1 1276:2
-1 502:1 597:1 688:1 754:1 787:1 806:2 888:1 980:1 1042:1 1072:1 1216:1 1217:1 1219:1 1225:1 1227:1 1234:1 1243:1 1255:1 1263:2 1269:1 1276:2
-1 806:1 1042:1 1225:1 1263:1 1276:2
-1 187:1 502:1 597:1 688:1 754:1 764:1 787:1 820:1 888:1 910:1 1042:1 1066:1 1072:1 1212:1 1214:1 1216:1 1217:1 1219:1 1222:1 1225:1 1227:1 1229:1 1233:1 1243:1 1249:1 1255:1 1269:1 1276:2
-1 502:1 597:1 688:1 754:1 764:1 787:1 888:1 1042:1 1066:1 1072:1 1216:1 1217:1 1219:1 1222:1 1225:1 1227:1 1243:1 1249:1 1255:1 1269:1 1276:1
-1 486:1 502:1 764:1 806:1 820:1 1042:1 1072:1 1214:1 1222:1 1225:1 1227:1 1255:1 1263:1 1276:1
-1 161:1 208:1 252:1 299:1 420:1 422:1 431:1 500:1 532:1 537:1 562:1 606:1 612:1 666:1 692:1 877:1 914:1 924:1 1185:1 1221:1 1253:1 1274:1 1276:2
-1 373:1 486:1 502:1 764:1 806:1 877:1 1042:1 1072:1 1222:1 1225:1 1227:1 1247:1 1255:1 1263:1 1274:1 1276:1 1278:3
-1 208:1 210:1 244:1 252:1 299:1 420:1 422:1 431:1 486:1 507:1 537:1 562:1 577:1 606:1 612:1 806:1 820:1 842:1 877:1 915:1 924:1 1214:1 1221:1 1232:1 1263:1 1274:1 1276:1
-1 502:1 597:1 688:1 754:1 787:1 888:1 1042:1 1066:1 1072:1 1216:1 1217:1 1219:1 1225:1 1227:1 1243:1 1249:1 1255:1 1269:1 1276:1
-1 1211:1 1273:1 1276:4
-1 162:1 408:1 423:1 524:1 806:1 877:1 900:1 958:1 1066:1 1075:1 1249:1 1263:1 1274:1 1276:1
-1 138:1 157:1 159:1 203:1 210:1 273:1 361:1 382:1 420:1 422:1 442:1 704:1 806:1 807:1 815:1 819:1 846:1 877:1 889:1 974:1 1020:1 1021:1 1066:1 1082:1 1184:1 1221:1 1241:1 1249:1 1263:1 1274:1 1276:1
-1 159:1 190:1 208:1 210:1 225:1 252:1 299:1 334:1 366:1 398:1 420:1 422:1 431:1 486:1 532:1 537:1 550:1 562:1 605:1 606:1 720:1 733:1 806:1 877:1 880:1 914:1 924:1 967:1 977:1 986:1 1066:1 1221:1 1249:1 1263:1 1274:1 1276:2
-1 1211:1 1273:1 1276:3
-1 223:1 806:1 1042:1 1225:1 1263:1 1276:2
-1 1211:1 1273:1 1276:3
-1 130:1 208:1 210:1 247:1 252:1 299:1 398:1 418:1 420:1 422:1 431:1 486:1 500:1 502:1 507:1 532:1 537:1 550:1 606:1 631:1 688:1 708:1 714:1 754:1 806:1 842:1 845:1 877:1 910:1 934:1 937:1 1000:1 1042:1 1051:1 1072:1 1139:1 1154:1 1217:1 1219:1 1221:1 1225:1 1227:1 1229:1 1240:1 1255:1 1256:1 1263:1 1274:1 1276:3
-1 1211:1 1273:1 1276:3
-1 1211:1 1273:1 1276:3
-1 1211:1 1273:1 1276:3
-1 502:1 688:1 806:1 1042:1 1072:1 1219:1 1225:1 1227:1 1255:1 1263:1 1276:2
-1 1042:1 1225:1 1276:1
-1 133:1 502:1 597:1 621:1 650:1 688:1 739:1 754:1 787:1 888:1 952:1 1042:1 1072:1 1216:1 1217:1 1219:1 1225:1 1227:1 1243:1 1245:1 1255:1 1269:1 1276:2 1278:2
-1 502:1 787:1 806:1 1042:1 1072:1 1225:1 1227:1 1243:1 1255:1 1263:1 1276:3
-1 502:2 688:1 1042:4 1066:1 1072:3 1219:1 1225:4 1227:2 1249:1 1255:3 1276:4
-1 208:1 210:1 239:1 252:1 299:1 398:1 420:1 422:1 431:1 488:1 500:1 537:1 555:1 562:1 590:1 606:1 625:1 687:1 806:1 820:1 877:1 890:1 914:1 924:1 967:1 991:1 1114:1 1214:1 1221:1 1263:1 1274:1 1276:2
-1 405:1 715:1 806:1 1042:1 1225:1 1263:1 1276:3
-1 594:1 806:1 931:1 1042:1 1130:1 1225:1 1263:1 1276:6
-1 594:1 806:1 931:1 1042:1 1130:1 1225:1 1263:1 1276:6
-1 594:1 806:1 931:1 1042:1 1130:1 1225:1 1263:1 1276:5
-1 594:1 806:1 931:1 1042:1 1130:1 1225:1 1263:1 1276:5
-1 223:1 256:1 647:1 806:2 1042:1 1104:1 1225:1 1263:2 1276:2
-1 161:1 208:1 299:1 422:1 431:1 486:1 496:1 532:1 537:1 606:1 666:1 692:1 877:1 1221:1 1253:1 1274:1 1276:2
-1 161:1 208:1 299:1 422:1 431:1 486:1 496:1 532:1 537:1 606:1 666:1 692:1 877:1 1221:1 1253:1 1274:1 1276:2
-1 806:1 1042:1 1225:1 1263:1 1276:6
-1 1211:1 1273:1 1276:3
-1 132:1 192:1 208:1 210:1 225:1 239:1 252:1 299:1 362:1 398:1 420:1 422:1 431:1 486:1 500:1 503:1 507:1 532:1 537:1 550:1 562:1 606:1 806:1 842:1 851:1 915:1 924:1 1000:1 1066:1 1089:1 1133:1 1221:1 1232:1 1249:1 1263:1 1276:2
-1 159:1 192:1 210:1 239:1 245:1 252:1 258:1 299:1 398:1 420:1 422:1 431:1 486:1 500:1 503:1 507:1 537:1 550:1 562:1 605:1 606:1 806:1 848:1 924:1 961:1 1066:1 1221:1 1249:1 1263:1 1276:2
-1 159:1 208:1 210:1 239:1 298:1 299:1 418:1 420:1 422:1 431:1 454:1 486:1 500:1 507:1 532:1 537:1 550:1 562:1 606:1 654:1 710:1 806:1 842:1 877:1 915:1 924:1 1000:1 1089:1 1170:1 1185:1 1221:1 1232:1 1237:1 1263:1 1274:1 1276:2
-1 117:1 210:1 252:1 299:1 398:1 420:1 422:1 431:1 486:1 502:1 503:1 537:1 576:1 606:1 714:1 806:1 820:1 1214:1 1221:1 1227:1 1263:1 1276:2
-1 176:1 192:1 210:1 252:1 299:1 362:1 398:1 420:1 422:1 431:1 486:1 503:1 507:1 537:1 606:1 806:1 820:1 842:1 848:1 861:1 924:1 961:1 1000:1 1066:1 1214:1 1221:1 1249:1 1263:1 1276:2
-1 1211:1 1273:1 1276:3
-1 1211:1 1273:1 1276:2
-1 208:1 210:1 252:1 299:1 398:1 422:1 431:1 537:1 562:1 606:1 806:1 877:1 924:1 1165:1 1221:1 1226:1 1263:1 1274:1 1276:2
-1 1211:1 1273:1 1276:3
-1 594:1 618:1 770:1 806:2 917:1 931:1 1042:1 1072:1 1192:1 1225:1 1255:1 1263:2 1276:4
-1 502:1 1042:1 1225:1 1227:1 1276:2
-1 1211:1 1273:1 1276:3
-1 1211:1 1273:1 1276:3
-1 1211:1 1273:1 1276:3
-1 700:1 806:1 877:1 1042:1 1225:1 1263:1 1274:1 1276:2
-1 187:1 502:1 688:1 764:1 787:1 820:1 910:1 1042:1 1066:1 1072:1 1214:1 1219:1 1222:1 1225:1 1227:1 1229:1 1233:1 1243:1 1249:1 1255:1 1276:1 1278:3
-1 502:1 688:1 754:1 764:1 1042:1 1072:1 1217:1 1219:1 1222:1 1225:1 1227:1 1255:1 1276:2
-1 502:1 688:1 754:1 888:1 910:1 982:1 1042:1 1066:1 1072:1 1216:1 1217:1 1219:1 1225:1 1227:1 1229:1 1239:1 1249:1 1255:1 1276:1
-1 1211:1 1273:1 1276:3
-1 1042:1 1225:1 1276:1
-1 210:1 299:1 393:1 422:1 431:1 486:1 502:1 537:1 555:1 606:1 688:1 714:1 787:1 806:1 888:1 915:1 1042:1 1072:1 1216:1 1219:1 1221:1 1225:1 1227:1 1232:1 1243:1 1255:1 1263:1 1276:2
-1 210:1 299:1 422:1 431:1 486:1 502:1 537:1 606:1 787:1 806:1 888:1 910:1 1216:1 1221:1 1227:1 1229:1 1243:1 1263:1 1276:3
-1 806:1 1042:1 1225:1 1263:1 1276:2 1278:1
-1 806:1 1042:1 1225:1 1263:1 1276:2 1278:1
-1 230:1 265:1 502:1 597:1 650:1 688:1 709:1 754:1 787:1 888:1 910:1 1042:1 1066:1 1072:1 1216:1 1217:1 1219:1 1225:1 1227:1 1229:1 1236:1 1243:1 1245:1 1249:1 1255:1 1269:1 1276:2
-1 230:1 265:1 502:1 597:1 650:1 688:1 709:1 754:1 787:1 888:1 910:1 1042:1 1066:1 1072:1 1216:1 1217:1 1219:1 1225:1 1227:1 1229:1 1236:1 1243:1 1245:1 1249:1 1255:1 1269:1 1276:3
-1 502:1 611:1 806:1 1042:1 1143:1 1225:1 1227:1 1263:1 1276:3
-1 502:2 688:1 1042:4 1066:1 1072:3 1219:1 1225:4 1227:2 1249:1 1255:3 1276:4
-1 210:1 299:1 373:1 398:1 422:1 431:1 486:1 502:1 537:1 555:1 556:1 575:1 606:1 756:1 764:1 806:1 877:1 910:1 983:1 1042:1 1066:1 1218:1 1221:1 1222:1 1225:1 1227:1 1229:1 1247:1 1249:1 1263:1 1274:1 1276:2
-1 227:1 249:1 378:1 502:1 688:1 754:1 764:1 787:1 792:1 888:1 910:1 1042:1 1066:1 1072:1 1216:1 1217:1 1219:1 1222:1 1225:1 1227:1 1229:1 1243:1 1249:1 1255:1 1270:1 1276:1
-1 249:1 373:1 502:1 597:1 688:1 754:1 787:1 1042:1 1072:1 1217:1 1219:1 1225:1 1227:1 1243:1 1247:1 1255:1 1269:1 1270:1 1276:1
-1 502:1 688:1 754:1 764:1 787:1 888:1 1042:1 1072:1 1216:1 1217:1 1219:1 1222:1 1225:1 1227:1 1243:1 1255:1 1276:2
-1 502:2 597:1 688:1 754:1 764:1 787:2 888:1 1042:4 1066:2 1072:2 1216:1 1217:1 1219:1 1222:1 1225:4 1227:2 1243:2 1249:2 1255:2 1269:1 1276:6
-1 502:2 688:1 1042:2 1066:1 1072:2 1219:1 1225:2 1227:2 1249:1 1255:2 1276:7
-1 1211:1 1273:1 1276:3
-1 159:1 208:1 210:1 239:1 252:1 273:1 299:1 366:1 420:1 422:1 431:1 516:1 532:1 537:1 562:1 606:1 806:1 877:1 914:1 924:1 944:1 978:1 1089:1 1221:1 1263:1 1274:1 1276:2
-1 159:1 210:1 299:1 420:1 422:1 431:1 537:1 562:1 605:1 606:1 607:1 720:1 806:1 877:1 1042:1 1089:1 1142:1 1221:1 1225:1 1263:1 1265:1 1274:1 1276:2
-1 1211:1 1273:1 1276:3
-1 1211:1 1273:1 1276:2
-1 502:2 688:1 1042:4 1066:2 1072:3 1219:1 1225:4 1227:2 1249:2 1255:3 1276:6
-1 903:1 1223:1 1276:3
-1 903:1 1223:1 1276:2
-1 903:1 1223:1 1276:2
-1 903:1 1223:1 1276:2
-1 903:1 1223:1 1276:2
-1 903:1 1223:1 1276:2
-1 903:1 1223:1 1276:1
-1 903:1 1223:1 1276:1
-1 903:1 1223:1 1276:2
-1 903:1 1223:1 1276:1
-1 903:1 1223:1 1276:1
-1 903:1 1223:1 1276:1
-1 210:1 299:1 422:1 431:1 486:1 502:1 537:1 606:1 806:1 842:1 910:1 1000:1 1042:1 1072:1 1142:1 1221:1 1225:1 1227:1 1229:1 1255:1 1263:1 1265:1 1276:3
-1 132:1 210:1 299:1 362:1 422:1 431:1 486:1 488:1 502:1 532:1 537:1 542:1 555:1 606:1 710:1 754:1 794:1 806:1 820:1 888:1 915:1 940:1 981:1 991:1 1000:1 1042:1 1049:1 1066:1 1072:1 1193:1 1214:1 1216:1 1217:1 1221:1 1225:1 1227:1 1232:1 1235:1 1237:1 1249:1 1255:1 1258:1 1261:1 1263:1 1267:1 1276:1
-1 210:1 299:1 420:1 422:1 431:1 507:1 537:1 606:1 806:1 961:1 1221:1 1263:1 1276:2
-1 502:1 597:1 688:1 754:1 888:1 910:1 1042:1 1066:1 1072:1 1076:1 1216:1 1217:1 1219:1 1225:1 1227:1 1229:1 1249:1 1255:1 1264:1 1269:1 1276:1
-1 1211:1 1273:1 1276:4
-1 1211:1 1273:1 1276:3
-1 806:2 980:1 1042:1 1225:1 1234:1 1263:2 1276:3
-1 806:2 1042:1 1225:1 1263:2 1276:2
-1 208:1 210:1 299:1 420:1 422:1 431:1 486:1 500:1 532:1 537:1 590:1 605:1 606:1 806:1 877:1 1221:1 1263:1 1274:1 1276:1
-1 437:1 1042:1 1137:1 1167:1 1225:1 1276:2
-1 502:2 688:1 1042:2 1066:1 1072:2 1219:1 1225:2 1227:2 1249:1 1255:2 1276:7
-1 218:1 249:1 278:1 296:1 502:1 597:1 754:1 787:1 806:1 845:1 888:1 910:1 1042:1 1066:1 1072:1 1181:1 1216:1 1217:1 1225:1 1227:1 1229:1 1240:1 1243:1 1249:1 1255:1 1263:1 1269:1 1270:1 1276:1 1278:43
-1 502:1 754:1 787:1 1042:1 1072:1 1217:1 1225:1 1227:1 1243:1 1255:1 1276:2
-1 806:1 1042:1 1072:1 1225:1 1255:1 1263:1 1276:2
-1 314:1 365:1 502:1 640:1 645:1 1042:1 1225:1 1227:1 1276:2
-1 502:1 688:1 709:1 754:1 764:1 787:1 806:1 820:1 888:1 910:1 982:1 1042:1 1066:1 1072:1 1193:1 1214:1 1216:1 1217:1 1219:1 1222:1 1225:1 1227:1 1229:1 1236:1 1239:1 1243:1 1249:1 1255:1 1258:1 1263:1 1276:3
-1 172:1 208:1 210:1 239:1 299:1 391:1 420:1 422:1 431:1 506:1 517:1 532:1 537:1 550:1 562:1 606:1 757:1 797:1 806:1 824:1 877:1 941:1 942:1 1035:1 1089:1 1221:1 1263:1 1274:1 1276:2
-1 502:1 787:1 806:1 888:1 1042:1 1066:1 1072:1 1216:1 1225:1 1227:1 1243:1 1249:1 1255:1 1263:1 1276:2
-1 502:1 597:1 688:1 754:1 764:1 787:1 888:1 1042:1 1066:1 1072:1 1216:1 1217:1 1219:1 1222:1 1225:1 1227:1 1243:1 1249:1 1255:1 1269:1 1276:2
-1 146:1 159:1 208:1 210:1 239:1 252:1 299:1 310:1 366:1 420:1 422:1 431:1 486:1 502:1 537:1 550:1 604:1 606:1 664:1 764:1 787:1 806:1 877:1 893:1 924:1 940:1 1042:1 1072:1 1221:1 1222:1 1225:1 1227:1 1243:1 1255:1 1261:1 1263:1 1274:1 1276:3
-1 502:1 688:1 754:1 764:1 1042:1 1072:1 1217:1 1219:1 1222:1 1225:1 1227:1 1255:1 1276:2
-1 502:1 688:1 754:1 764:1 1042:1 1072:1 1217:1 1219:1 1222:1 1225:1 1227:1 1255:1 1276:2
-1 502:1 597:1 688:1 787:1 888:1 1042:1 1066:1 1072:1 1216:1 1219:1 1225:1 1227:1 1243:1 1249:1 1255:1 1269:1 1276:1
-1 1211:1 1273:1 1276:3
-1 502:2 688:1 1042:2 1066:1 1072:2 1219:1 1225:2 1227:2 1249:1 1255:2 1276:7
-1 130:1 249:1 454:1 502:1 525:1 754:1 787:1 806:1 820:1 877:1 888:1 907:1 910:1 915:1 1042:1 1066:1 1072:1 1198:1 1214:1 1216:1 1217:1 1225:1 1227:1 1229:1 1232:1 1243:1 1249:1 1254:1 1255:1 1262:1 1263:1 1270:1 1274:1 1276:1
-1 502:1 787:1 806:1 1042:1 1072:1 1225:1 1227:1 1243:1 1255:1 1263:1 1276:4
-1 415:1 437:1 1042:1 1165:1 1225:1 1226:1 1276:3
-1 386:1 437:1 1042:1 1165:1 1225:1 1226:1 1276:3
-1 502:2 688:1 754:1 764:1 1042:5 1066:2 1072:2 1217:1 1219:1 1222:1 1225:5 1227:2 1249:2 1255:2 1276:6
-1 502:1 688:1 787:1 1042:1 1072:1 1219:1 1225:1 1227:1 1243:1 1255:1 1276:1
-1 1042:1 1166:1 1225:1 1276:1
-1 486:1 502:1 806:1 1042:1 1072:1 1225:1 1227:1 1255:1 1263:1 1276:2
-1 373:1 415:1 502:1 749:1 754:1 806:2 915:1 1042:1 1072:1 1217:1 1225:1 1227:1 1232:1 1247:1 1255:1 1263:2 1276:4 1278:5590
-1 502:2 688:1 1042:2 1066:1 1072:2 1219:1 1225:2 1227:2 1249:1 1255:2 1276:7
-1 502:1 787:1 806:1 1042:1 1072:1 1225:1 1227:1 1243:1 1255:1 1263:1 1276:4
-1 462:1 502:1 688:1 709:1 714:1 787:1 806:1 877:1 888:1 1042:1 1072:1 1154:1 1216:1 1219:1 1225:1 1227:1 1236:1 1243:1 1255:1 1263:1 1274:1 1276:2
-1 122:1 128:1 210:1 299:1 393:1 398:1 422:1 431:1 486:1 502:1 537:1 550:1 555:1 562:1 606:1 806:1 820:1 877:1 924:1 1034:1 1042:1 1072:1 1089:1 1214:1 1221:1 1225:1 1227:1 1255:1 1263:1 1274:1 1276:3
-1 210:1 299:1 420:1 422:1 431:1 486:1 537:1 606:1 708:1 721:1 806:1 1149:1 1221:1 1263:1 1276:2
-1 502:1 688:1 754:1 764:1 787:1 888:1 1042:1 1072:1 1216:1 1217:1 1219:1 1222:1 1225:1 1227:1 1243:1 1255:1 1276:3
-1 256:1 378:1 502:1 688:1 754:1 888:1 904:1 910:1 1042:1 1066:1 1072:1 1216:1 1217:1 1219:1 1225:1 1227:1 1229:1 1249:1 1255:1 1276:2
-1 279:1 344:1 643:1 816:1 1042:1 1225:1 1276:2
-1 279:1 344:1 502:1 643:1 688:1 754:1 764:1 787:1 816:1 888:1 910:1 1042:1 1066:1 1072:1 1216:1 1217:1 1219:1 1222:1 1225:1 1227:1 1229:1 1243:1 1249:1 1255:1 1276:1
-1 1211:1 1273:1 1276:4
-1 1211:1 1273:1 1276:2
-1 1211:1 1273:1 1276:3
-1 1211:1 1273:1 1276:2
-1 1211:1 1273:1 1276:3
-1 502:2 688:1 1042:2 1066:1 1072:2 1219:1 1225:2 1227:2 1249:1 1255:2 1276:7
-1 1211:1 1273:1 1276:3
-1 502:1 688:1 754:1 764:1 787:1 888:1 1042:1 1072:1 1216:1 1217:1 1219:1 1222:1 1225:1 1227:1 1243:1 1255:1 1276:3
-1 1211:1 1273:1 1276:2
-1 1211:1 1273:1 1276:2
-1 1211:1 1273:1 1276:2
-1 1211:1 1273:1 1276:2
-1 139:1 265:1 460:1 832:1 1042:1 1225:1 1276:3 1278:66
-1 265:1 724:1 1024:1 1042:1 1053:1 1225:1 1276:1 1278:66
-1 1211:1 1273:1 1276:2
-1 159:1 208:1 210:1 225:1 254:1 299:1 362:1 366:1 398:1 418:1 420:1 422:1 486:1 500:1 503:1 507:1 532:1 537:1 550:1 555:1 562:1 567:1 606:1 612:1 806:1 820:1 924:1 983:1 991:1 1066:1 1089:1 1214:1 1221:1 1249:1 1263:1 1276:2
-1 161:1 208:1 210:1 239:1 299:1 420:1 422:1 431:1 486:1 500:1 532:1 537:1 606:1 666:1 692:1 842:1 977:1 1000:1 1139:1 1221:1 1253:1 1276:2
-1 502:1 597:1 754:1 787:1 910:1 1042:1 1066:1 1072:1 1165:1 1193:1 1217:1 1225:1 1226:1 1227:1 1229:1 1243:1 1249:1 1255:1 1258:1 1269:1 1276:1
-1 502:2 688:1 1042:4 1066:1 1072:3 1219:1 1225:4 1227:2 1249:1 1255:3 1276:5
-1 502:1 1042:1 1072:1 1225:1 1227:1 1255:1 1276:1
-1 502:1 688:1 754:1 787:1 1042:1 1072:1 1217:1 1219:1 1225:1 1227:1 1243:1 1255:1 1276:1
-1 502:1 688:1 754:1 787:1 1042:1 1072:1 1217:1 1219:1 1225:1 1227:1 1243:1 1255:1 1276:1
-1 502:1 787:1 1042:1 1072:1 1225:1 1227:1 1243:1 1255:1 1276:1
-1 502:1 787:1 1042:1 1072:1 1225:1 1227:1 1243:1 1255:1 1276:1
-1 502:1 597:1 754:1 756:1 764:1 787:1 888:1 910:1 952:1 1042:1 1066:1 1072:1 1076:1 1095:1 1121:1 1142:1 1198:1 1216:1 1217:1 1218:1 1222:1 1225:1 1227:1 1229:1 1243:1 1249:1 1255:1 1262:1 1264:1 1265:1 1269:1 1276:1
-1 502:1 597:1 754:1 756:1 764:1 787:1 888:1 910:1 952:1 1042:1 1066:1 1072:1 1076:1 1095:1 1121:1 1142:1 1198:1 1216:1 1217:1 1218:1 1222:1 1225:1 1227:1 1229:1 1243:1 1249:1 1255:1 1262:1 1264:1 1265:1 1269:1 1276:1
-1 265:1 515:1 806:1 1042:1 1225:1 1263:1 1276:3
-1 502:1 597:1 754:1 1042:1 1072:1 1217:1 1225:1 1227:1 1255:1 1269:1 1276:1
-1 210:1 299:1 422:1 431:1 537:1 606:1 787:1 806:1 877:1 915:1 1042:1 1057:1 1072:1 1123:1 1221:1 1225:1 1232:1 1243:1 1255:1 1263:1 1274:1 1276:2
-1 502:1 754:1 787:1 888:1 910:1 1042:1 1066:1 1072:1 1216:1 1217:1 1225:1 1227:1 1229:1 1243:1 1249:1 1255:1 1276:1
-1 806:1 888:1 910:1 1042:1 1066:1 1072:1 1211:1 1216:1 1225:1 1229:1 1249:1 1255:1 1263:1 1273:1 1276:3
-1 502:1 688:1 754:1 787:1 806:1 845:1 877:1 888:1 915:1 1042:1 1066:1 1072:1 1216:1 1217:1 1219:1 1225:1 1227:1 1232:1 1240:1 1243:1 1249:1 1255:1 1263:1 1274:1 1276:2 1278:1
-1 230:1 265:1 502:1 688:1 754:1 806:1 1042:1 1217:1 1219:1 1225:1 1227:1 1263:1 1276:3
-1 502:1 806:1 1042:1 1225:1 1227:1 1263:1 1276:5
-1 305:1 502:1 597:1 688:1 754:1 888:1 1042:1 1066:1 1072:1 1076:1 1216:1 1217:1 1219:1 1225:1 1227:1 1249:1 1251:1 1255:1 1264:1 1269:1 1276:2
-1 502:1 688:1 787:1 1042:1 1131:1 1219:1 1225:1 1227:1 1243:1 1276:2
-1 502:1 754:1 787:1 980:1 1042:1 1072:1 1217:1 1225:1 1227:1 1234:1 1243:1 1255:1 1276:2
-1 297:1 502:2 597:1 650:1 688:1 754:1 764:1 787:2 888:2 934:1 1042:6 1066:3 1072:2 1101:1 1216:2 1217:1 1219:1 1222:1 1225:6 1227:2 1243:2 1244:1 1245:1 1249:3 1255:2 1256:1 1269:1 1276:5
-1 806:1 877:1 1042:1 1059:1 1072:1 1225:1 1255:1 1263:1 1274:1 1276:2
-1 143:1 502:1 542:1 806:1 842:1 877:1 888:1 1000:1 1042:1 1066:1 1072:1 1216:1 1225:1 1227:1 1238:1 1249:1 1255:1 1263:1 1267:1 1274:1 1276:2
-1 1211:1 1273:1 1276:3
-1 806:2 1042:1 1151:1 1225:1 1263:2 1276:2
-1 1211:1 1273:1 1276:3
-1 1211:1 1273:1 1276:3
-1 1211:1 1273:1 1276:3
-1 305:1 502:1 597:1 688:1 754:1 787:1 888:1 1042:1 1066:1 1072:1 1076:1 1193:1 1216:1 1217:1 1219:1 1225:1 1227:1 1243:1 1249:1 1251:1 1255:1 1258:1 1264:1 1269:1 1276:2
-1 903:1 1223:1 1276:1
-1 249:1 373:1 502:1 557:1 650:1 688:1 754:1 764:1 787:1 888:1 910:1 981:1 1042:1 1066:1 1072:1 1165:1 1172:1 1216:1 1217:1 1219:1 1222:1 1225:1 1226:1 1227:1 1229:1 1235:1 1243:1 1245:1 1247:1 1249:1 1255:1 1270:1 1276:1 1278:4
-1 230:1 265:1 502:1 754:1 1042:1 1072:1 1217:1 1225:1 1227:1 1255:1 1276:2
-1 806:1 1042:1 1225:1 1263:1 1276:3
-1 502:2 597:1 650:1 688:1 754:1 764:1 787:1 888:1 980:1 1042:4 1066:3 1072:2 1216:1 1217:1 1219:1 1222:1 1225:4 1227:2 1234:1 1243:1 1245:1 1249:3 1255:2 1269:1 1276:6
-1 502:1 688:1 754:1 764:1 787:1 820:1 888:1 1042:1 1066:1 1072:1 1095:1 1214:1 1216:1 1217:1 1219:1 1222:1 1225:1 1227:1 1243:1 1249:1 1255:1 1276:1
-1 744:1 1276:2
-1 502:1 597:1 688:1 754:1 764:1 787:1 980:1 1042:1 1066:1 1072:1 1165:1 1217:1 1219:1 1222:1 1225:1 1226:1 1227:1 1234:1 1243:1 1249:1 1255:1 1269:1 1276:5
-1 502:1 688:1 754:1 787:1 888:1 910:1 1042:1 1066:1 1072:1 1216:1 1217:1 1219:1 1225:1 1227:1 1229:1 1243:1 1249:1 1255:1 1276:1
-1 502:1 597:1 688:1 702:1 754:1 787:1 888:1 910:1 1042:1 1066:1 1072:1 1076:1 1216:1 1217:1 1219:1 1225:1 1227:1 1229:1 1243:1 1249:1 1255:1 1264:1 1269:1 1276:1
-1 502:1 702:1 754:1 787:1 888:1 910:1 1042:1 1066:1 1072:1 1216:1 1217:1 1225:1 1227:1 1229:1 1243:1 1249:1 1255:1 1276:1
-1 181:1 916:1 1042:1 1225:1 1276:1
-1 502:1 597:1 688:1 754:1 888:1 910:1 1042:1 1066:1 1072:1 1076:1 1216:1 1217:1 1219:1 1225:1 1227:1 1229:1 1249:1 1255:1 1264:1 1269:1 1276:1
-1 502:1 787:1 1042:1 1072:1 1225:1 1227:1 1243:1 1255:1 1276:1
-1 502:1 597:1 637:1 754:1 787:1 808:1 888:1 910:1 1042:1 1066:1 1072:1 1076:1 1216:1 1217:1 1225:1 1227:1 1229:1 1230:1 1243:1 1249:1 1255:1 1264:1 1269:1 1276:1
-1 249:1 297:1 502:1 597:1 650:1 688:1 709:1 754:1 787:1 845:1 888:1 910:1 915:1 934:1 1042:1 1066:1 1072:1 1076:1 1198:1 1216:1 1217:1 1219:1 1225:1 1227:1 1229:1 1232:1 1236:1 1240:1 1243:1 1244:1 1245:1 1249:1 1255:1 1256:1 1262:1 1264:1 1269:1 1270:1 1276:1
-1 502:1 597:1 754:1 787:1 888:1 910:1 1042:1 1066:1 1072:1 1076:1 1216:1 1217:1 1225:1 1227:1 1229:1 1243:1 1249:1 1255:1 1264:1 1269:1 1276:1
-1 373:1 502:1 597:1 650:1 688:1 709:1 754:1 787:1 820:1 888:1 910:1 1042:1 1066:1 1072:1 1076:1 1142:1 1165:1 1214:1 1216:1 1217:1 1219:1 1225:1 1226:1 1227:1 1229:1 1236:1 1243:1 1245:1 1247:1 1249:1 1255:1 1264:1 1265:1 1269:1 1276:1
-1 502:1 688:1 754:1 787:1 910:1 1042:1 1066:1 1072:1 1217:1 1219:1 1225:1 1227:1 1229:1 1243:1 1249:1 1255:1 1276:1
-1 502:1 597:1 688:1 754:1 888:1 910:1 1042:1 1066:1 1072:1 1076:1 1213:1 1216:1 1217:1 1219:1 1225:1 1227:1 1229:1 1249:1 1255:1 1264:1 1269:1 1276:1
-1 502:2 688:1 1042:2 1066:1 1072:2 1219:1 1225:2 1227:2 1249:1 1255:2 1276:7
-1 502:1 688:1 754:1 806:1 888:1 1042:1 1072:1 1216:1 1217:1 1219:1 1225:1 1227:1 1255:1 1263:1 1276:2
-1 359:1 502:1 688:1 754:1 787:1 888:1 1042:1 1072:1 1216:1 1217:1 1219:1 1225:1 1227:1 1243:1 1255:1 1276:1 1278:14
-1 980:1 1042:1 1225:1 1234:1 1276:2
-1 502:1 754:1 764:1 787:1 806:1 888:1 1038:1 1042:1 1066:1 1072:1 1216:1 1217:1 1222:1 1225:1 1227:1 1243:1 1249:1 1255:1 1263:1 1276:1
-1 502:1 688:1 764:1 1042:1 1072:1 1219:1 1222:1 1225:1 1227:1 1255:1 1276:2
-1 502:2 688:1 1042:2 1066:1 1072:2 1219:1 1225:2 1227:2 1249:1 1255:2 1276:7
-1 980:1 1042:1 1225:1 1234:1 1276:2
-1 127:1 208:1 210:1 239:1 299:1 366:1 398:1 409:1 420:1 422:1 431:1 500:1 507:1 532:1 533:1 537:1 606:1 612:1 722:1 805:1 806:1 914:1 924:1 944:1 978:1 1221:1 1263:1 1276:2
-1 980:1 1042:1 1225:1 1234:1 1276:2
-1 980:1 1042:1 1225:1 1234:1 1276:2
-1 980:1 1042:1 1225:1 1234:1 1276:2
-1 980:1 1042:1 1225:1 1234:1 1276:2
-1 143:1 502:1 754:1 910:1 1042:1 1066:1 1072:1 1217:1 1225:1 1227:1 1229:1 1238:1 1249:1 1255:1 1276:1
-1 502:1 787:1 981:1 1042:1 1072:1 1225:1 1227:1 1235:1 1243:1 1255:1 1276:1
-1 502:1 597:1 709:1 754:1 764:1 787:1 888:1 910:1 934:1 1042:1 1066:1 1072:1 1076:1 1216:1 1217:1 1222:1 1225:1 1227:1 1229:1 1236:1 1243:1 1249:1 1255:1 1256:1 1264:1 1269:1 1276:1
-1 241:1 475:1 502:1 597:1 688:1 754:1 787:1 806:1 888:1 934:1 1042:1 1066:1 1072:1 1216:1 1217:1 1219:1 1225:1 1227:1 1243:1 1249:1 1255:1 1256:1 1263:1 1269:1 1276:1
-1 344:1 502:1 597:1 754:1 888:1 1042:1 1066:1 1072:1 1216:1 1217:1 1225:1 1227:1 1249:1 1255:1 1269:1 1276:1
-1 1211:1 1273:1 1276:3
-1 1211:1 1273:1 1276:3
-1 502:1 597:1 754:1 787:1 888:1 910:1 1042:1 1066:1 1072:1 1076:1 1216:1 1217:1 1225:1 1227:1 1229:1 1243:1 1249:1 1255:1 1264:1 1269:1 1276:1
-1 210:1 299:1 373:1 422:1 431:1 502:1 537:1 555:1 556:1 606:1 756:1 806:1 877:1 893:1 983:1 1042:1 1072:1 1187:1 1218:1 1221:1 1225:1 1227:1 1247:1 1255:1 1263:1 1274:1 1276:2
-1 502:1 787:1 806:1 910:1 1042:1 1225:1 1227:1 1229:1 1243:1 1263:1 1276:2
-1 903:1 1223:1 1276:1
-1 475:1 502:1 688:1 806:1 1042:1 1072:1 1219:1 1225:1 1227:1 1255:1 1263:1 1276:1
-1 1211:1 1273:1 1276:3
-1 502:1 1042:1 1225:1 1227:1 1276:2
-1 249:1 297:1 502:1 597:1 688:1 754:1 787:1 888:1 910:1 1042:1 1066:1 1072:1 1216:1 1217:1 1219:1 1225:1 1227:1 1229:1 1243:1 1244:1 1249:1 1255:1 1269:1 1270:1 1276:1
-1 502:1 673:1 754:1 888:1 1008:1 1042:1 1216:1 1217:1 1225:1 1227:1 1266:1 1276:2
-1 502:1 673:1 754:1 888:1 1008:1 1042:1 1216:1 1217:1 1225:1 1227:1 1266:1 1276:2
-1 502:1 673:1 754:1 888:1 1008:1 1042:1 1216:1 1217:1 1225:1 1227:1 1266:1 1276:2
-1 502:1 673:1 754:1 888:1 1008:1 1042:1 1216:1 1217:1 1225:1 1227:1 1266:1 1276:2
-1 230:1 265:1 515:1 1042:1 1225:1 1276:3
-1 799:1 1042:1 1225:1 1276:2
-1 1211:1 1273:1 1276:4
-1 502:1 688:1 754:1 764:1 787:1 888:1 1042:1 1072:1 1216:1 1217:1 1219:1 1222:1 1225:1 1227:1 1243:1 1255:1 1276:3
-1 1211:1 1273:1 1276:4
-1 903:1 1223:1 1276:1
-1 150:1 161:1 359:1 360:1 545:1 668:1 711:1 814:1 863:1 886:1 888:1 923:1 988:1 1042:1 1072:1 1086:1 1188:1 1215:1 1216:1 1225:1 1228:1 1242:1 1246:1 1248:1 1253:1 1255:1 1257:1 1259:1 1271:1 1272:1 1275:1 1276:3 1278:8
-1 502:1 754:1 888:1 933:1 1024:1 1042:1 1066:1 1072:1 1188:1 1216:1 1217:1 1225:1 1227:1 1249:1 1255:1 1276:1 1278:4
-1 903:1 1223:1 1276:1
-1 223:1 227:1 378:1 647:1 1042:1 1225:1 1276:3
-1 806:1 1042:1 1225:1 1263:1 1276:3
-1 502:2 597:1 650:1 688:1 754:1 764:1 787:2 888:1 1042:4 1066:3 1072:2 1216:1 1217:1 1219:1 1222:1 1225:4 1227:2 1243:2 1245:1 1249:3 1255:2 1269:1 1276:6
-1 502:1 688:1 754:1 764:1 787:1 806:1 874:1 888:1 1033:1 1038:1 1042:1 1072:1 1216:1 1217:1 1219:1 1222:1 1225:1 1227:1 1243:1 1255:1 1263:1 1276:2
-1 187:1 502:1 806:1 820:1 877:1 1042:1 1072:1 1214:1 1225:1 1227:1 1233:1 1255:1 1263:1 1274:1 1276:3
-1 502:2 1042:2 1066:1 1072:2 1225:2 1227:2 1249:1 1255:2 1276:7
-1 130:1 159:1 179:1 204:1 208:1 210:1 231:1 239:1 242:1 247:1 252:1 254:1 295:1 298:1 299:1 335:1 366:1 398:1 416:1 420:1 422:1 431:1 462:1 463:1 486:1 496:1 500:1 502:1 507:1 532:1 533:1 537:1 540:1 562:1 577:1 585:1 590:1 605:1 606:1 608:1 612:1 631:1 641:1 675:1 708:1 754:1 780:1 787:1 806:1 820:1 833:1 842:1 845:1 877:1 899:1 907:1 910:1 915:1 924:1 929:1 937:1 941:1 944:1 967:1 981:1 983:1 1000:1 1042:1 1066:1 1089:1 1093:1 1139:1 1159:1 1214:1 1217:1 1221:1 1225:1 1227:1 1229:1 1232:1 1235:1 1240:1 1243:1 1249:1 1263:1 1274:1 1276:2
-1 230:1 265:1 502:1 515:1 650:1 754:1 1042:1 1072:1 1217:1 1225:1 1227:1 1245:1 1255:1 1276:2
-1 1211:1 1273:1 1276:3
-1 1211:1 1273:1 1276:2
-1 1211:1 1273:1 1276:3
-1 1211:1 1273:1 1276:4
-1 1211:1 1273:1 1276:2
-1 498:1 502:1 787:1 806:1 888:1 910:1 1042:1 1072:1 1216:1 1225:1 1227:1 1229:1 1243:1 1255:1 1263:1 1276:2
-1 187:1 299:1 422:1 431:1 502:1 537:1 606:1 688:1 806:1 1042:1 1219:1 1221:1 1225:1 1227:1 1233:1 1263:1 1276:2
-1 502:1 650:1 952:1 1042:1 1225:1 1227:1 1245:1 1276:2
-1 498:1 502:1 540:1 600:1 754:1 787:1 806:1 888:1 910:1 982:1 1042:1 1066:1 1072:1 1148:1 1197:1 1216:1 1217:1 1225:1 1227:1 1229:1 1239:1 1243:1 1249:1 1255:1 1263:1 1276:1
-1 373:1 502:1 806:1 1042:1 1225:1 1227:1 1247:1 1263:1 1276:5 1278:7
-1 1211:1 1273:1 1276:4
-1 1042:1 1131:1 1225:1 1276:3
-1 1042:1 1225:1 1276:2
-1 178:1 230:1 265:1 385:1 502:1 618:1 754:1 806:1 1042:1 1217:1 1225:1 1227:1 1263:1 1276:2
-1 1211:1 1273:1 1276:3
-1 1211:1 1273:1 1276:3
-1 502:1 1042:1 1225:1 1227:1 1276:4
-1 373:1 519:1 806:2 1042:1 1225:1 1247:1 1263:2 1276:2
-1 806:2 1042:1 1225:1 1263:2 1276:2
-1 502:1 597:1 688:1 754:1 787:1 806:1 888:1 910:1 1042:1 1216:1 1217:1 1219:1 1225:1 1227:1 1229:1 1243:1 1263:1 1269:1 1276:2
-1 502:1 597:1 806:1 1042:1 1225:1 1227:1 1263:1 1269:1 1276:2
-1 502:1 597:1 806:1 1042:1 1225:1 1227:1 1263:1 1269:1 1276:2
-1 502:1 597:1 754:1 806:1 1042:1 1217:1 1225:1 1227:1 1263:1 1269:1 1276:2
-1 700:1 806:1 877:1 1042:1 1225:1 1263:1 1274:1 1276:2
-1 764:1 806:2 980:1 1042:1 1222:1 1225:1 1234:1 1263:2 1276:5
-1 1211:1 1273:1 1276:3
-1 143:1 373:1 434:1 502:1 541:1 597:1 598:1 688:1 710:1 764:1 787:1 888:1 910:1 981:1 1042:1 1064:1 1066:1 1072:1 1216:1 1219:1 1222:1 1225:1 1227:1 1229:1 1235:1 1237:1 1238:1 1243:1 1247:1 1249:1 1255:1 1268:1 1269:1 1276:2
-1 502:1 787:1 806:1 888:1 1042:1 1066:1 1216:1 1225:1 1227:1 1243:1 1249:1 1263:1 1276:3
-1 806:2 980:1 1042:1 1225:1 1234:1 1263:2 1276:3
-1 259:1 502:1 1042:1 1225:1 1227:1 1276:3
-1 133:1 502:1 806:2 952:1 980:1 1042:1 1225:1 1227:1 1234:1 1263:2 1276:3
-1 806:2 952:1 1042:1 1048:1 1225:1 1263:2 1276:2
-1 1042:1 1225:1 1276:1
-1 502:1 688:1 787:1 806:1 888:1 921:1 1042:1 1066:1 1072:1 1216:1 1219:1 1225:1 1227:1 1243:1 1249:1 1255:1 1263:1 1276:1
-1 903:1 1223:1 1276:1
-1 1211:1 1273:1 1276:3
-1 130:1 150:1 161:1 360:1 502:1 545:1 670:1 754:1 764:1 787:1 835:1 863:1 886:1 888:1 910:1 923:1 1042:1 1066:1 1072:1 1086:1 1193:1 1215:1 1216:1 1217:1 1222:1 1225:1 1227:1 1228:1 1229:1 1242:1 1243:1 1246:1 1249:1 1253:1 1255:1 1257:1 1258:1 1271:1 1275:1 1276:2
-1 223:1 502:1 647:1 787:1 806:1 1042:1 1104:1 1225:1 1227:1 1243:1 1263:1 1276:4
-1 249:1 502:1 688:1 754:1 806:1 845:1 877:1 888:1 910:1 1042:1 1211:1 1216:1 1217:1 1219:1 1225:1 1227:1 1229:1 1240:1 1263:1 1270:1 1273:1 1274:1 1276:3
-1 1211:1 1273:1 1276:3
-1 502:1 597:1 688:1 754:1 787:1 806:1 888:1 980:1 1042:1 1066:1 1072:1 1216:1 1217:1 1219:1 1225:1 1227:1 1234:1 1243:1 1249:1 1255:1 1263:1 1269:1 1276:4
-1 1211:1 1273:1 1276:3
-1 305:1 373:1 502:1 597:1 650:1 651:1 688:1 754:1 787:1 888:1 910:1 1042:1 1066:1 1072:1 1076:1 1216:1 1217:1 1219:1 1225:1 1227:1 1229:1 1243:1 1245:1 1247:1 1249:1 1251:1 1255:1 1264:1 1269:1 1276:2
-1 502:1 1042:1 1131:1 1225:1 1227:1 1276:3
-1 373:1 502:1 652:1 754:1 787:1 888:1 910:1 1042:1 1066:1 1072:1 1216:1 1217:1 1225:1 1227:1 1229:1 1243:1 1247:1 1249:1 1255:1 1276:4
-1 502:1 688:1 754:1 787:1 888:1 1042:1 1072:1 1216:1 1217:1 1219:1 1225:1 1227:1 1243:1 1255:1 1276:2
-1 167:1 373:1 461:1 502:1 597:1 650:1 652:1 688:1 754:1 756:1 787:1 806:1 888:1 915:1 980:1 1042:1 1066:1 1072:1 1216:1 1217:1 1218:1 1219:1 1225:1 1227:1 1232:1 1234:1 1243:1 1245:1 1247:1 1249:1 1255:1 1260:1 1263:1 1269:1 1276:5
-1 373:1 502:1 764:1 1042:1 1072:1 1222:1 1225:1 1227:1 1247:1 1255:1 1276:1
-1 249:1 373:1 502:1 688:1 754:1 764:1 787:1 888:1 910:1 1042:1 1066:1 1072:1 1165:1 1216:1 1217:1 1219:1 1222:1 1225:1 1226:1 1227:1 1229:1 1243:1 1247:1 1249:1 1255:1 1270:1 1276:2
-1 230:1 265:1 281:1 502:2 597:1 688:1 723:1 754:1 764:1 787:1 888:1 1042:5 1066:3 1072:2 1128:1 1216:1 1217:1 1219:1 1222:1 1225:5 1227:2 1243:1 1249:3 1255:2 1269:1 1276:6
-1 700:1 806:1 877:1 1042:1 1225:1 1263:1 1274:1 1276:2
-1 502:1 787:1 806:1 1042:1 1225:1 1227:1 1243:1 1263:1 1276:3
-1 146:1 208:1 210:1 239:1 252:1 299:1 366:1 420:1 422:1 431:1 500:1 528:1 537:1 550:1 596:1 606:1 806:1 848:1 877:1 914:1 924:1 1221:1 1263:1 1274:1 1276:2
-1 502:1 688:1 754:1 888:1 1042:1 1072:1 1216:1 1217:1 1219:1 1225:1 1227:1 1255:1 1276:1 1278:5
-1 159:1 208:1 210:1 252:1 299:1 373:1 398:1 422:1 431:1 500:1 537:1 602:1 606:1 806:1 914:1 924:1 1221:1 1247:1 1263:1 1276:2
-1 502:1 787:1 806:1 1042:1 1072:1 1225:1 1227:1 1243:1 1255:1 1263:1 1276:3
-1 150:1 161:1 321:1 360:1 508:1 545:1 863:1 886:1 923:1 1042:1 1072:1 1086:1 1215:1 1225:1 1228:1 1242:1 1246:1 1253:1 1255:1 1257:1 1271:1 1275:1 1276:4 1278:36
-1 502:1 688:1 787:1 806:1 1042:1 1066:1 1219:1 1225:1 1227:1 1243:1 1249:1 1263:1 1276:4
-1 210:1 299:1 422:1 431:1 537:1 540:1 606:1 806:1 1042:1 1221:1 1225:1 1263:1 1276:3
-1 1211:1 1273:1 1276:3
-1 806:2 1042:1 1225:1 1263:2 1276:2
-1 502:1 806:1 820:1 888:1 1042:1 1214:1 1216:1 1225:1 1227:1 1263:1 1276:2
-1 502:1 754:1 787:1 845:1 888:1 1042:1 1072:1 1216:1 1217:1 1225:1 1227:1 1240:1 1243:1 1255:1 1276:2
-1 502:1 754:1 787:1 888:1 1042:1 1066:1 1072:1 1216:1 1217:1 1225:1 1227:1 1243:1 1249:1 1255:1 1276:2
-1 502:1 754:1 787:1 888:1 1042:1 1066:1 1072:1 1216:1 1217:1 1225:1 1227:1 1243:1 1249:1 1255:1 1276:2
-1 1042:1 1225:1 1276:3
-1 249:1 456:1 502:1 688:1 754:1 787:1 806:1 845:1 877:1 888:1 910:1 1042:1 1066:1 1072:1 1216:1 1217:1 1219:1 1225:1 1227:1 1229:1 1240:1 1243:1 1249:1 1255:1 1263:1 1270:1 1274:1 1276:1
-1 903:1 1223:1 1276:1
-1 502:1 764:1 888:1 1042:1 1066:1 1216:1 1222:1 1225:1 1227:1 1249:1 1276:2
-1 150:1 159:1 161:1 208:1 214:1 252:1 299:1 398:1 420:1 422:1 431:1 500:1 532:1 537:1 606:1 666:1 692:1 914:1 924:1 1089:1 1221:1 1246:1 1253:1 1276:1
-1 502:1 582:1 806:1 888:1 1038:1 1042:1 1066:1 1072:1 1216:1 1225:1 1227:1 1249:1 1255:1 1263:1 1276:2 1278:5
-1 502:1 688:1 754:1 764:1 888:1 1042:1 1066:1 1072:1 1216:1 1217:1 1219:1 1222:1 1225:1 1227:1 1249:1 1255:1 1276:5
-1 502:1 650:1 754:1 787:1 806:2 1042:1 1217:1 1225:1 1227:1 1243:1 1245:1 1263:2 1276:2 1278:116
-1 502:1 650:1 764:1 806:1 1042:1 1222:1 1225:1 1227:1 1245:1 1263:1 1276:3
-1 502:2 688:1 1042:2 1066:1 1072:2 1219:1 1225:2 1227:2 1249:1 1255:2 1276:7
-1 502:1 688:1 754:1 764:1 787:1 888:1 1042:1 1072:1 1216:1 1217:1 1219:1 1222:1 1225:1 1227:1 1243:1 1255:1 1276:3
-1 210:1 299:1 422:1 431:1 486:1 537:1 606:1 787:1 806:1 820:1 842:1 877:1 1000:1 1042:1 1066:1 1072:1 1214:1 1221:1 1225:1 1243:1 1249:1 1255:1 1263:1 1274:1 1276:2
-1 208:1 210:1 299:1 420:1 422:1 431:1 486:1 502:1 532:1 537:1 606:1 806:1 888:1 1042:1 1216:1 1221:1 1225:1 1227:1 1263:1 1276:3
-1 806:1 877:1 1042:1 1225:1 1263:1 1274:1 1276:1
-1 230:2 265:3 502:2 597:1 688:1 754:1 764:1 1042:4 1066:2 1072:2 1217:1 1219:1 1222:1 1225:4 1227:2 1249:2 1255:2 1269:1 1276:6
-1 208:1 210:1 299:1 422:1 431:1 486:1 502:1 532:1 537:1 597:1 606:1 754:1 806:1 910:1 1042:1 1072:1 1217:1 1221:1 1225:1 1227:1 1229:1 1255:1 1263:1 1269:1 1276:3
-1 373:1 502:1 764:1 806:1 877:1 910:1 1042:1 1222:1 1225:1 1227:1 1229:1 1247:1 1263:1 1274:1 1276:2
-1 144:1 152:1 229:1 373:1 502:1 561:1 565:1 597:1 650:1 688:1 754:1 787:1 873:1 888:1 910:1 980:1 1042:1 1066:1 1072:1 1193:1 1216:1 1217:1 1219:1 1225:1 1227:1 1229:1 1234:1 1243:1 1245:1 1247:1 1249:1 1255:1 1258:1 1269:1 1276:2 1278:368
-1 502:1 650:1 754:1 764:1 1042:1 1217:1 1222:1 1225:1 1227:1 1245:1 1276:2
-1 195:1 747:1 1276:2
-1 787:1 806:2 1042:1 1225:1 1243:1 1263:2 1276:2
-1 373:1 1042:1 1225:1 1247:1 1276:2
-1 1042:1 1225:1 1276:2
-1 502:2 597:1 688:1 754:1 764:1 888:1 1042:5 1060:1 1066:3 1072:2 1216:1 1217:1 1219:1 1222:1 1225:5 1227:2 1249:3 1255:2 1269:1 1276:6
-1 502:1 597:1 754:1 1042:1 1072:1 1217:1 1225:1 1227:1 1255:1 1269:1 1276:4
-1 373:1 378:1 502:1 597:1 688:1 754:1 787:1 888:1 1042:1 1216:1 1217:1 1219:1 1225:1 1227:1 1243:1 1247:1 1269:1 1276:2
-1 378:1 611:1 1042:1 1225:1 1276:2
-1 378:1 611:1 1042:1 1225:1 1276:2
-1 1042:1 1225:1 1276:3
-1 230:1 265:1 611:1 806:2 883:1 1042:1 1225:1 1263:2 1276:2
-1 143:1 218:1 249:1 296:1 311:1 502:1 512:1 542:1 642:1 650:1 688:1 709:1 754:1 787:1 806:1 877:1 888:1 910:1 1042:1 1066:1 1072:1 1216:1 1217:1 1219:1 1225:1 1227:1 1229:1 1236:1 1238:1 1243:1 1245:1 1249:1 1255:1 1263:1 1267:1 1270:1 1274:1 1276:2
-1 143:1 367:1 373:1 502:1 541:1 597:1 650:1 688:1 754:1 756:1 787:1 820:1 888:1 910:1 1042:1 1066:1 1072:1 1096:1 1193:1 1214:1 1216:1 1217:1 1218:1 1219:1 1225:1 1227:1 1229:1 1238:1 1243:1 1245:1 1247:1 1249:1 1255:1 1258:1 1268:1 1269:1 1276:3
-1 502:1 541:1 597:1 650:1 688:1 754:1 756:1 787:1 820:1 888:1 1042:1 1066:1 1072:1 1096:1 1193:1 1214:1 1216:1 1217:1 1218:1 1219:1 1225:1 1227:1 1243:1 1245:1 1249:1 1255:1 1258:1 1268:1 1269:1 1276:2
-1 502:1 806:1 949:1 976:1 1042:1 1225:1 1227:1 1263:1 1276:7
-1 230:1 265:1 502:1 597:1 650:1 754:1 787:1 806:2 1042:1 1217:1 1225:1 1227:1 1243:1 1245:1 1263:2 1269:1 1276:2 1278:112
-1 502:3 597:1 688:1 754:1 764:1 787:1 888:1 1042:5 1066:2 1072:2 1216:1 1217:1 1219:1 1222:1 1225:5 1227:3 1243:1 1249:2 1255:2 1269:1 1276:6
-1 502:2 688:1 1042:4 1066:1 1072:3 1219:1 1225:4 1227:2 1249:1 1255:3 1276:4
-1 184:1 308:1 502:1 787:1 806:2 901:1 980:1 1042:1 1225:1 1227:1 1234:1 1243:1 1263:2 1276:2
-1 806:2 1042:1 1072:1 1225:1 1255:1 1263:2 1276:3
-1 344:1 373:1 1042:1 1072:1 1112:1 1165:1 1225:1 1226:1 1247:1 1255:1 1276:2
-1 230:1 265:1 270:1 787:1 806:1 849:1 874:1 1042:1 1225:1 1243:1 1263:1 1276:2
-1 486:1 502:1 688:1 697:1 700:1 806:1 1042:1 1072:1 1219:1 1225:1 1227:1 1255:1 1263:1 1276:2
-1 903:1 1223:1 1276:1
-1 373:1 502:1 597:1 602:1 652:1 688:1 754:1 787:1 806:1 820:1 888:1 910:1 1042:1 1072:1 1214:1 1216:1 1217:1 1219:1 1225:1 1227:1 1229:1 1243:1 1247:1 1255:1 1263:1 1269:1 1276:1
-1 128:1 159:1 208:1 210:1 252:1 287:1 299:1 335:1 366:1 398:1 420:1 422:1 431:1 486:1 500:1 509:1 528:1 533:1 537:1 550:1 562:1 605:1 606:1 612:1 675:1 806:1 877:1 914:1 924:1 944:1 978:1 1089:1 1221:1 1263:1 1274:1 1276:2
-1 373:1 502:1 806:1 1042:1 1225:1 1227:1 1247:1 1263:1 1276:2
-1 437:1 926:1 927:1 1042:1 1061:1 1134:1 1225:1 1276:3
-1 764:1 806:2 980:1 1042:1 1222:1 1225:1 1234:1 1263:2 1276:4
-1 159:1 208:1 210:1 252:1 299:1 373:1 398:1 420:1 422:1 431:1 500:1 537:1 562:1 602:1 606:1 612:1 806:1 877:1 914:1 924:1 978:1 983:1 1221:1 1247:1 1263:1 1274:1 1276:1
-1 502:1 754:1 1042:1 1217:1 1225:1 1227:1 1276:2
-1 502:1 597:1 650:1 754:1 1042:1 1217:1 1225:1 1227:1 1245:1 1269:1 1276:2
-1 230:1 265:1 502:1 597:1 754:1 948:1 1042:1 1217:1 1225:1 1227:1 1269:1 1276:2
-1 502:1 597:1 688:1 754:1 756:1 775:1 787:1 888:1 910:1 968:1 1042:1 1066:1 1072:1 1076:1 1216:1 1217:1 1218:1 1219:1 1225:1 1227:1 1229:1 1243:1 1249:1 1255:1 1264:1 1269:1 1276:2
-1 502:1 597:1 688:1 754:1 787:1 888:1 910:1 1042:1 1066:1 1072:1 1076:1 1216:1 1217:1 1219:1 1225:1 1227:1 1229:1 1243:1 1249:1 1255:1 1264:1 1269:1 1276:1
-1 125:1 502:1 597:1 688:1 754:1 775:1 787:1 888:1 910:1 1042:1 1066:1 1067:1 1072:1 1076:1 1216:1 1217:1 1219:1 1225:1 1227:1 1229:1 1243:1 1249:1 1255:1 1264:1 1269:1 1276:1
-1 125:1 328:1 502:1 597:1 688:1 702:1 734:1 754:1 767:1 775:1 787:1 888:1 910:1 1042:1 1066:1 1067:1 1072:1 1076:1 1216:1 1217:1 1219:1 1225:1 1227:1 1229:1 1243:1 1249:1 1255:1 1264:1 1269:1 1276:1 1278:21
-1 404:1 502:1 597:1 688:1 754:1 787:1 888:1 910:1 1042:1 1066:1 1072:1 1076:1 1216:1 1217:1 1219:1 1225:1 1227:1 1229:1 1243:1 1249:1 1255:1 1264:1 1269:1 1276:1
-1 502:1 597:1 688:1 754:1 767:1 888:1 910:1 1042:1 1066:1 1072:1 1076:1 1216:1 1217:1 1219:1 1225:1 1227:1 1229:1 1249:1 1255:1 1264:1 1269:1 1276:1
-1 502:2 688:1 1042:2 1066:1 1072:2 1219:1 1225:2 1227:2 1249:1 1255:2 1276:7
-1 486:1 502:1 688:1 754:1 787:1 806:1 1042:1 1072:1 1080:1 1217:1 1219:1 1225:1 1227:1 1243:1 1255:1 1263:1 1276:2 1278:39
-1 502:1 688:1 787:1 806:1 1042:1 1072:1 1080:1 1219:1 1225:1 1227:1 1243:1 1255:1 1263:1 1276:2 1278:39
-1 502:2 688:1 1042:2 1066:1 1072:2 1219:1 1225:2 1227:2 1249:1 1255:2 1276:6
-1 475:1 502:1 597:1 754:1 787:1 806:1 1042:1 1072:1 1217:1 1225:1 1227:1 1243:1 1255:1 1263:1 1269:1 1276:1
-1 417:1 472:1 502:1 754:1 764:1 787:1 806:1 820:1 877:1 888:1 910:1 915:1 1042:1 1050:1 1066:1 1072:1 1214:1 1216:1 1217:1 1222:1 1225:1 1227:1 1229:1 1232:1 1243:1 1249:1 1255:1 1263:1 1274:1 1276:2
-1 578:1 806:1 1042:1 1072:1 1225:1 1255:1 1263:1 1276:2
-1 374:1 378:1 502:1 1042:1 1225:1 1227:1 1276:2
-1 806:2 1042:1 1225:1 1263:2 1276:2
-1 502:1 688:1 754:1 764:1 787:1 888:1 1042:1 1072:1 1216:1 1217:1 1219:1 1222:1 1225:1 1227:1 1243:1 1255:1 1276:3
-1 161:1 299:1 422:1 431:1 532:1 537:1 606:1 663:1 666:1 692:1 699:1 820:1 842:1 888:1 990:1 1000:1 1042:1 1066:1 1072:1 1214:1 1216:1 1221:1 1225:1 1249:1 1250:1 1253:1 1255:1 1276:1
-1 230:1 265:1 385:1 502:1 745:1 754:1 806:2 1042:1 1217:1 1225:1 1227:1 1263:2 1276:2
-1 265:1 373:1 502:1 505:1 650:1 739:1 754:1 764:1 787:1 888:1 910:1 934:1 980:1 1042:1 1066:1 1072:1 1216:1 1217:1 1222:1 1225:1 1227:1 1229:1 1234:1 1243:1 1245:1 1247:1 1249:1 1255:1 1256:1 1276:2 1278:5
-1 502:1 787:1 806:1 1042:1 1072:1 1225:1 1227:1 1243:1 1255:1 1263:1 1276:3
-1 903:1 1223:1 1276:1
-1 230:1 265:1 385:1 502:1 754:1 806:2 1042:1 1217:1 1225:1 1227:1 1263:2 1276:2
-1 130:1 150:1 161:1 190:1 210:1 249:1 299:1 348:1 422:1 431:1 486:1 502:1 532:1 537:1 606:1 633:1 666:1 688:1 692:1 711:1 754:1 787:1 801:1 820:1 842:1 845:1 853:1 865:1 877:1 910:1 937:1 977:1 1000:1 1042:1 1066:1 1072:1 1139:1 1148:1 1173:1 1197:1 1214:1 1217:1 1219:1 1221:1 1225:1 1227:1 1229:1 1240:1 1243:1 1246:1 1249:1 1253:1 1255:1 1270:1 1274:1 1276:2
-1 297:1 480:1 502:2 688:1 754:1 764:1 787:1 888:1 1042:5 1066:2 1072:2 1216:1 1217:1 1219:1 1222:1 1225:5 1227:2 1243:1 1244:1 1249:2 1255:2 1276:6
-1 311:1 502:1 597:1 688:1 806:1 1042:1 1219:1 1225:1 1227:1 1263:1 1269:1 1276:1
-1 1211:1 1273:1 1276:3
-1 1211:1 1273:1 1276:2
-1 502:1 688:1 754:1 764:1 787:1 888:1 1042:1 1072:1 1216:1 1217:1 1219:1 1222:1 1225:1 1227:1 1243:1 1255:1 1276:3
-1 806:1 820:1 877:1 888:1 1042:1 1066:1 1072:1 1142:1 1214:1 1216:1 1225:1 1249:1 1255:1 1263:1 1265:1 1274:1 1276:2
-1 903:1 1223:1 1276:1
-1 158:1 502:1 563:1 806:1 874:1 1038:1 1042:1 1225:1 1227:1 1263:1 1276:2
-1 806:1 1042:1 1225:1 1263:1 1276:6
-1 806:2 1042:1 1225:1 1263:2 1276:2
-1 806:1 1042:1 1225:1 1263:1 1276:5
-1 806:2 1042:1 1225:1 1263:2 1276:3
-1 373:1 502:1 618:1 806:2 1042:1 1072:1 1225:1 1227:1 1247:1 1255:1 1263:2 1276:4
-1 373:1 806:2 1042:1 1225:1 1247:1 1263:2 1276:4
-1 196:1 770:1 806:1 1042:1 1225:1 1263:1 1276:3
-1 305:1 502:1 597:1 650:1 688:1 754:1 787:1 888:1 910:1 1008:1 1042:1 1066:1 1072:1 1076:1 1216:1 1217:1 1219:1 1225:1 1227:1 1229:1 1243:1 1245:1 1249:1 1251:1 1255:1 1264:1 1269:1 1276:2
-1 297:1 502:1 597:1 688:1 754:1 764:1 787:1 888:1 1042:1 1066:1 1072:1 1216:1 1217:1 1219:1 1222:1 1225:1 1227:1 1243:1 1244:1 1249:1 1255:1 1269:1 1276:5
-1 502:1 688:1 754:1 764:1 787:1 1042:1 1066:1 1072:1 1217:1 1219:1 1222:1 1225:1 1227:1 1243:1 1249:1 1255:1 1276:4
-1 297:1 502:1 597:1 650:1 688:1 754:1 756:1 764:1 787:1 888:1 1042:1 1066:1 1072:1 1216:1 1217:1 1218:1 1219:1 1222:1 1225:1 1227:1 1243:1 1244:1 1245:1 1249:1 1255:1 1269:1 1276:5
-1 502:1 597:1 688:1 754:1 787:1 794:1 806:2 888:1 1042:1 1066:1 1072:1 1216:1 1217:1 1219:1 1225:1 1227:1 1243:1 1249:1 1255:1 1263:2 1269:1 1276:4
-1 888:1 1042:1 1216:1 1225:1 1276:2
-1 276:1 329:1 394:1 493:1 672:1 769:1 943:1 956:1 1042:1 1106:1 1179:1 1225:1 1276:1 1278:75
-1 159:1 208:1 210:1 244:1 247:1 252:1 299:1 355:1 366:1 398:1 420:1 422:1 431:1 486:1 500:1 537:1 562:1 576:1 606:1 612:1 687:1 806:1 820:1 848:1 877:1 890:1 915:1 924:1 941:1 942:1 977:1 1066:1 1185:1 1187:1 1198:1 1214:1 1221:1 1232:1 1249:1 1262:1 1263:1 1274:1 1276:2
-1 1042:1 1225:1 1276:2
-1 314:1 365:1 502:1 640:1 1042:1 1225:1 1227:1 1276:3
-1 502:1 688:1 754:1 764:1 787:1 888:1 1042:1 1072:1 1216:1 1217:1 1219:1 1222:1 1225:1 1227:1 1243:1 1255:1 1276:2
-1 806:1 1042:1 1225:1 1263:1 1276:1
-1 1211:1 1273:1 1276:3
-1 305:1 502:1 597:1 688:1 754:1 888:1 1042:1 1066:1 1072:1 1076:1 1216:1 1217:1 1219:1 1225:1 1227:1 1249:1 1251:1 1255:1 1264:1 1269:1 1276:2
-1 249:1 344:1 502:1 888:1 892:1 1042:1 1216:1 1225:1 1227:1 1270:1 1276:1
-1 502:1 1042:1 1225:1 1227:1 1276:3
-1 146:1 210:1 299:1 373:1 398:1 422:1 431:1 486:1 502:1 537:1 555:1 556:1 575:1 606:1 756:1 806:1 877:1 893:1 983:1 991:1 1042:1 1066:1 1187:1 1218:1 1221:1 1225:1 1227:1 1247:1 1249:1 1263:1 1274:1 1276:2
-1 502:1 980:1 1042:1 1072:1 1225:1 1227:1 1234:1 1255:1 1276:2
-1 1042:1 1225:1 1276:2
-1 806:2 1042:1 1225:1 1263:2 1276:2
-1 1211:1 1273:1 1276:3
-1 149:1 265:1 352:1 401:1 411:1 611:1 726:1 994:1 1042:1 1225:1 1276:2
-1 502:1 597:1 688:1 754:1 787:1 806:1 934:1 1042:1 1072:1 1217:1 1219:1 1225:1 1227:1 1243:1 1255:1 1256:1 1263:1 1269:1 1276:4
-1 502:1 688:1 754:1 764:1 787:1 888:1 1042:1 1072:1 1216:1 1217:1 1219:1 1222:1 1225:1 1227:1 1243:1 1255:1 1276:3
-1 255:1 271:1 306:1 330:1 332:1 421:1 432:1 439:1 458:1 495:1 502:1 662:1 728:1 740:1 770:1 806:1 932:1 972:1 993:1 1014:1 1042:1 1077:1 1085:1 1099:1 1116:1 1195:1 1225:1 1227:1 1263:1 1276:6
-1 255:1 306:1 330:1 332:1 432:1 439:1 458:1 495:1 502:1 662:1 728:1 740:1 770:1 806:1 932:1 972:1 993:1 1014:1 1042:1 1077:1 1085:1 1099:1 1195:1 1225:1 1227:1 1263:1 1276:6
-1 502:1 688:1 754:1 764:1 787:1 888:1 1042:1 1072:1 1216:1 1217:1 1219:1 1222:1 1225:1 1227:1 1243:1 1255:1 1276:3
-1 502:2 688:1 1042:2 1066:1 1072:2 1219:1 1225:2 1227:2 1249:1 1255:2 1276:7
-1 1211:1 1273:1 1276:4
-1 311:1 502:1 649:1 650:1 673:1 754:1 806:1 888:1 1042:1 1216:1 1217:1 1225:1 1227:1 1245:1 1263:1 1266:1 1276:4
-1 502:1 688:1 754:1 764:1 787:1 888:1 1042:1 1072:1 1216:1 1217:1 1219:1 1222:1 1225:1 1227:1 1243:1 1255:1 1276:3
-1 178:1 181:1 230:1 265:1 611:1 784:1 850:1 883:1 898:1 916:1 948:1 1042:1 1225:1 1276:1
-1 806:2 1042:1 1225:1 1263:2 1276:5 1278:73
-1 265:1 502:1 650:1 688:1 754:1 980:1 1042:1 1217:1 1219:1 1225:1 1227:1 1234:1 1245:1 1276:2
-1 230:1 265:1 314:1 365:1 502:1 640:1 660:1 754:1 1042:1 1217:1 1225:1 1227:1 1276:2
-1 679:1 1042:1 1225:1 1276:2
-1 230:1 265:1 337:1 502:1 515:1 888:1 1042:1 1155:1 1216:1 1225:1 1227:1 1276:3
-1 806:1 1042:1 1225:1 1263:1 1276:2
-1 1211:1 1273:1 1276:3
-1 502:2 688:1 1042:2 1066:1 1072:2 1219:1 1225:2 1227:2 1249:1 1255:2 1276:7
-1 744:1 1276:1
-1 502:1 754:1 787:1 1042:1 1072:1 1217:1 1225:1 1227:1 1243:1 1255:1 1276:3
-1 297:1 502:1 549:1 597:1 688:1 754:1 787:1 839:1 1024:1 1042:1 1217:1 1219:1 1225:1 1227:1 1243:1 1244:1 1269:1 1276:1
-1 461:1 502:1 764:1 787:1 820:1 888:1 910:1 981:1 1042:1 1072:1 1214:1 1216:1 1222:1 1225:1 1227:1 1229:1 1235:1 1243:1 1255:1 1260:1 1276:1
-1 910:1 1042:1 1225:1 1229:1 1276:1
-1 502:1 787:1 888:1 910:1 1042:1 1216:1 1225:1 1227:1 1229:1 1243:1 1276:3
-1 903:1 1223:1 1276:1
-1 502:2 597:1 621:1 650:1 688:1 754:1 764:1 787:2 952:1 1042:4 1066:2 1072:2 1217:1 1219:1 1222:1 1225:4 1227:2 1243:2 1245:1 1249:2 1255:2 1269:1 1276:6
-1 159:1 208:1 210:1 264:1 298:1 299:1 373:1 422:1 431:1 486:1 488:1 500:1 502:1 537:1 542:1 555:1 556:1 575:1 606:1 756:1 806:1 914:1 918:1 924:1 983:1 1042:1 1066:1 1072:1 1187:1 1218:1 1221:1 1225:1 1227:1 1247:1 1249:1 1255:1 1263:1 1267:1 1276:1
-1 502:1 806:1 1042:1 1225:1 1227:1 1263:1 1276:5
-1 159:1 208:1 210:1 225:1 252:1 299:1 398:1 420:1 422:1 431:1 502:1 532:1 537:1 562:1 606:1 806:1 877:1 924:1 1089:1 1221:1 1227:1 1263:1 1274:1 1276:1
-1 502:2 597:1 621:1 688:1 754:1 764:1 787:2 888:5 952:1 1042:4 1066:3 1072:2 1216:5 1217:1 1219:1 1222:1 1225:4 1227:2 1243:2 1249:3 1255:2 1269:1 1276:7
-1 265:1 502:1 597:1 688:1 754:1 787:1 806:2 888:1 1042:1 1066:1 1072:1 1104:1 1216:1 1217:1 1219:1 1225:1 1227:1 1243:1 1249:1 1255:1 1263:2 1269:1 1276:2
-1 299:1 422:1 431:1 502:1 537:1 606:1 725:1 806:1 877:1 981:1 1042:1 1072:1 1156:1 1221:1 1225:1 1227:1 1235:1 1255:1 1263:1 1274:1 1276:1
-1 373:1 502:1 688:1 787:1 910:1 1042:1 1072:1 1219:1 1225:1 1227:1 1229:1 1243:1 1247:1 1255:1 1276:2
-1 1211:1 1273:1 1276:3
-1 227:1 230:1 265:1 378:1 502:1 515:1 611:1 650:1 688:1 754:1 787:1 792:1 850:1 1042:1 1217:1 1219:1 1225:1 1227:1 1243:1 1245:1 1276:2
-1 502:1 597:1 688:1 754:1 764:1 787:1 806:1 888:1 1038:1 1042:1 1066:1 1072:1 1128:1 1216:1 1217:1 1219:1 1222:1 1225:1 1227:1 1243:1 1249:1 1255:1 1263:1 1269:1 1276:1
-1 223:1 553:1 647:1 806:1 1042:1 1225:1 1263:1 1276:3
-1 249:1 297:1 373:1 454:1 502:1 597:1 650:1 688:1 709:1 754:1 764:1 787:1 840:1 888:1 910:1 934:1 1042:1 1066:1 1072:1 1076:1 1128:1 1216:1 1217:1 1219:1 1222:1 1225:1 1227:1 1229:1 1236:1 1243:1 1244:1 1245:1 1247:1 1249:1 1255:1 1256:1 1264:1 1269:1 1270:1 1276:4
-1 223:1 647:1 806:1 935:1 1042:1 1104:1 1225:1 1263:1 1276:4
-1 1042:1 1225:1 1276:1
-1 502:1 754:1 1042:1 1217:1 1225:1 1227:1 1276:1
-1 181:1 502:1 571:1 754:1 787:1 916:1 1042:1 1066:1 1072:1 1217:1 1225:1 1227:1 1243:1 1249:1 1255:1 1276:1
-1 502:2 688:1 1042:2 1066:1 1072:2 1219:1 1225:2 1227:2 1249:1 1255:2 1276:7
-1 143:1 187:1 249:1 297:1 300:1 502:1 568:1 754:1 787:1 839:1 845:1 888:1 910:1 934:1 1024:1 1042:1 1066:1 1072:1 1216:1 1217:1 1225:1 1227:1 1229:1 1233:1 1238:1 1240:1 1243:1 1244:1 1249:1 1255:1 1256:1 1270:1 1276:1 1278:44
-1 502:1 568:1 754:1 787:1 820:1 888:1 910:1 1024:1 1042:1 1066:1 1072:1 1214:1 1216:1 1217:1 1225:1 1227:1 1229:1 1243:1 1249:1 1255:1 1276:2 1278:1
-1 210:1 299:1 422:1 431:1 486:1 502:1 537:1 606:1 688:1 787:1 806:1 910:1 934:1 1042:1 1072:1 1219:1 1221:1 1225:1 1227:1 1229:1 1243:1 1255:1 1256:1 1263:1 1276:2
-1 230:1 265:1 502:1 650:1 754:1 787:1 806:1 849:1 874:1 1038:1 1042:1 1072:1 1217:1 1225:1 1227:1 1243:1 1245:1 1255:1 1263:1 1276:2 1278:92
-1 502:1 688:1 754:1 764:1 787:1 888:1 1042:1 1066:1 1216:1 1217:1 1219:1 1222:1 1225:1 1227:1 1243:1 1249:1 1276:5
-1 1211:1 1273:1 1276:4
-1 770:1 806:2 1042:1 1225:1 1263:2 1276:3
-1 770:1 806:2 1042:1 1225:1 1263:2 1276:3
-1 502:1 754:1 787:1 1042:1 1072:1 1217:1 1225:1 1227:1 1243:1 1255:1 1276:2
-1 223:1 238:1 647:1 806:2 1001:1 1042:1 1104:1 1207:1 1225:1 1263:2 1276:2
-1 196:1 332:1 770:1 806:1 1042:1 1116:1 1225:1 1263:1 1276:3 1278:6
-1 806:1 993:1 1042:1 1116:1 1225:1 1263:1 1276:3
-1 297:1 502:2 597:1 688:1 754:1 764:1 888:1 1042:6 1066:3 1072:2 1216:1 1217:1 1219:1 1222:1 1225:6 1227:2 1244:1 1249:3 1255:2 1269:1 1276:6
-1 438:1 589:1 806:1 811:1 1042:1 1225:1 1263:1 1276:3
-1 1211:1 1273:1 1276:3
-1 297:1 502:2 597:1 688:1 754:1 756:1 764:1 787:1 888:2 1042:4 1066:2 1072:2 1101:1 1174:1 1199:1 1216:2 1217:1 1218:1 1219:1 1222:1 1225:4 1227:2 1243:1 1244:1 1249:2 1255:2 1269:1 1276:5
-1 1211:1 1273:1 1276:4
-1 227:1 378:1 502:1 688:1 754:1 787:1 792:1 1022:1 1042:1 1072:1 1217:1 1219:1 1225:1 1227:1 1243:1 1255:1 1276:2
-1 502:1 597:1 688:1 754:1 764:1 787:1 806:1 888:1 980:1 1042:1 1072:1 1216:1 1217:1 1219:1 1222:1 1225:1 1227:1 1234:1 1243:1 1255:1 1263:1 1269:1 1276:4
-1 502:1 688:1 754:1 764:1 787:1 888:1 1042:1 1072:1 1216:1 1217:1 1219:1 1222:1 1225:1 1227:1 1243:1 1255:1 1276:3
-1 1042:1 1225:1 1276:3
-1 502:1 597:1 650:1 688:1 754:1 787:1 888:1 980:1 1042:1 1072:1 1076:1 1216:1 1217:1 1219:1 1225:1 1227:1 1234:1 1243:1 1245:1 1255:1 1264:1 1269:1 1276:2
-1 1042:1 1225:1 1276:3 1278:1
-1 502:1 754:1 787:1 1042:1 1072:1 1217:1 1225:1 1227:1 1243:1 1255:1 1276:2
-1 806:1 877:1 1042:1 1225:1 1263:1 1274:1 1276:2
-1 1042:1 1225:1 1276:1
-1 1211:1 1273:1 1276:3
-1 143:1 218:1 249:1 296:1 311:1 502:1 512:1 542:1 642:1 650:1 688:1 709:1 754:1 787:1 806:1 877:1 888:1 910:1 1042:1 1066:1 1072:1 1216:1 1217:1 1219:1 1225:1 1227:1 1229:1 1236:1 1238:1 1243:1 1245:1 1249:1 1255:1 1263:1 1267:1 1270:1 1274:1 1276:2
-1 1211:1 1273:1 1276:3
-1 1211:1 1273:1 1276:3
-1 1211:1 1273:1 1276:3
-1 502:1 688:1 754:1 764:1 787:1 888:1 1042:1 1072:1 1216:1 1217:1 1219:1 1222:1 1225:1 1227:1 1243:1 1255:1 1276:2
-1 806:1 1042:1 1225:1 1263:1 1276:2
-1 502:1 688:1 754:1 787:1 806:1 868:1 877:1 888:1 910:1 1042:1 1066:1 1072:1 1216:1 1217:1 1219:1 1225:1 1227:1 1229:1 1243:1 1249:1 1255:1 1263:1 1274:1 1276:2
-1 1024:1 1042:1 1225:1 1276:2
-1 123:1 888:1 1042:1 1216:1 1225:1 1276:2
-1 806:1 1042:1 1072:1 1225:1 1255:1 1263:1 1276:2
-1 502:1 597:1 688:1 754:1 787:1 806:2 1042:1 1072:1 1217:1 1219:1 1225:1 1227:1 1243:1 1255:1 1263:2 1269:1 1276:3
-1 502:1 688:1 806:1 1042:1 1219:1 1225:1 1227:1 1263:1 1276:2
-1 1211:1 1273:1 1276:4
-1 502:1 688:1 754:1 764:1 787:1 888:1 1042:1 1066:1 1072:1 1216:1 1217:1 1219:1 1222:1 1225:1 1227:1 1243:1 1249:1 1255:1 1276:2
-1 806:2 980:1 1042:1 1225:1 1234:1 1263:2 1276:3
-1 806:2 980:1 1042:1 1225:1 1234:1 1263:2 1276:3
-1 502:1 688:1 754:1 787:1 1042:1 1072:1 1095:1 1217:1 1219:1 1225:1 1227:1 1243:1 1255:1 1276:3
-1 903:1 1223:1 1276:1
-1 502:2 597:1 688:1 754:1 764:1 787:1 888:1 980:1 1042:4 1066:3 1072:2 1216:1 1217:1 1219:1 1222:1 1225:4 1227:2 1234:1 1243:1 1249:3 1255:2 1269:1 1276:6
-1 159:1 208:1 210:1 252:1 299:1 373:1 398:1 422:1 431:1 500:1 537:1 602:1 606:1 806:1 914:1 924:1 1221:1 1247:1 1263:1 1276:2
-1 806:1 1042:1 1151:1 1225:1 1263:1 1276:2
-1 888:1 1042:1 1066:1 1216:1 1225:1 1249:1 1276:1
-1 249:1 502:1 541:1 542:1 764:1 787:1 888:1 910:1 1042:1 1066:1 1072:1 1216:1 1222:1 1225:1 1227:1 1229:1 1243:1 1249:1 1255:1 1267:1 1268:1 1270:1 1276:1
-1 502:1 597:1 688:1 754:1 787:1 888:1 910:1 1042:1 1066:1 1072:1 1076:1 1216:1 1217:1 1219:1 1225:1 1227:1 1229:1 1243:1 1249:1 1255:1 1264:1 1269:1 1276:2
-1 502:1 787:1 1042:1 1072:1 1225:1 1227:1 1243:1 1255:1 1276:1
-1 502:1 754:1 910:1 1042:1 1066:1 1072:1 1217:1 1225:1 1227:1 1229:1 1249:1 1255:1 1276:1
-1 1211:1 1273:1 1276:3
-1 502:1 754:1 1042:1 1072:1 1217:1 1225:1 1227:1 1255:1 1276:2 1278:2
-1 468:1 956:1 957:1 1042:1 1107:1 1225:1 1276:3 1278:1
-1 710:1 806:1 1042:1 1225:1 1237:1 1263:1 1276:1
-1 806:1 1042:1 1225:1 1263:1 1276:1
-1 486:1 787:1 806:1 1042:1 1072:1 1225:1 1243:1 1255:1 1263:1 1276:1
-1 502:1 764:1 1042:1 1222:1 1225:1 1227:1 1276:5 1278:1
-1 1042:1 1225:1 1276:2
-1 159:1 208:1 210:1 225:1 252:1 266:1 273:1 299:1 335:1 398:1 420:1 422:1 431:1 500:1 537:1 606:1 806:1 877:1 914:1 924:1 1089:1 1221:1 1263:1 1274:1 1276:1
-1 1211:1 1273:1 1276:3
-1 502:1 888:1 981:1 1042:1 1066:1 1072:1 1142:1 1216:1 1225:1 1227:1 1235:1 1249:1 1255:1 1265:1 1276:1
-1 170:1 210:1 244:1 299:1 422:1 431:1 537:1 562:1 590:1 605:1 606:1 806:1 940:1 1221:1 1261:1 1263:1 1276:1
-1 210:1 299:1 420:1 422:1 431:1 486:1 537:1 562:1 606:1 717:1 806:1 1221:1 1263:1 1276:2
-1 1211:1 1273:1 1276:3
-1 1211:1 1273:1 1276:2
-1 437:1 614:1 1042:1 1137:1 1225:1 1276:2
-1 305:1 502:1 597:1 688:1 754:1 787:1 888:1 1042:1 1066:1 1072:1 1076:1 1216:1 1217:1 1219:1 1225:1 1227:1 1243:1 1249:1 1251:1 1255:1 1264:1 1269:1 1276:2
-1 502:1 787:1 806:1 1042:1 1072:1 1225:1 1227:1 1243:1 1255:1 1263:1 1276:1
-1 461:1 484:1 498:1 502:1 764:1 787:1 806:1 827:1 888:1 910:1 915:1 982:1 1042:1 1066:1 1072:1 1105:1 1193:1 1216:1 1222:1 1225:1 1227:1 1229:1 1232:1 1239:1 1243:1 1249:1 1255:1 1258:1 1260:1 1263:1 1276:1
-1 502:1 688:1 709:1 806:1 888:1 1042:1 1066:1 1211:1 1216:1 1219:1 1225:1 1227:1 1236:1 1249:1 1263:1 1273:1 1276:4
-1 337:1 502:1 888:1 1042:1 1066:1 1072:1 1216:1 1225:1 1227:1 1249:1 1255:1 1276:3
-1 378:1 888:1 1042:1 1066:1 1216:1 1225:1 1249:1 1276:2
-1 498:1 502:1 806:1 820:1 888:1 982:1 1034:1 1042:1 1066:1 1072:1 1198:1 1214:1 1216:1 1225:1 1227:1 1239:1 1249:1 1255:1 1262:1 1263:1 1276:2
-1 498:1 502:1 806:1 888:1 1042:1 1193:1 1216:1 1225:1 1227:1 1258:1 1263:1 1276:2
-1 119:1 188:1 213:1 270:1 286:1 338:1 342:1 370:1 406:1 412:1 464:1 469:1 494:1 543:1 591:1 821:1 920:1 970:1 1042:1 1088:1 1094:1 1225:1 1276:2 1278:427
-1 486:1 502:1 787:1 806:1 910:1 1042:1 1066:1 1072:1 1225:1 1227:1 1229:1 1243:1 1249:1 1255:1 1263:1 1276:1 1278:66
-1 190:1 340:1 498:1 806:1 1042:1 1072:1 1109:1 1171:1 1225:1 1255:1 1263:1 1276:3
-1 256:1 502:1 597:1 688:1 754:1 764:1 806:1 1042:1 1072:1 1217:1 1219:1 1222:1 1225:1 1227:1 1255:1 1263:1 1269:1 1276:2
-1 437:1 502:1 688:1 754:1 787:1 1042:1 1072:1 1217:1 1219:1 1225:1 1227:1 1243:1 1255:1 1276:3
-1 200:1 502:1 586:1 787:1 790:1 806:1 888:1 1042:1 1052:1 1066:1 1072:1 1216:1 1225:1 1227:1 1243:1 1249:1 1255:1 1263:1 1276:2
-1 325:1 1042:1 1225:1 1276:2
-1 502:1 884:1 888:1 987:1 1042:1 1066:1 1072:1 1211:1 1216:1 1225:1 1227:1 1249:1 1255:1 1273:1 1276:1
-1 249:1 502:1 597:1 688:1 754:1 787:1 888:1 910:1 1042:1 1066:1 1072:1 1076:1 1216:1 1217:1 1219:1 1225:1 1227:1 1229:1 1243:1 1249:1 1255:1 1264:1 1269:1 1270:1 1276:1
-1 178:1 181:1 230:1 265:1 611:1 784:1 883:1 916:1 948:1 1042:1 1225:1 1276:1
-1 1211:1 1273:1 1276:3
-1 502:1 688:1 754:1 764:1 787:1 888:1 1042:1 1072:1 1216:1 1217:1 1219:1 1222:1 1225:1 1227:1 1243:1 1255:1 1276:3
-1 502:1 688:1 787:1 806:1 888:1 910:1 1042:1 1066:1 1152:1 1216:1 1219:1 1225:1 1227:1 1229:1 1243:1 1249:1 1263:1 1276:3
-1 502:2 688:1 754:1 787:1 888:1 1042:3 1066:2 1072:2 1216:1 1217:1 1219:1 1225:3 1227:2 1243:1 1249:2 1255:2 1276:6
-1 502:1 597:1 688:1 754:1 787:1 806:1 888:1 910:1 934:1 1042:1 1072:1 1216:1 1217:1 1219:1 1225:1 1227:1 1229:1 1243:1 1255:1 1256:1 1263:1 1269:1 1276:1
-1 1211:1 1273:1 1276:2
-1 159:1 208:1 210:1 225:1 239:1 247:1 252:1 254:1 264:1 299:1 301:1 366:1 398:1 420:1 422:1 431:1 454:1 486:1 500:1 502:1 507:1 532:1 537:1 540:1 562:1 577:1 605:1 606:1 612:1 631:1 708:1 787:1 806:1 877:1 910:1 924:1 944:1 977:1 978:1 1042:1 1066:1 1072:1 1089:1 1187:1 1221:1 1225:1 1227:1 1229:1 1243:1 1249:1 1255:1 1263:1 1274:1 1276:2
-1 502:1 664:1 754:1 787:1 806:1 888:1 1042:1 1066:1 1072:1 1216:1 1217:1 1225:1 1227:1 1243:1 1249:1 1255:1 1263:1 1276:2
-1 688:1 787:1 806:1 888:1 1042:1 1072:1 1216:1 1219:1 1225:1 1243:1 1255:1 1263:1 1276:1
-1 502:1 754:1 806:1 888:1 1012:1 1042:1 1072:1 1216:1 1217:1 1225:1 1227:1 1255:1 1263:1 1276:1
-1 502:1 688:1 787:1 806:1 888:1 910:1 1042:1 1066:1 1072:1 1216:1 1219:1 1225:1 1227:1 1229:1 1243:1 1249:1 1255:1 1263:1 1276:2
-1 159:1 187:1 208:1 210:1 254:1 299:1 422:1 431:1 486:1 502:1 537:1 540:1 606:1 688:1 754:1 787:1 806:1 845:1 888:1 910:1 915:1 1042:1 1066:1 1072:1 1198:1 1216:1 1217:1 1219:1 1221:1 1225:1 1227:1 1229:1 1232:1 1233:1 1240:1 1243:1 1249:1 1255:1 1262:1 1263:1 1276:2
-1 297:1 502:2 597:1 688:1 754:1 764:1 787:2 806:1 888:2 1042:4 1066:3 1072:2 1216:2 1217:1 1219:1 1222:1 1225:4 1227:2 1243:2 1244:1 1249:3 1255:2 1263:1 1269:1 1276:5
-1 249:1 297:1 502:1 597:1 650:1 688:1 709:1 754:1 787:1 888:1 910:1 934:1 1042:1 1066:1 1072:1 1076:1 1216:1 1217:1 1219:1 1225:1 1227:1 1229:1 1236:1 1243:1 1244:1 1245:1 1249:1 1255:1 1256:1 1264:1 1269:1 1270:1 1276:1
-1 297:1 491:1 502:2 597:1 688:1 754:1 764:1 787:1 888:1 1042:5 1066:2 1072:2 1216:1 1217:1 1219:1 1222:1 1225:5 1227:2 1243:1 1244:1 1249:2 1255:2 1269:1 1276:6
-1 254:1 264:1 299:1 422:1 431:1 486:1 502:1 537:1 540:1 597:1 606:1 688:1 754:1 787:1 806:1 820:1 877:1 888:1 910:1 934:1 1042:1 1066:1 1072:1 1187:1 1214:1 1216:1 1217:1 1219:1 1221:1 1225:1 1227:1 1229:1 1243:1 1249:1 1255:1 1256:1 1263:1 1269:1 1274:1 1276:2
-1 502:1 754:1 787:1 806:1 1042:1 1072:1 1217:1 1225:1 1227:1 1243:1 1255:1 1263:1 1276:1
-1 208:1 210:1 225:1 239:1 252:1 299:1 398:1 420:1 422:1 431:1 486:1 500:1 502:1 507:1 532:1 537:1 562:1 605:1 606:1 631:1 714:1 754:1 787:1 806:1 848:1 877:1 888:1 1089:1 1216:1 1217:1 1221:1 1227:1 1243:1 1263:1 1274:1 1276:2
-1 146:1 159:1 187:1 210:1 225:1 252:1 254:1 266:1 299:1 366:1 422:1 431:1 502:1 507:1 537:1 540:1 562:1 577:1 606:1 612:1 631:1 764:1 787:1 806:1 877:1 888:1 910:1 924:1 944:1 977:1 978:1 1042:1 1066:1 1072:1 1089:1 1185:1 1216:1 1221:1 1222:1 1225:1 1227:1 1229:1 1233:1 1243:1 1249:1 1255:1 1263:1 1274:1 1276:2 1278:1
-1 475:1 502:1 787:1 806:1 888:1 1042:1 1072:1 1216:1 1225:1 1227:1 1243:1 1255:1 1263:1 1276:1
-1 1211:1 1273:1 1276:3
-1 161:1 208:1 225:1 254:1 299:1 398:1 422:1 431:1 486:1 502:1 507:1 532:1 537:1 540:1 590:1 605:1 606:1 663:1 666:1 692:1 820:1 877:1 924:1 940:1 1042:1 1066:1 1072:1 1089:1 1126:1 1142:1 1214:1 1221:1 1225:1 1227:1 1249:1 1252:1 1253:1 1255:1 1261:1 1265:1 1274:1 1276:2
-1 223:1 553:1 647:1 806:2 1042:1 1225:1 1263:2 1276:2
-1 223:1 553:1 806:1 1042:1 1207:1 1225:1 1263:1 1276:2
-1 223:1 553:1 647:1 806:1 1042:1 1207:1 1225:1 1263:1 1276:2
-1 510:1 806:2 1019:1 1042:1 1225:1 1263:2 1276:5
-1 502:1 688:1 754:1 806:1 888:1 934:1 1042:1 1072:1 1216:1 1217:1 1219:1 1225:1 1227:1 1255:1 1256:1 1263:1 1276:1
-1 332:1 421:1 738:1 770:1 806:2 993:1 1042:1 1077:1 1116:1 1225:1 1263:2 1276:2 1278:347
-1 502:1 597:1 688:1 787:1 806:1 888:1 910:1 1042:1 1072:1 1216:1 1219:1 1225:1 1227:1 1229:1 1243:1 1255:1 1263:1 1269:1 1276:1
-1 502:1 597:1 688:1 754:1 787:1 806:1 888:1 934:1 1042:1 1072:1 1216:1 1217:1 1219:1 1225:1 1227:1 1243:1 1255:1 1256:1 1263:1 1269:1 1276:3
-1 502:2 688:1 1042:2 1066:1 1072:2 1219:1 1225:2 1227:2 1249:1 1255:2 1276:7
-1 502:1 754:1 806:1 1042:1 1217:1 1225:1 1227:1 1263:1 1276:2
-1 502:1 787:1 806:1 888:1 910:1 1042:1 1211:1 1216:1 1225:1 1227:1 1229:1 1243:1 1263:1 1273:1 1276:2
-1 688:1 713:1 787:1 806:1 1042:1 1142:1 1219:1 1225:1 1243:1 1263:1 1265:1 1276:2
-1 903:1 1223:1 1276:1
-1 502:1 597:1 650:1 688:1 754:1 764:1 787:1 888:1 1042:1 1066:1 1072:1 1216:1 1217:1 1219:1 1222:1 1225:1 1227:1 1243:1 1245:1 1249:1 1255:1 1269:1 1276:2
-1 806:1 852:1 1024:1 1042:1 1225:1 1263:1 1276:2
-1 230:1 265:1 502:1 754:1 806:1 874:1 1038:1 1042:1 1217:1 1225:1 1227:1 1263:1 1276:2
-1 502:1 664:1 688:1 714:1 754:1 764:1 787:1 806:1 845:1 877:1 888:1 910:1 1042:1 1066:1 1072:1 1216:1 1217:1 1219:1 1222:1 1225:1 1227:1 1229:1 1240:1 1243:1 1249:1 1255:1 1263:1 1274:1 1276:2
-1 806:2 1042:1 1225:1 1263:2 1276:2
-1 178:1 181:1 230:1 265:1 611:1 784:1 850:1 883:1 898:1 916:1 948:1 1042:1 1225:1 1276:2
-1 502:1 1042:1 1225:1 1227:1 1276:2
-1 159:1 208:1 210:1 299:1 366:1 422:1 431:1 454:1 502:1 532:1 537:1 606:1 666:1 787:1 806:1 820:1 882:1 888:1 910:1 934:1 1042:1 1066:1 1214:1 1216:1 1221:1 1225:1 1227:1 1229:1 1243:1 1249:1 1256:1 1263:1 1276:1
-1 502:1 688:1 709:1 754:1 764:1 888:1 1042:1 1066:1 1216:1 1217:1 1219:1 1222:1 1225:1 1227:1 1236:1 1249:1 1276:2
-1 502:1 597:1 688:1 709:1 754:1 787:1 888:1 910:1 1042:1 1066:1 1072:1 1216:1 1217:1 1219:1 1225:1 1227:1 1229:1 1236:1 1243:1 1249:1 1255:1 1269:1 1276:3
-1 159:1 208:1 210:1 225:1 239:1 299:1 366:1 420:1 422:1 431:1 507:1 532:1 537:1 540:1 562:1 577:1 606:1 631:1 708:1 712:1 806:1 877:1 924:1 944:1 1089:1 1221:1 1263:1 1274:1 1276:2
-1 159:1 208:1 210:1 239:1 244:1 252:1 280:1 299:1 420:1 422:1 431:1 500:1 507:1 532:1 537:1 540:1 550:1 562:1 577:1 606:1 631:1 712:1 806:1 848:1 877:1 924:1 1089:1 1221:1 1263:1 1274:1 1276:2
-1 502:1 597:1 688:1 754:1 764:1 787:1 888:1 1042:1 1072:1 1216:1 1217:1 1219:1 1222:1 1225:1 1227:1 1243:1 1255:1 1269:1 1276:2
-1 1211:1 1273:1 1276:3
-1 1211:1 1273:1 1276:3
-1 1211:1 1273:1 1276:3
-1 502:1 754:1 1042:1 1217:1 1225:1 1227:1 1276:3
-1 502:1 754:1 787:1 1042:1 1217:1 1225:1 1227:1 1243:1 1276:2
-1 502:1 688:1 754:1 764:1 787:1 888:1 1042:1 1072:1 1216:1 1217:1 1219:1 1222:1 1225:1 1227:1 1243:1 1255:1 1276:2
-1 502:1 688:1 754:1 764:1 787:1 888:1 1042:1 1072:1 1216:1 1217:1 1219:1 1222:1 1225:1 1227:1 1243:1 1255:1 1276:3
-1 502:1 787:1 888:1 1042:1 1072:1 1216:1 1225:1 1227:1 1243:1 1255:1 1276:3
-1 1211:1 1273:1 1276:2
-1 1042:1 1072:1 1225:1 1255:1 1276:1
-1 502:1 688:1 754:1 764:1 1042:1 1072:1 1217:1 1219:1 1222:1 1225:1 1227:1 1255:1 1276:2
-1 502:1 688:1 754:1 764:1 1042:1 1072:1 1217:1 1219:1 1222:1 1225:1 1227:1 1255:1 1276:2
-1 502:1 688:1 754:1 764:1 787:1 820:1 888:1 1042:1 1066:1 1072:1 1214:1 1216:1 1217:1 1219:1 1222:1 1225:1 1227:1 1243:1 1249:1 1255:1 1276:2
-1 502:1 688:1 754:1 764:1 787:1 888:1 1042:1 1072:1 1216:1 1217:1 1219:1 1222:1 1225:1 1227:1 1243:1 1255:1 1276:2
-1 754:1 888:1 1042:1 1066:1 1072:1 1198:1 1216:1 1217:1 1225:1 1249:1 1255:1 1262:1 1276:3
-1 806:2 980:1 1042:1 1225:1 1234:1 1263:2 1276:3
-1 1211:1 1273:1 1276:3
-1 1211:1 1273:1 1276:3
-1 502:2 688:1 1042:2 1066:1 1072:2 1219:1 1225:2 1227:2 1249:1 1255:2 1276:7
-1 159:1 208:1 210:1 252:1 299:1 373:1 398:1 422:1 431:1 500:1 533:1 537:1 562:1 606:1 750:1 806:1 877:1 914:1 924:1 944:1 1070:1 1089:1 1117:1 1150:1 1165:1 1221:1 1226:1 1247:1 1263:1 1274:1 1276:2
-1 502:1 688:1 787:1 888:1 1042:1 1066:1 1072:1 1216:1 1219:1 1225:1 1227:1 1243:1 1249:1 1255:1 1276:3
-1 502:2 688:1 754:1 764:1 787:1 980:1 1042:4 1066:2 1072:2 1217:1 1219:1 1222:1 1225:4 1227:2 1234:1 1243:1 1249:2 1255:2 1276:6
-1 502:1 688:1 754:1 764:1 787:1 888:1 1042:1 1066:1 1072:1 1216:1 1217:1 1219:1 1222:1 1225:1 1227:1 1243:1 1249:1 1255:1 1276:2
-1 143:1 373:1 475:1 502:1 602:1 650:1 787:1 806:1 877:1 888:1 910:1 1042:1 1066:1 1072:1 1216:1 1225:1 1227:1 1229:1 1238:1 1243:1 1245:1 1247:1 1249:1 1255:1 1263:1 1274:1 1276:1
-1 265:1 502:1 754:1 1042:1 1217:1 1225:1 1227:1 1276:1
-1 502:2 597:1 688:1 754:1 764:1 787:2 888:1 1042:4 1066:2 1072:2 1216:1 1217:1 1219:1 1222:1 1225:4 1227:2 1243:2 1249:2 1255:2 1269:1 1276:6
-1 502:2 597:1 688:1 754:1 764:1 1042:4 1066:2 1072:2 1217:1 1219:1 1222:1 1225:4 1227:2 1249:2 1255:2 1269:1 1276:6
-1 502:1 688:1 754:1 764:1 787:1 888:1 1042:1 1072:1 1216:1 1217:1 1219:1 1222:1 1225:1 1227:1 1243:1 1255:1 1276:3
-1 1042:1 1225:1 1276:1
-1 502:1 754:1 1042:1 1217:1 1225:1 1227:1 1276:3
-1 502:1 688:1 754:1 764:1 787:1 888:1 1042:1 1072:1 1216:1 1217:1 1219:1 1222:1 1225:1 1227:1 1243:1 1255:1 1276:3
-1 502:1 688:1 754:1 764:1 787:1 820:1 888:1 1042:1 1066:1 1072:1 1095:1 1214:1 1216:1 1217:1 1219:1 1222:1 1225:1 1227:1 1243:1 1249:1 1255:1 1276:1
-1 502:1 1042:1 1066:1 1225:1 1227:1 1249:1 1276:4
-1 159:1 208:1 210:1 239:1 252:1 277:1 299:1 373:1 420:1 422:1 431:1 500:1 537:1 550:1 576:1 606:1 612:1 791:1 806:1 847:1 914:1 924:1 1221:1 1247:1 1263:1 1276:4
-1 502:1 754:1 787:1 806:1 910:1 1042:1 1217:1 1225:1 1227:1 1229:1 1243:1 1263:1 1276:3
-1 806:1 1042:1 1225:1 1263:1 1276:2
-1 461:5 502:2 597:1 688:1 754:1 756:1 764:1 787:2 888:1 1042:5 1066:3 1072:6 1216:1 1217:1 1218:1 1219:1 1222:1 1225:5 1227:2 1243:2 1249:3 1255:6 1260:5 1269:1 1276:6
-1 502:1 688:1 754:1 764:1 787:1 888:1 1042:1 1072:1 1216:1 1217:1 1219:1 1222:1 1225:1 1227:1 1243:1 1255:1 1276:5
-1 210:1 299:1 366:1 422:1 431:1 486:1 502:1 537:1 606:1 666:1 688:1 806:1 845:1 910:1 977:1 1042:1 1066:1 1072:1 1219:1 1221:1 1225:1 1227:1 1229:1 1240:1 1249:1 1255:1 1263:1 1276:1
-1 502:2 597:1 650:1 688:1 754:1 764:1 888:1 1042:4 1066:1 1072:2 1216:1 1217:1 1219:1 1222:1 1225:4 1227:2 1245:1 1249:1 1255:2 1269:1 1276:6
-1 437:1 1042:1 1225:1 1276:2
-1 437:1 1042:1 1225:1 1276:2
-1 502:1 688:1 754:1 764:1 787:1 888:1 1042:1 1072:1 1216:1 1217:1 1219:1 1222:1 1225:1 1227:1 1243:1 1255:1 1276:4
-1 502:1 1042:1 1072:1 1225:1 1227:1 1255:1 1276:3
-1 502:1 688:1 754:1 764:1 787:1 888:1 1042:1 1066:1 1072:1 1216:1 1217:1 1219:1 1222:1 1225:1 1227:1 1243:1 1249:1 1255:1 1276:2
-1 502:1 597:1 688:1 754:1 787:1 888:1 1042:1 1072:1 1216:1 1217:1 1219:1 1225:1 1227:1 1243:1 1255:1 1269:1 1276:4
-1 502:2 756:1 1042:4 1066:2 1072:1 1218:1 1225:4 1227:2 1249:2 1255:1 1276:6
-1 502:2 688:1 1042:2 1066:1 1072:2 1219:1 1225:2 1227:2 1249:1 1255:2 1276:7
-1 747:1 912:1 1276:2
-1 747:1 912:1 1276:2
-1 747:1 912:1 1276:2
-1 317:1 373:1 502:1 597:1 688:1 754:1 787:1 888:1 1042:1 1072:1 1216:1 1217:1 1219:1 1225:1 1227:1 1243:1 1247:1 1255:1 1269:1 1276:4
-1 296:1 502:1 650:1 754:1 806:1 874:1 938:1 1038:1 1042:1 1072:1 1217:1 1225:1 1227:1 1245:1 1255:1 1263:1 1276:2
-1 747:1 912:1 1040:1 1276:2
-1 502:1 688:1 1042:1 1072:1 1219:1 1225:1 1227:1 1255:1 1276:1
-1 373:1 502:1 806:1 1042:1 1072:1 1225:1 1227:1 1247:1 1255:1 1263:1 1276:4
-1 502:1 888:1 980:1 1042:1 1066:1 1216:1 1225:1 1227:1 1234:1 1249:1 1276:1
-1 903:1 1042:1 1223:1 1225:1 1276:4
-1 502:2 688:1 1042:2 1066:1 1072:2 1219:1 1225:2 1227:2 1249:1 1255:2 1276:7
-1 502:1 787:1 806:2 1042:1 1072:1 1225:1 1227:1 1243:1 1255:1 1263:2 1276:4
-1 502:1 754:1 787:1 1042:1 1072:1 1217:1 1225:1 1227:1 1243:1 1255:1 1276:1 1278:26
-1 502:2 688:1 1042:2 1066:1 1072:2 1219:1 1225:2 1227:2 1249:1 1255:2 1276:7
-1 888:1 910:1 916:1 1042:1 1066:1 1072:1 1216:1 1225:1 1229:1 1249:1 1255:1 1276:1
-1 305:1 502:1 597:1 688:1 754:1 787:1 888:1 1042:1 1066:1 1072:1 1076:1 1216:1 1217:1 1219:1 1225:1 1227:1 1243:1 1249:1 1251:1 1255:1 1264:1 1269:1 1276:2
-1 502:2 787:1 888:1 910:1 1042:6 1066:3 1072:1 1216:1 1225:6 1227:2 1229:1 1243:1 1249:3 1255:1 1276:5
-1 218:1 249:1 475:1 502:1 582:1 688:1 754:1 787:1 806:1 845:1 874:1 877:1 888:1 910:1 1042:1 1066:1 1072:1 1216:1 1217:1 1219:1 1225:1 1227:1 1229:1 1240:1 1243:1 1249:1 1255:1 1263:1 1270:1 1274:1 1276:1
-1 1211:1 1273:1 1276:3
-1 806:1 1042:1 1225:1 1263:1 1276:3
-1 806:2 1042:1 1225:1 1263:2 1276:4
-1 249:1 297:1 502:1 650:1 688:1 709:1 754:1 787:1 845:1 888:1 910:1 934:1 1042:1 1066:1 1072:1 1076:1 1193:1 1216:1 1217:1 1219:1 1225:1 1227:1 1229:1 1236:1 1240:1 1243:1 1244:1 1245:1 1249:1 1255:1 1256:1 1258:1 1264:1 1270:1 1276:2
-1 1042:1 1225:1 1276:2
-1 249:1 297:1 373:1 502:1 597:1 688:1 754:1 787:1 888:1 910:1 1042:1 1066:1 1072:1 1216:1 1217:1 1219:1 1225:1 1227:1 1229:1 1243:1 1244:1 1247:1 1249:1 1255:1 1269:1 1270:1 1276:1
-1 1042:1 1072:1 1225:1 1255:1 1276:3
-1 806:1 1042:1 1072:1 1225:1 1255:1 1263:1 1276:4
-1 401:1 502:1 536:1 754:1 888:1 1042:1 1072:1 1216:1 1217:1 1225:1 1227:1 1255:1 1276:3
-1 1211:1 1273:1 1276:2
-1 373:1 1042:1 1072:1 1225:1 1247:1 1255:1 1276:2
-1 152:1 373:1 1042:1 1072:1 1225:1 1247:1 1255:1 1276:3
-1 502:1 597:1 650:1 688:1 754:1 787:1 888:1 1042:1 1216:1 1217:1 1219:1 1225:1 1227:1 1243:1 1245:1 1269:1 1276:4
-1 1211:1 1273:1 1276:4
-1 1211:1 1273:1 1276:2
-1 903:1 1223:1 1276:1
-1 903:1 1223:1 1276:1
-1 1211:1 1273:1 1276:4
-1 820:1 1042:1 1214:1 1225:1 1276:2 1278:4
-1 903:1 1223:1 1276:1
-1 502:2 688:1 754:1 756:1 764:1 787:1 934:1 1042:4 1066:2 1072:2 1217:1 1218:1 1219:1 1222:1 1225:4 1227:2 1243:1 1249:2 1255:2 1256:1 1276:6
-1 502:2 688:1 1042:4 1066:1 1072:3 1219:1 1225:4 1227:2 1249:1 1255:3 1276:4
-1 502:2 688:1 1042:4 1066:1 1072:3 1219:1 1225:4 1227:2 1249:1 1255:3 1276:4
-1 1211:1 1273:1 1276:2
-1 116:1 487:1 777:1 787:1 806:1 931:1 949:1 1042:1 1225:1 1243:1 1263:1 1276:7
-1 1042:1 1131:1 1225:1 1276:3
-1 502:2 597:1 650:1 688:1 754:1 764:1 787:2 888:1 910:1 980:1 1042:4 1066:3 1072:2 1076:1 1216:1 1217:1 1219:1 1222:1 1225:4 1227:2 1229:1 1234:1 1243:2 1245:1 1249:3 1255:2 1264:1 1269:1 1276:6
-1 502:1 597:1 688:1 754:1 787:1 888:1 1042:1 1066:1 1072:1 1076:1 1216:1 1217:1 1219:1 1225:1 1227:1 1243:1 1249:1 1255:1 1264:1 1269:1 1276:2
-1 502:1 688:1 754:1 787:1 888:1 1042:1 1072:1 1216:1 1217:1 1219:1 1225:1 1227:1 1243:1 1255:1 1276:2
-1 1042:1 1225:1 1276:2
-1 502:1 597:1 688:1 754:1 787:1 910:1 1042:1 1066:1 1072:1 1217:1 1219:1 1225:1 1227:1 1229:1 1243:1 1249:1 1255:1 1269:1 1276:1
-1 437:1 1042:1 1225:1 1276:3
-1 502:2 787:1 1042:4 1066:2 1072:1 1225:4 1227:2 1243:1 1249:2 1255:1 1276:6
-1 159:1 208:1 210:1 252:1 299:1 422:1 431:1 488:1 500:1 537:1 555:1 606:1 806:1 877:1 914:1 924:1 983:1 1042:1 1072:1 1221:1 1225:1 1255:1 1263:1 1274:1 1276:2
-1 502:1 754:1 1042:1 1217:1 1225:1 1227:1 1276:3 1278:2
-1 502:1 611:1 795:1 1042:1 1225:1 1227:1 1276:2 1278:35
-1 1042:1 1225:1 1276:3
-1 903:1 1223:1 1276:1
-1 502:1 688:1 754:1 764:1 787:1 888:1 1042:1 1072:1 1216:1 1217:1 1219:1 1222:1 1225:1 1227:1 1243:1 1255:1 1276:3
-1 159:1 208:1 210:1 299:1 422:1 431:1 488:1 500:1 537:1 555:1 556:1 606:1 794:1 806:1 877:1 914:1 924:1 983:1 1042:1 1072:1 1221:1 1225:1 1255:1 1263:1 1274:1 1276:1
-1 502:2 597:1 650:1 688:1 754:1 764:1 787:2 888:1 1042:4 1066:3 1072:2 1216:1 1217:1 1219:1 1222:1 1225:4 1227:2 1243:2 1245:1 1249:3 1255:2 1269:1 1276:6
-1 657:1 916:1 1042:1 1225:1 1276:2
-1 287:1 486:1 806:1 877:1 1042:1 1072:1 1225:1 1255:1 1263:1 1274:1 1276:1
-1 149:1 401:1 502:1 615:1 650:1 673:1 688:1 754:1 787:1 1042:1 1072:1 1217:1 1219:1 1225:1 1227:1 1243:1 1245:1 1255:1 1266:1 1276:2
-1 502:1 650:1 787:1 806:1 1042:1 1225:1 1227:1 1243:1 1245:1 1263:1 1276:2
-1 1211:1 1273:1 1276:3
-1 502:1 754:1 1042:1 1217:1 1225:1 1227:1 1276:2
-1 697:1 700:1 806:1 877:1 1042:1 1225:1 1263:1 1274:1 1276:2
-1 373:1 415:1 749:1 806:1 1042:1 1072:1 1165:1 1225:1 1226:1 1247:1 1255:1 1263:1 1276:2
-1 1211:1 1273:1 1276:4
-1 1042:1 1225:1 1276:4
-1 502:1 597:1 650:1 688:1 754:1 787:1 806:1 888:1 980:1 1042:1 1072:1 1216:1 1217:1 1219:1 1225:1 1227:1 1234:1 1243:1 1245:1 1255:1 1263:1 1269:1 1276:2
-1 208:1 210:1 299:1 420:1 422:1 431:1 486:1 500:1 532:1 537:1 606:1 806:1 842:1 977:1 1000:1 1066:1 1139:1 1221:1 1249:1 1263:1 1276:1
-1 1211:1 1273:1 1276:3
-1 1211:1 1273:1 1276:2
-1 502:1 542:1 650:1 764:1 787:1 888:1 910:1 981:1 1042:1 1066:1 1072:1 1216:1 1222:1 1225:1 1227:1 1229:1 1235:1 1243:1 1245:1 1249:1 1255:1 1267:1 1276:1 1278:2
-1 502:1 787:1 1042:1 1072:1 1225:1 1227:1 1243:1 1255:1 1276:3
-1 903:1 1223:1 1276:1
-1 903:1 1223:1 1276:1
-1 208:1 210:1 252:1 299:1 422:1 431:1 486:1 537:1 606:1 787:1 806:1 1221:1 1243:1 1263:1 1276:2
-1 210:1 212:1 299:1 422:1 431:1 486:1 498:1 537:1 606:1 787:1 806:1 842:1 877:1 1042:1 1066:1 1072:1 1221:1 1225:1 1243:1 1249:1 1255:1 1263:1 1274:1 1276:1
-1 903:1 1223:1 1276:1
-1 502:2 597:1 650:1 688:1 754:1 764:1 787:2 888:1 980:1 1042:7 1066:3 1072:2 1165:1 1216:1 1217:1 1219:1 1222:1 1225:7 1226:1 1227:2 1234:1 1243:2 1245:1 1249:3 1255:2 1269:1 1276:6 1278:1
-1 502:1 597:1 688:1 754:1 764:1 787:1 888:1 1042:1 1066:1 1131:1 1216:1 1217:1 1219:1 1222:1 1225:1 1227:1 1243:1 1249:1 1269:1 1276:4
-1 1211:1 1273:1 1276:3
-1 502:1 806:1 1042:1 1225:1 1227:1 1263:1 1276:5
-1 297:1 502:2 597:1 688:1 754:1 764:1 787:2 888:2 1042:5 1066:3 1072:2 1216:2 1217:1 1219:1 1222:1 1225:5 1227:2 1243:2 1244:1 1249:3 1255:2 1269:1 1276:6
-1 806:2 1042:1 1225:1 1263:2 1276:2
-1 305:1 502:1 597:1 650:1 688:1 754:1 787:1 888:1 1042:1 1066:1 1072:1 1076:1 1216:1 1217:1 1219:1 1225:1 1227:1 1243:1 1245:1 1249:1 1251:1 1255:1 1264:1 1269:1 1276:2
-1 502:1 597:1 754:1 1042:1 1072:1 1217:1 1225:1 1227:1 1255:1 1269:1 1276:1
-1 159:1 170:1 208:1 210:1 239:1 252:1 299:1 366:1 398:1 420:1 422:1 431:1 486:1 500:1 532:1 537:1 550:1 562:1 590:1 605:1 606:1 806:1 877:1 924:1 1066:1 1221:1 1249:1 1263:1 1274:1 1276:2
-1 1211:1 1273:1 1276:3
-1 223:1 265:1 291:1 647:1 945:1 1042:1 1072:1 1135:1 1225:1 1255:1 1276:3
-1 455:1 502:1 754:1 787:1 1042:1 1072:1 1193:1 1217:1 1225:1 1227:1 1243:1 1255:1 1258:1 1276:1
-1 502:1 688:1 754:1 764:1 787:1 888:1 1042:1 1072:1 1216:1 1217:1 1219:1 1222:1 1225:1 1227:1 1243:1 1255:1 1276:3
-1 208:1 210:1 252:1 299:1 362:1 366:1 398:1 420:1 422:1 430:1 431:1 486:1 499:1 537:1 550:1 606:1 806:1 842:1 924:1 1000:1 1221:1 1263:1 1276:1
-1 159:1 187:1 208:1 210:1 231:1 239:1 252:1 299:1 366:1 398:1 420:1 422:1 431:1 486:1 500:1 516:1 533:1 537:1 550:1 562:1 576:1 606:1 806:1 843:1 848:1 924:1 977:1 1187:1 1221:1 1233:1 1263:1 1276:2
-1 210:1 299:1 398:1 422:1 431:1 486:1 502:1 537:1 606:1 714:1 787:1 806:1 842:1 1042:1 1072:1 1139:1 1221:1 1225:1 1227:1 1243:1 1255:1 1263:1 1276:2
-1 502:1 525:1 787:1 839:1 888:1 1024:1 1042:1 1072:1 1096:1 1216:1 1225:1 1227:1 1243:1 1254:1 1255:1 1276:2
-1 806:2 980:1 1042:1 1225:1 1234:1 1263:2 1276:3
-1 502:1 688:1 888:1 910:1 1042:1 1066:1 1072:1 1216:1 1219:1 1225:1 1227:1 1229:1 1249:1 1255:1 1276:1
-1 178:1 181:1 230:1 265:1 611:1 784:1 850:1 883:1 898:1 916:1 948:1 1042:1 1225:1 1276:1
-1 502:1 787:1 888:1 910:1 1042:1 1072:1 1216:1 1225:1 1227:1 1229:1 1243:1 1255:1 1276:2
-1 230:1 265:1 385:1 502:1 745:1 754:1 806:2 1042:1 1217:1 1225:1 1227:1 1263:2 1276:2
-1 1211:1 1273:1 1276:3
-1 502:1 597:1 754:1 764:1 1042:1 1072:1 1217:1 1222:1 1225:1 1227:1 1255:1 1269:1 1276:1
-1 249:1 297:1 373:1 502:1 541:1 650:1 688:1 754:1 787:1 820:1 888:1 910:1 1042:1 1066:1 1072:1 1165:1 1193:1 1214:1 1216:1 1217:1 1219:1 1225:1 1226:1 1227:1 1229:1 1243:1 1244:1 1245:1 1247:1 1249:1 1255:1 1258:1 1268:1 1270:1 1276:1
-1 1211:1 1273:1 1276:3
-1 502:1 725:1 787:1 806:1 877:1 888:1 1042:1 1072:1 1142:1 1216:1 1225:1 1227:1 1243:1 1255:1 1263:1 1265:1 1274:1 1276:3
-1 190:1 210:1 299:1 362:1 422:1 431:1 486:1 502:1 507:1 537:1 606:1 778:1 787:1 806:1 848:1 877:1 888:1 1042:1 1072:1 1216:1 1221:1 1225:1 1227:1 1243:1 1255:1 1263:1 1274:1 1276:1
-1 205:1 210:1 299:1 422:1 431:1 537:1 606:1 806:1 890:1 1221:1 1263:1 1276:2
-1 159:1 208:1 210:1 299:1 420:1 422:1 431:1 436:1 453:1 486:1 500:1 507:1 532:1 537:1 606:1 631:1 806:1 848:1 977:1 990:1 1000:1 1139:1 1221:1 1250:1 1263:1 1276:1 1278:2
-1 159:1 210:1 225:1 247:1 299:1 366:1 398:1 416:1 420:1 422:1 431:1 462:1 486:1 500:1 502:1 507:1 532:1 537:1 550:1 562:1 606:1 631:1 699:1 708:1 714:1 754:1 768:1 805:1 806:1 842:1 848:1 877:1 934:1 1000:1 1042:1 1066:1 1072:1 1139:1 1154:1 1159:1 1217:1 1221:1 1225:1 1227:1 1249:1 1255:1 1256:1 1263:1 1274:1 1276:3
-1 130:1 208:1 210:1 247:1 299:1 366:1 420:1 422:1 431:1 486:1 502:1 537:1 562:1 606:1 714:1 754:1 806:1 842:1 877:1 1000:1 1042:1 1139:1 1154:1 1217:1 1221:1 1225:1 1227:1 1263:1 1274:1 1276:2
-1 146:1 159:1 208:1 210:1 252:1 266:1 299:1 398:1 420:1 422:1 431:1 444:1 500:1 507:1 537:1 562:1 606:1 806:1 914:1 924:1 1089:1 1175:1 1185:1 1221:1 1263:1 1276:2
-1 806:2 980:1 1042:1 1225:1 1234:1 1263:2 1276:3
-1 502:1 806:1 888:1 980:1 1042:1 1066:1 1072:1 1193:1 1216:1 1225:1 1227:1 1234:1 1249:1 1255:1 1258:1 1263:1 1276:1
-1 903:1 1223:1 1276:1
-1 1211:1 1273:1 1276:3
-1 1211:1 1273:1 1276:3
-1 502:2 688:1 754:1 764:1 787:1 888:2 1042:5 1066:3 1072:2 1216:2 1217:1 1219:1 1222:1 1225:5 1227:2 1243:1 1249:3 1255:2 1276:6
-1 159:1 208:1 210:1 225:1 252:1 273:1 299:1 310:1 366:1 398:1 420:1 422:1 431:1 486:1 500:1 537:1 562:1 596:1 605:1 606:1 806:1 877:1 910:1 914:1 924:1 944:1 983:1 1066:1 1089:1 1187:1 1221:1 1229:1 1249:1 1263:1 1274:1 1276:2
-1 502:1 806:1 1042:1 1051:1 1225:1 1227:1 1263:1 1276:2
-1 210:1 299:1 398:1 422:1 431:1 486:1 537:1 606:1 806:1 1221:1 1263:1 1276:2
-1 502:1 688:1 754:1 764:1 787:1 888:1 1042:1 1072:1 1216:1 1217:1 1219:1 1222:1 1225:1 1227:1 1243:1 1255:1 1276:3
-1 502:1 597:1 688:1 754:1 787:1 888:1 1042:1 1216:1 1217:1 1219:1 1225:1 1227:1 1243:1 1269:1 1276:2
-1 616:1 806:1 1042:1 1225:1 1263:1 1276:3
-1 210:1 299:1 420:1 422:1 431:1 486:1 502:1 537:1 606:1 806:1 877:1 888:1 977:1 1066:1 1216:1 1221:1 1227:1 1249:1 1263:1 1274:1 1276:1
-1 159:1 299:1 398:1 422:1 431:1 486:1 502:1 532:1 537:1 540:1 606:1 688:1 754:1 787:1 806:1 877:1 888:1 910:1 971:1 1042:1 1066:1 1072:1 1216:1 1217:1 1219:1 1221:1 1225:1 1227:1 1229:1 1243:1 1249:1 1255:1 1263:1 1274:1 1276:2
-1 210:1 299:1 422:1 431:1 537:1 606:1 806:1 877:1 995:1 1000:1 1042:1 1072:1 1221:1 1225:1 1255:1 1263:1 1274:1 1276:1
-1 502:1 688:1 754:1 764:1 787:1 888:1 1042:1 1072:1 1216:1 1217:1 1219:1 1222:1 1225:1 1227:1 1243:1 1255:1 1276:3
-1 118:1 138:1 239:1 273:1 353:1 372:1 420:1 422:1 431:1 506:1 562:1 606:1 612:1 631:1 807:1 815:1 819:1 820:1 846:1 877:1 1214:1 1221:1 1241:1 1274:1 1276:3 1278:4
-1 502:1 1042:1 1225:1 1227:1 1276:1
-1 502:2 688:1 1042:4 1066:1 1072:3 1219:1 1225:4 1227:2 1249:1 1255:3 1276:4
-1 903:1 1223:1 1276:1
-1 529:1 806:1 1263:1 1276:2
-1 806:1 960:1 1263:1 1276:2
-1 529:1 806:1 1263:1 1276:2
-1 806:1 960:1 1263:1 1276:2
-1 806:1 1042:1 1225:1 1263:1 1276:3
-1 502:1 754:1 787:1 888:1 1042:1 1072:1 1216:1 1217:1 1225:1 1227:1 1243:1 1255:1 1276:2
-1 903:1 1223:1 1276:1
-1 502:1 806:1 1042:1 1072:1 1225:1 1227:1 1255:1 1263:1 1276:3
-1 1042:1 1225:1 1276:2
-1 1042:1 1225:1 1276:3
-1 1211:1 1273:1 1276:3
-1 502:1 1042:1 1225:1 1227:1 1276:3 1278:9
-1 373:1 502:1 602:1 650:1 754:1 787:1 1042:1 1217:1 1225:1 1227:1 1243:1 1245:1 1247:1 1276:2
-1 130:1 249:1 304:1 502:1 688:1 709:1 714:1 754:1 787:1 801:1 806:1 877:1 888:1 910:1 1042:1 1066:1 1072:1 1216:1 1217:1 1219:1 1225:1 1227:1 1229:1 1236:1 1243:1 1249:1 1255:1 1263:1 1270:1 1274:1 1276:2
-1 143:1 218:1 249:1 296:1 311:1 502:1 512:1 542:1 642:1 650:1 688:1 709:1 754:1 787:1 806:1 877:1 888:1 910:1 1042:1 1066:1 1072:1 1216:1 1217:1 1219:1 1225:1 1227:1 1229:1 1236:1 1238:1 1243:1 1245:1 1249:1 1255:1 1263:1 1267:1 1270:1 1274:1 1276:2
-1 806:2 1042:1 1225:1 1263:2 1276:3
-1 502:1 764:1 820:1 888:1 910:1 915:1 1042:1 1072:1 1198:1 1214:1 1216:1 1222:1 1225:1 1227:1 1229:1 1232:1 1255:1 1262:1 1276:2
-1 187:1 502:1 619:1 806:1 1042:1 1071:1 1225:1 1227:1 1233:1 1263:1 1276:1
-1 502:1 806:2 1042:1 1072:1 1225:1 1227:1 1255:1 1263:2 1276:3
-1 1042:1 1225:1 1276:3
-1 502:1 539:1 597:1 754:1 787:1 806:1 939:1 1042:1 1072:1 1217:1 1225:1 1227:1 1243:1 1255:1 1263:1 1269:1 1276:2
-1 502:1 754:1 764:1 1042:1 1217:1 1222:1 1225:1 1227:1 1276:2
-1 159:1 210:1 248:1 254:1 442:1 806:1 888:1 1042:1 1066:1 1072:1 1187:1 1216:1 1225:1 1249:1 1255:1 1263:1 1276:2
-1 1211:1 1273:1 1276:3
-1 502:2 597:1 688:1 754:1 764:1 787:1 888:1 1042:5 1066:3 1072:2 1216:1 1217:1 1219:1 1222:1 1225:5 1227:2 1243:1 1249:3 1255:2 1269:1 1276:6
-1 502:2 688:1 754:1 764:1 888:1 1042:4 1066:3 1072:2 1216:1 1217:1 1219:1 1222:1 1225:4 1227:2 1249:3 1255:2 1276:6
-1 611:1 806:2 980:1 1042:1 1225:1 1234:1 1263:2 1276:2
-1 1211:1 1273:1 1276:3
-1 297:1 461:1 502:1 597:1 688:1 754:1 764:1 787:1 888:1 910:1 1042:1 1066:1 1072:1 1096:1 1216:1 1217:1 1219:1 1222:1 1225:1 1227:1 1229:1 1243:1 1244:1 1249:1 1255:1 1260:1 1269:1 1276:2
-1 419:1 502:1 754:1 1042:1 1217:1 1225:1 1227:1 1276:1
-1 249:1 265:1 297:1 502:1 597:1 650:1 688:1 709:1 754:1 787:1 888:1 910:1 934:1 1042:1 1066:1 1072:1 1076:1 1216:1 1217:1 1219:1 1225:1 1227:1 1229:1 1236:1 1243:1 1244:1 1245:1 1249:1 1255:1 1256:1 1264:1 1269:1 1270:1 1276:1 1278:973
-1 249:1 265:1 297:1 502:1 597:1 650:1 688:1 709:1 754:1 787:1 888:1 910:1 934:1 1042:1 1066:1 1072:1 1076:1 1216:1 1217:1 1219:1 1225:1 1227:1 1229:1 1236:1 1243:1 1244:1 1245:1 1249:1 1255:1 1256:1 1264:1 1269:1 1270:1 1276:1 1278:973
-1 1211:1 1273:1 1276:4
-1 211:1 217:1 540:1 725:1 806:1 877:1 888:1 910:1 915:1 1042:1 1066:1 1072:1 1198:1 1216:1 1225:1 1229:1 1232:1 1249:1 1255:1 1262:1 1263:1 1274:1 1276:1
-1 130:1 143:1 208:1 210:1 249:1 252:1 267:1 299:1 366:1 398:1 420:1 422:1 431:1 486:1 500:1 502:1 507:1 532:1 537:1 562:1 590:1 605:1 606:1 650:1 652:1 666:1 688:1 699:1 754:1 787:1 806:1 820:1 845:1 877:1 888:1 910:1 937:1 977:1 1042:1 1066:1 1214:1 1216:1 1217:1 1219:1 1221:1 1225:1 1227:1 1229:1 1238:1 1240:1 1243:1 1245:1 1249:1 1263:1 1270:1 1274:1 1276:1
-1 1211:1 1273:1 1276:3
-1 1042:1 1225:1 1276:3
-1 555:1 877:1 991:1 1042:1 1072:1 1225:1 1255:1 1274:1 1276:1
-1 502:1 688:1 754:1 764:1 1042:1 1072:1 1217:1 1219:1 1222:1 1225:1 1227:1 1255:1 1276:2
-1 502:2 688:1 1042:2 1066:1 1072:2 1219:1 1225:2 1227:2 1249:1 1255:2 1276:7
-1 806:2 1042:1 1225:1 1263:2 1276:4
-1 502:1 650:1 688:1 754:1 764:1 787:1 888:1 1042:1 1066:1 1072:1 1216:1 1217:1 1219:1 1222:1 1225:1 1227:1 1243:1 1245:1 1249:1 1255:1 1276:5
-1 126:1 146:1 159:1 208:1 210:1 212:1 239:1 252:1 298:1 299:1 420:1 422:1 431:1 500:1 507:1 532:1 537:1 562:1 590:1 606:1 806:1 848:1 924:1 929:1 944:1 1221:1 1263:1 1276:1
-1 502:1 688:1 754:1 787:1 806:1 1038:1 1042:1 1217:1 1219:1 1225:1 1227:1 1243:1 1263:1 1276:2
-1 210:1 299:1 362:1 398:1 422:1 431:1 486:1 537:1 606:1 806:1 842:1 1000:1 1042:1 1066:1 1072:1 1221:1 1225:1 1249:1 1255:1 1263:1 1276:1
-1 143:1 192:1 362:1 525:1 787:1 806:1 820:1 861:1 888:1 915:1 981:1 1042:1 1066:1 1072:1 1214:1 1216:1 1225:1 1232:1 1235:1 1238:1 1243:1 1249:1 1254:1 1255:1 1263:1 1276:1
-1 210:1 299:1 422:1 431:1 451:1 537:1 606:1 806:1 1221:1 1263:1 1276:1
-1 611:1 806:2 1042:1 1225:1 1263:2 1276:2
-1 502:1 688:1 787:1 806:1 888:1 1042:1 1066:1 1072:1 1216:1 1219:1 1225:1 1227:1 1243:1 1249:1 1255:1 1263:1 1276:3
-1 355:1 502:1 688:1 806:1 1042:1 1072:1 1219:1 1225:1 1227:1 1255:1 1263:1 1276:3
-1 1211:1 1273:1 1276:3
-1 1211:1 1273:1 1276:3
-1 1211:1 1273:1 1276:2
-1 1211:1 1273:1 1276:2
-1 787:1 1042:1 1225:1 1243:1 1276:1
-1 502:1 525:1 542:1 754:1 787:1 888:1 915:1 1042:1 1193:1 1216:1 1217:1 1225:1 1227:1 1232:1 1243:1 1254:1 1258:1 1267:1 1276:1 1278:2
-1 502:2 597:1 688:1 754:1 875:1 1042:4 1066:2 1072:2 1217:1 1219:1 1225:4 1227:2 1249:2 1255:2 1269:1 1276:6
-1 1211:1 1273:1 1276:4
-1 1211:1 1273:1 1276:2
-1 1211:1 1273:1 1276:2
-1 502:1 688:1 754:1 764:1 787:1 888:1 1042:1 1072:1 1216:1 1217:1 1219:1 1222:1 1225:1 1227:1 1243:1 1255:1 1276:2
-1 1211:1 1273:1 1276:3
-1 502:1 597:1 688:1 754:1 787:1 1042:1 1072:1 1217:1 1219:1 1225:1 1227:1 1243:1 1255:1 1269:1 1276:1
-1 1276:1
-1 373:1 650:1 806:2 888:1 1042:1 1072:1 1216:1 1225:1 1245:1 1247:1 1255:1 1263:2 1276:3
-1 1211:1 1273:1 1276:3
-1 437:1 1042:1 1225:1 1276:2
-1 510:1 1042:1 1225:1 1276:1
-1 223:1 553:1 647:1 806:2 1042:1 1207:1 1225:1 1263:2 1276:2
-1 806:1 1263:1 1276:3
-1 208:1 210:1 239:1 250:1 252:1 299:1 331:1 420:1 422:1 431:1 486:1 532:1 537:1 550:1 558:1 590:1 606:1 806:1 842:1 1000:1 1221:1 1263:1 1276:3
-1 502:1 597:1 650:1 688:1 754:1 980:1 1042:1 1066:1 1072:1 1217:1 1219:1 1225:1 1227:1 1234:1 1245:1 1249:1 1255:1 1269:1 1276:5
-1 502:1 688:1 754:1 764:1 787:1 888:1 1042:1 1072:1 1216:1 1217:1 1219:1 1222:1 1225:1 1227:1 1243:1 1255:1 1276:2
-1 502:1 650:1 688:1 754:1 764:1 787:1 888:1 1042:1 1066:1 1072:1 1216:1 1217:1 1219:1 1222:1 1225:1 1227:1 1243:1 1245:1 1249:1 1255:1 1276:5
-1 210:1 299:1 361:1 422:1 431:1 436:1 486:1 537:1 606:1 806:1 877:1 977:1 990:1 1000:1 1139:1 1221:1 1250:1 1263:1 1274:1 1276:1 1278:3
-1 430:1 498:1 806:1 877:1 1042:1 1054:1 1072:1 1171:1 1198:1 1225:1 1231:1 1255:1 1262:1 1263:1 1274:1 1276:3
-1 436:1 806:1 842:1 888:1 990:1 1000:1 1042:1 1054:1 1072:1 1139:1 1216:1 1225:1 1231:1 1250:1 1255:1 1263:1 1276:2
-1 349:1 787:1 806:1 888:1 1042:1 1072:1 1216:1 1225:1 1243:1 1255:1 1263:1 1276:1
-1 1211:1 1273:1 1276:2
-1 1211:1 1273:1 1276:2
-1 806:2 1042:1 1225:1 1263:2 1276:2
-1 806:2 1042:1 1225:1 1263:2 1276:3
-1 502:1 1042:1 1225:1 1227:1 1276:5
-1 1211:1 1273:1 1276:3
-1 806:2 1042:1 1225:1 1263:2 1276:2
-1 806:2 1042:1 1225:1 1263:2 1276:2
-1 806:2 1042:1 1225:1 1263:2 1276:2
-1 373:1 650:1 1042:1 1047:1 1225:1 1245:1 1247:1 1276:2
-1 502:2 688:1 1042:2 1066:1 1072:2 1219:1 1225:2 1227:2 1249:1 1255:2 1276:7
-1 650:1 903:1 1223:1 1245:1 1276:1
-1 806:2 1042:1 1225:1 1263:2 1276:2
-1 502:1 597:1 650:1 688:1 691:1 754:1 787:1 888:1 910:1 1042:1 1066:1 1072:1 1216:1 1217:1 1219:1 1225:1 1227:1 1229:1 1243:1 1245:1 1249:1 1255:1 1269:1 1276:4
-1 502:1 597:1 650:1 754:1 806:1 1042:1 1217:1 1225:1 1227:1 1245:1 1263:1 1269:1 1276:4 1278:112
-1 806:2 1042:1 1225:1 1263:2 1276:2
-1 502:1 597:1 688:1 754:1 787:1 839:1 888:1 1024:1 1042:1 1072:1 1216:1 1217:1 1219:1 1225:1 1227:1 1243:1 1255:1 1269:1 1276:1
-1 806:2 1042:1 1225:1 1263:2 1276:2
-1 903:1 1223:1 1276:2
-1 1211:1 1273:1 1276:3
-1 1211:1 1273:1 1276:2
-1 311:1 502:1 650:1 688:1 754:1 787:1 888:1 910:1 1042:1 1066:1 1072:1 1216:1 1217:1 1219:1 1225:1 1227:1 1229:1 1243:1 1245:1 1249:1 1255:1 1276:2
-1 806:2 1042:1 1225:1 1263:2 1276:2
-1 806:2 1042:1 1225:1 1263:2 1276:2
-1 806:2 1042:1 1225:1 1263:2 1276:2
-1 806:2 1042:1 1225:1 1263:2 1276:2
-1 787:1 806:1 820:1 888:1 981:1 1042:1 1072:1 1214:1 1216:1 1225:1 1235:1 1243:1 1255:1 1263:1 1276:1
-1 502:1 787:1 806:1 888:1 910:1 1042:1 1059:1 1072:1 1216:1 1225:1 1227:1 1229:1 1243:1 1255:1 1263:1 1276:1
-1 806:1 1006:1 1042:1 1072:1 1225:1 1255:1 1263:1 1276:2
-1 502:1 688:1 806:1 877:1 1042:1 1072:1 1219:1 1225:1 1227:1 1255:1 1263:1 1274:1 1276:2
-1 249:1 315:1 475:1 502:1 688:1 787:1 806:1 1037:1 1042:1 1059:1 1072:1 1219:1 1225:1 1227:1 1243:1 1255:1 1263:1 1270:1 1276:2 1278:62
-1 502:2 688:1 1042:4 1066:1 1072:3 1219:1 1225:4 1227:2 1249:1 1255:3 1276:5
-1 143:1 218:1 249:1 296:1 311:1 502:1 512:1 542:1 642:1 650:1 688:1 709:1 754:1 787:1 806:1 877:1 888:1 910:1 1042:1 1066:1 1072:1 1216:1 1217:1 1219:1 1225:1 1227:1 1229:1 1236:1 1238:1 1243:1 1245:1 1249:1 1255:1 1263:1 1267:1 1270:1 1274:1 1276:2
-1 502:1 806:2 1042:1 1225:1 1227:1 1263:2 1276:2
-1 502:1 806:2 1042:1 1225:1 1227:1 1263:2 1276:2
-1 502:1 806:2 932:1 1042:1 1072:1 1225:1 1227:1 1255:1 1263:2 1276:4
-1 903:1 1223:1 1276:1
-1 1211:1 1273:1 1276:3
-1 502:1 787:1 1042:1 1072:1 1225:1 1227:1 1243:1 1255:1 1276:2
-1 502:1 688:1 754:1 787:1 806:1 849:1 1038:1 1042:1 1217:1 1219:1 1225:1 1227:1 1243:1 1263:1 1276:2
-1 502:1 688:1 754:1 764:1 787:1 888:1 1042:1 1072:1 1216:1 1217:1 1219:1 1222:1 1225:1 1227:1 1243:1 1255:1 1276:3
-1 806:2 980:1 1042:1 1225:1 1234:1 1263:2 1276:3
-1 903:1 1223:1 1276:1
-1 903:1 1223:1 1276:1
-1 1211:1 1273:1 1276:2
-1 130:1 249:1 297:1 502:1 688:1 709:1 754:1 764:1 787:1 806:1 845:1 877:1 888:1 1042:1 1066:1 1072:1 1216:1 1217:1 1219:1 1222:1 1225:1 1227:1 1236:1 1240:1 1243:1 1244:1 1249:1 1255:1 1263:1 1270:1 1274:1 1276:1 1278:1
-1 210:1 299:1 422:1 431:1 532:1 537:1 605:1 606:1 806:1 842:1 1000:1 1221:1 1263:1 1276:3
-1 502:1 688:1 754:1 787:1 888:1 1042:1 1072:1 1216:1 1217:1 1219:1 1225:1 1227:1 1243:1 1255:1 1276:3
-1 502:1 688:1 754:1 787:1 888:1 1042:1 1072:1 1216:1 1217:1 1219:1 1225:1 1227:1 1243:1 1255:1 1276:2
-1 1276:1
-1 502:1 597:1 688:1 754:1 787:1 806:1 888:1 1042:1 1072:1 1216:1 1217:1 1219:1 1225:1 1227:1 1243:1 1255:1 1263:1 1269:1 1276:2
-1 502:1 688:1 754:1 764:1 787:1 888:1 1042:1 1072:1 1216:1 1217:1 1219:1 1222:1 1225:1 1227:1 1243:1 1255:1 1276:2
-1 806:2 1042:1 1225:1 1263:2 1276:2
-1 437:1 1042:1 1225:1 1276:2
-1 1211:1 1273:1 1276:4
-1 1042:1 1225:1 1276:2
-1 614:1 701:1 793:15 806:2 820:1 822:227 1042:1 1214:1 1225:1 1263:2 1276:2
-1 701:1 806:2 1042:1 1225:1 1263:2 1276:2
-1 502:1 688:1 754:1 764:1 787:1 888:1 1042:1 1072:1 1216:1 1217:1 1219:1 1222:1 1225:1 1227:1 1243:1 1255:1 1276:3
-1 502:1 688:1 754:1 764:1 787:1 888:1 1042:1 1072:1 1216:1 1217:1 1219:1 1222:1 1225:1 1227:1 1243:1 1255:1 1276:3
-1 475:1 502:1 562:1 754:1 796:1 806:1 845:1 877:1 888:1 910:1 1042:1 1154:1 1216:1 1217:1 1225:1 1227:1 1229:1 1240:1 1263:1 1274:1 1276:1
-1 502:1 754:1 888:1 956:1 1042:1 1216:1 1217:1 1225:1 1227:1 1276:1
-1 437:1 1042:1 1225:1 1276:2
-1 208:1 210:1 299:1 420:1 422:1 431:1 486:1 500:1 502:1 532:1 537:1 562:1 606:1 787:1 806:1 1042:1 1072:1 1221:1 1225:1 1227:1 1243:1 1255:1 1263:1 1276:4
-1 502:1 1042:1 1066:1 1225:1 1227:1 1249:1 1276:4
-1 159:1 208:1 210:1 235:1 252:1 299:1 422:1 431:1 486:1 500:1 537:1 590:1 606:1 806:1 914:1 924:1 1187:1 1221:1 1263:1 1276:2
-1 149:1 401:1 414:1 1042:1 1225:1 1276:2
-1 1211:1 1273:1 1276:5
-1 373:1 502:1 597:1 787:1 806:1 1042:1 1072:1 1225:1 1227:1 1243:1 1247:1 1255:1 1263:1 1269:1 1276:4
-1 1211:1 1273:1 1276:3
-1 806:1 1042:1 1225:1 1263:1 1276:6
-1 875:1 1042:1 1225:1 1276:4 1278:3
-1 502:2 688:1 1042:2 1066:1 1072:2 1219:1 1225:2 1227:2 1249:1 1255:2 1276:7
-1 502:1 597:1 650:1 688:1 709:1 754:1 787:1 888:1 1042:1 1066:1 1072:1 1216:1 1217:1 1219:1 1225:1 1227:1 1236:1 1243:1 1245:1 1249:1 1255:1 1269:1 1276:2
-1 502:1 650:1 888:1 1042:1 1072:1 1216:1 1225:1 1227:1 1245:1 1255:1 1276:2
-1 1042:1 1225:1 1276:1
-1 502:1 754:1 787:1 1042:1 1072:1 1217:1 1225:1 1227:1 1243:1 1255:1 1276:2
-1 502:1 754:1 787:1 1042:1 1072:1 1217:1 1225:1 1227:1 1243:1 1255:1 1276:2
-1 502:1 688:1 754:1 764:1 787:1 888:1 1042:1 1072:1 1216:1 1217:1 1219:1 1222:1 1225:1 1227:1 1243:1 1255:1 1276:3
-1 249:1 502:2 597:1 650:1 688:1 754:1 764:1 787:1 888:2 1042:4 1066:3 1072:2 1216:2 1217:1 1219:1 1222:1 1225:4 1227:2 1243:1 1245:1 1249:3 1255:2 1269:1 1270:1 1276:6
-1 146:1 159:1 208:1 210:1 252:1 299:1 398:1 420:1 422:1 431:1 500:1 537:1 606:1 612:1 806:1 848:1 877:1 914:1 924:1 1221:1 1263:1 1274:1 1276:2
-1 903:1 1223:1 1276:1
-1 502:1 597:1 754:1 764:1 1042:1 1072:1 1217:1 1222:1 1225:1 1227:1 1255:1 1269:1 1276:1
-1 178:1 181:1 230:1 265:1 611:1 784:1 850:1 883:1 898:1 916:1 948:1 1042:1 1225:1 1276:2
-1 230:1 265:1 611:1 806:2 883:1 1042:1 1225:1 1263:2 1276:2
-1 502:1 787:1 806:1 1042:1 1072:1 1225:1 1227:1 1243:1 1255:1 1263:1 1276:3
-1 502:2 688:1 754:1 764:1 1042:5 1066:2 1072:2 1217:1 1219:1 1222:1 1225:5 1227:2 1249:2 1255:2 1276:6
-1 502:2 597:1 650:1 688:1 754:1 1042:4 1066:2 1072:2 1217:1 1219:1 1225:4 1227:2 1245:1 1249:2 1255:2 1269:1 1276:6
-1 1042:1 1225:1 1276:2
-1 502:1 688:1 754:1 764:1 787:1 888:1 1042:1 1072:1 1216:1 1217:1 1219:1 1222:1 1225:1 1227:1 1243:1 1255:1 1276:3
-1 502:1 688:1 1042:1 1219:1 1225:1 1227:1 1276:3
-1 502:1 688:1 754:1 764:1 787:1 888:1 1042:1 1072:1 1216:1 1217:1 1219:1 1222:1 1225:1 1227:1 1243:1 1255:1 1276:3
-1 502:1 688:1 754:1 764:1 787:1 888:1 1042:1 1072:1 1216:1 1217:1 1219:1 1222:1 1225:1 1227:1 1243:1 1255:1 1276:3
-1 502:2 688:1 1042:2 1066:1 1072:2 1219:1 1225:2 1227:2 1249:1 1255:2 1276:7
-1 392:1 1042:1 1225:1 1276:2
-1 502:1 688:1 754:1 764:1 787:1 888:1 1042:1 1072:1 1216:1 1217:1 1219:1 1222:1 1225:1 1227:1 1243:1 1255:1 1276:3
-1 502:2 597:1 688:1 754:1 888:1 1042:5 1066:3 1072:2 1216:1 1217:1 1219:1 1225:5 1227:2 1249:3 1255:2 1269:1 1276:6
-1 502:2 597:1 688:1 754:1 764:1 888:1 1042:3 1066:1 1072:2 1216:1 1217:1 1219:1 1222:1 1225:3 1227:2 1249:1 1255:2 1269:1 1276:6
-1 1211:1 1273:1 1276:3
-1 502:1 688:1 754:1 764:1 787:1 888:1 1042:1 1072:1 1216:1 1217:1 1219:1 1222:1 1225:1 1227:1 1243:1 1255:1 1276:3
-1 305:1 502:1 787:1 806:1 888:1 1038:1 1042:1 1216:1 1225:1 1227:1 1243:1 1251:1 1263:1 1276:2
-1 502:1 525:1 542:1 754:1 787:1 888:1 915:1 1042:1 1193:1 1216:1 1217:1 1225:1 1227:1 1232:1 1243:1 1254:1 1258:1 1267:1 1276:3 1278:2
-1 903:1 1223:1 1276:1
-1 1211:1 1273:1 1276:3
-1 1211:1 1273:1 1276:3
-1 806:2 1042:1 1225:1 1263:2 1276:2
-1 502:1 597:1 688:1 754:1 787:1 888:1 910:1 1042:1 1216:1 1217:1 1219:1 1225:1 1227:1 1229:1 1243:1 1269:1 1276:2
-1 806:1 1042:1 1225:1 1263:1 1276:2
-1 650:1 806:1 1042:1 1225:1 1245:1 1263:1 1276:2
-1 502:2 597:1 650:1 673:1 688:1 731:1 754:1 756:1 764:1 787:1 888:1 1042:5 1066:3 1072:2 1161:1 1216:1 1217:1 1218:1 1219:1 1222:1 1225:5 1227:2 1243:1 1245:1 1249:3 1255:2 1266:1 1269:1 1276:6
-1 502:1 1024:1 1042:1 1225:1 1227:1 1276:2
-1 299:1 422:1 431:1 537:1 606:1 806:1 820:1 888:1 915:1 983:1 1042:1 1066:1 1072:1 1180:1 1187:1 1198:1 1214:1 1216:1 1221:1 1225:1 1232:1 1249:1 1255:1 1262:1 1263:1 1276:2
-1 806:2 1042:1 1225:1 1263:2 1276:2
-1 305:1 502:1 597:1 650:1 688:1 754:1 888:1 1042:1 1072:1 1216:1 1217:1 1219:1 1225:1 1227:1 1245:1 1251:1 1255:1 1269:1 1276:2
-1 502:2 688:1 1042:2 1066:1 1072:2 1219:1 1225:2 1227:2 1249:1 1255:2 1276:7
-1 437:1 1042:1 1225:1 1276:3
-1 1211:1 1273:1 1276:4
-1 311:1 373:1 502:1 597:1 650:1 673:1 754:1 764:1 787:1 888:1 910:1 1042:1 1066:1 1072:1 1076:1 1193:1 1216:1 1217:1 1222:1 1225:1 1227:1 1229:1 1243:1 1245:1 1247:1 1249:1 1255:1 1258:1 1264:1 1266:1 1269:1 1276:1
-1 502:2 688:1 1042:2 1066:1 1072:2 1219:1 1225:2 1227:2 1249:1 1255:2 1276:7
-1 265:1 373:1 502:1 650:1 754:1 787:1 806:2 888:1 1042:1 1072:1 1216:1 1217:1 1225:1 1227:1 1243:1 1245:1 1247:1 1255:1 1263:2 1276:3
-1 502:1 597:1 688:1 754:1 787:1 1042:1 1072:1 1217:1 1219:1 1225:1 1227:1 1243:1 1255:1 1269:1 1276:2
-1 903:1 1223:1 1276:1
-1 1042:1 1055:1 1225:1 1276:2
-1 210:1 299:1 422:1 431:1 537:1 606:1 806:1 820:1 877:1 1042:1 1072:1 1214:1 1221:1 1225:1 1255:1 1263:1 1274:1 1276:3
-1 210:1 299:1 422:1 431:1 537:1 606:1 806:1 842:1 877:1 888:1 1000:1 1042:1 1072:1 1139:1 1180:1 1187:1 1216:1 1221:1 1225:1 1255:1 1263:1 1274:1 1276:2
-1 502:2 597:1 688:1 754:1 764:1 787:1 888:1 1042:4 1066:3 1072:2 1216:1 1217:1 1219:1 1222:1 1225:4 1227:2 1243:1 1249:3 1255:2 1269:1 1276:6
-1 502:1 650:1 806:2 1042:1 1069:1 1225:1 1227:1 1245:1 1263:2 1276:2
-1 159:1 208:1 210:1 252:1 299:1 373:1 398:1 422:1 431:1 500:1 537:1 606:1 806:1 877:1 914:1 924:1 1221:1 1247:1 1263:1 1274:1 1276:2
-1 502:1 688:1 754:1 764:1 1042:1 1072:1 1217:1 1219:1 1222:1 1225:1 1227:1 1255:1 1276:3
-1 502:1 597:1 674:1 688:1 709:1 754:1 806:1 888:1 1042:1 1066:1 1216:1 1217:1 1219:1 1225:1 1227:1 1236:1 1249:1 1263:1 1269:1 1276:2
-1 297:1 502:1 525:1 754:1 787:1 839:1 933:1 1024:1 1042:1 1188:1 1217:1 1225:1 1227:1 1243:1 1244:1 1254:1 1276:2 1278:69
-1 143:1 208:1 210:1 249:1 299:1 366:1 422:1 431:1 502:1 532:1 537:1 597:1 606:1 666:1 688:1 754:1 764:1 787:1 806:1 877:1 888:1 910:1 915:1 977:1 981:1 1042:1 1066:1 1072:1 1180:1 1193:1 1198:1 1216:1 1217:1 1219:1 1221:1 1222:1 1225:1 1227:1 1229:1 1232:1 1235:1 1238:1 1243:1 1249:1 1255:1 1258:1 1262:1 1263:1 1269:1 1270:1 1274:1 1276:1
-1 143:1 208:1 210:1 249:1 264:1 299:1 366:1 422:1 431:1 502:1 532:1 537:1 606:1 666:1 754:1 787:1 806:1 877:1 888:1 910:1 915:1 977:1 981:1 1042:1 1066:1 1072:1 1180:1 1187:1 1198:1 1216:1 1217:1 1221:1 1225:1 1227:1 1229:1 1232:1 1235:1 1238:1 1243:1 1249:1 1255:1 1262:1 1263:1 1270:1 1274:1 1276:1
-1 1211:1 1273:1 1276:2
-1 470:1 806:1 1042:1 1225:1 1263:1 1276:3
-1 355:1 475:1 486:1 502:1 582:1 754:1 764:1 787:1 806:1 877:1 910:1 1042:1 1066:1 1072:1 1217:1 1222:1 1225:1 1227:1 1229:1 1243:1 1249:1 1255:1 1263:1 1274:1 1276:2 1278:10
-1 282:1 502:1 1042:1 1225:1 1227:1 1276:2
-1 502:1 884:1 888:1 1042:1 1066:1 1072:1 1211:1 1216:1 1225:1 1227:1 1249:1 1255:1 1273:1 1276:1
-1 282:1 502:1 754:1 1042:1 1217:1 1225:1 1227:1 1276:2
-1 159:1 168:1 210:1 239:1 252:1 299:1 398:1 420:1 422:1 431:1 486:1 500:1 532:1 537:1 562:1 606:1 641:1 806:1 877:1 924:1 1042:1 1089:1 1187:1 1221:1 1225:1 1263:1 1274:1 1276:2
-1 187:1 502:1 542:1 582:1 597:1 664:1 688:1 710:1 714:1 787:1 806:1 820:1 845:1 877:1 888:1 910:1 915:1 1042:1 1066:1 1072:1 1154:1 1198:1 1214:1 1216:1 1219:1 1225:1 1227:1 1229:1 1232:1 1233:1 1237:1 1240:1 1243:1 1249:1 1255:1 1262:1 1263:1 1267:1 1269:1 1274:1 1276:1
-1 282:1 502:1 1042:1 1225:1 1227:1 1276:2
-1 486:1 806:1 1042:1 1225:1 1263:1 1276:2
-1 502:1 597:1 688:1 888:1 1042:1 1216:1 1219:1 1225:1 1227:1 1269:1 1276:3
-1 270:1 806:1 1042:1 1225:1 1263:1 1276:4
-1 502:1 1042:1 1225:1 1227:1 1276:2
-1 384:1 437:1 858:5 1003:21 1042:1 1225:1 1276:3
-1 384:1 437:1 858:5 1003:6 1042:1 1225:1 1276:3
-1 502:1 806:1 1042:1 1051:1 1225:1 1227:1 1263:1 1276:1
-1 333:1 806:1 1042:1 1225:1 1263:1 1276:2
-1 333:1 806:1 1042:1 1225:1 1263:1 1276:2
-1 502:1 688:1 754:1 764:1 787:1 888:1 1042:1 1072:1 1216:1 1217:1 1219:1 1222:1 1225:1 1227:1 1243:1 1255:1 1276:2
-1 502:1 806:1 877:1 888:1 1042:1 1072:1 1216:1 1225:1 1227:1 1255:1 1263:1 1274:1 1276:3
-1 218:1 475:1 502:1 582:1 597:1 652:1 688:1 754:1 787:1 806:1 877:1 888:1 910:1 1042:1 1066:1 1072:1 1142:1 1216:1 1217:1 1219:1 1225:1 1227:1 1229:1 1243:1 1249:1 1255:1 1263:1 1265:1 1269:1 1274:1 1276:2
-1 210:1 299:1 422:1 431:1 537:1 606:1 806:1 877:1 915:1 1042:1 1072:1 1187:1 1198:1 1221:1 1225:1 1232:1 1255:1 1262:1 1263:1 1274:1 1276:1
-1 1276:5
-1 1276:1
-1 159:1 171:1 210:1 225:1 247:1 299:1 398:1 420:1 422:1 431:1 486:1 500:1 502:1 507:1 537:1 562:1 606:1 631:1 688:1 780:1 787:1 806:1 877:1 907:1 910:1 915:1 924:1 1042:1 1066:1 1072:1 1219:1 1221:1 1225:1 1227:1 1229:1 1232:1 1243:1 1249:1 1255:1 1263:1 1274:1 1276:1
-1 502:1 542:1 754:1 764:1 787:1 820:1 845:1 888:1 910:1 1024:1 1042:1 1066:1 1072:1 1214:1 1216:1 1217:1 1222:1 1225:1 1227:1 1229:1 1240:1 1243:1 1249:1 1255:1 1267:1 1276:2 1278:1
-1 1276:1
-1 159:1 210:1 252:1 299:1 422:1 431:1 475:1 486:1 502:1 507:1 532:1 537:1 562:1 597:1 606:1 650:1 688:1 754:1 787:1 806:1 820:1 842:1 877:1 888:1 907:1 910:1 924:1 944:1 946:1 1000:1 1042:1 1066:1 1072:1 1139:1 1214:1 1216:1 1217:1 1219:1 1221:1 1225:1 1227:1 1229:1 1243:1 1245:1 1249:1 1255:1 1263:1 1269:1 1274:1 1276:1
-1 297:4 502:4 597:2 688:1 754:1 764:1 787:3 888:1 1042:3 1066:1 1072:2 1101:1 1216:1 1217:1 1219:1 1222:1 1225:3 1227:4 1243:3 1244:4 1249:1 1255:2 1269:2 1276:6
-1 297:1 502:1 709:1 754:1 820:1 888:1 1024:1 1042:1 1066:1 1072:1 1214:1 1216:1 1217:1 1225:1 1227:1 1236:1 1244:1 1249:1 1255:1 1276:1
-1 373:1 502:1 597:1 688:1 754:1 787:1 806:1 820:1 845:1 877:1 888:1 910:1 915:1 981:1 983:1 1042:1 1066:1 1072:1 1191:1 1214:1 1216:1 1217:1 1219:1 1225:1 1227:1 1229:1 1232:1 1235:1 1240:1 1243:1 1247:1 1249:1 1255:1 1263:1 1269:1 1274:1 1276:1
-1 143:1 150:1 161:1 187:1 210:1 253:1 299:1 319:1 373:1 422:1 431:1 532:1 537:1 606:1 663:1 666:1 692:1 764:1 773:1 787:1 820:1 842:1 877:1 888:1 907:1 910:1 915:1 981:1 1000:1 1042:1 1066:1 1070:1 1072:1 1165:1 1198:1 1214:1 1216:1 1221:1 1222:1 1225:1 1226:1 1229:1 1232:1 1233:1 1235:1 1238:1 1243:1 1246:1 1247:1 1249:1 1253:1 1255:1 1262:1 1274:1 1276:1
-1 502:1 787:1 806:1 820:1 888:1 910:1 1042:1 1066:1 1072:1 1214:1 1216:1 1225:1 1227:1 1229:1 1243:1 1249:1 1255:1 1263:1 1276:2
-1 146:1 159:1 210:1 252:1 299:1 366:1 420:1 422:1 431:1 486:1 502:1 507:1 532:1 537:1 562:1 606:1 806:1 848:1 1066:1 1089:1 1221:1 1227:1 1249:1 1263:1 1276:1
-1 217:1 287:1 373:1 461:1 482:1 502:1 542:1 597:1 650:1 688:1 710:1 754:1 787:1 806:1 820:1 877:1 888:1 910:1 915:1 1042:1 1050:1 1066:1 1072:1 1165:1 1193:1 1214:1 1216:1 1217:1 1219:1 1225:1 1226:1 1227:1 1229:1 1232:1 1237:1 1243:1 1245:1 1247:1 1249:1 1255:1 1258:1 1260:1 1263:1 1267:1 1269:1 1274:1 1276:2
-1 502:1 1042:1 1072:1 1225:1 1227:1 1255:1 1276:1
-1 155:1 219:1 376:1 806:2 881:1 1042:1 1115:1 1225:1 1263:2 1276:2
-1 128:1 159:1 210:1 225:1 252:1 298:1 299:1 398:1 422:1 431:1 486:1 500:1 502:1 532:1 537:1 562:1 606:1 675:1 806:1 877:1 924:1 983:1 1042:1 1066:1 1072:1 1089:1 1187:1 1221:1 1225:1 1227:1 1249:1 1255:1 1263:1 1274:1 1276:2 1278:1
-1 502:1 688:1 754:1 764:1 787:1 888:1 1042:1 1072:1 1216:1 1217:1 1219:1 1222:1 1225:1 1227:1 1243:1 1255:1 1276:2
-1 159:1 208:1 210:1 239:1 252:1 299:1 335:1 366:1 377:1 420:1 422:1 431:1 500:1 537:1 562:1 605:1 606:1 806:1 877:1 911:1 924:1 983:1 1089:1 1185:1 1221:1 1263:1 1274:1 1276:3
-1 146:1 208:1 210:1 232:1 239:1 252:1 299:1 398:1 422:1 431:1 486:1 502:1 537:1 562:1 576:1 577:1 606:1 754:1 806:1 848:1 877:1 934:1 1217:1 1221:1 1227:1 1256:1 1263:1 1274:1 1276:3
-1 502:1 688:1 754:1 764:1 787:1 888:1 1042:1 1072:1 1216:1 1217:1 1219:1 1222:1 1225:1 1227:1 1243:1 1255:1 1276:2
-1 466:1 1024:1 1042:1 1225:1 1276:2 1278:2
-1 373:1 502:1 597:1 1042:1 1072:1 1225:1 1227:1 1247:1 1255:1 1269:1 1276:2
-1 502:1 688:1 754:1 787:1 888:1 1042:1 1072:1 1216:1 1217:1 1219:1 1225:1 1227:1 1243:1 1255:1 1276:2
-1 1211:1 1273:1 1276:3
-1 344:1 1042:1 1225:1 1276:2
-1 230:1 265:1 478:1 611:1 806:2 883:1 1042:1 1225:1 1263:2 1276:2
-1 502:2 650:1 688:1 754:1 787:2 888:1 1042:3 1066:1 1072:2 1216:1 1217:1 1219:1 1225:3 1227:2 1243:2 1245:1 1249:1 1255:2 1276:6
-1 502:1 597:1 688:1 754:1 787:1 806:2 888:1 1042:1 1066:1 1072:1 1216:1 1217:1 1219:1 1225:1 1227:1 1243:1 1249:1 1255:1 1263:2 1269:1 1276:2
-1 502:1 688:1 754:1 764:1 787:1 888:1 1042:1 1072:1 1216:1 1217:1 1219:1 1222:1 1225:1 1227:1 1243:1 1255:1 1276:3
-1 502:1 787:1 806:1 1042:1 1072:1 1225:1 1227:1 1243:1 1255:1 1263:1 1276:4
-1 437:2 502:1 597:1 614:1 650:1 688:1 754:1 765:1 787:1 888:1 999:1 1042:1 1072:1 1216:1 1217:1 1219:1 1225:1 1227:1 1243:1 1245:1 1255:1 1269:1 1276:2
-1 208:1 210:1 212:1 239:1 252:1 273:1 299:1 362:1 420:1 422:1 431:1 486:1 500:1 507:1 532:1 537:1 540:1 550:1 562:1 576:1 577:1 606:1 806:1 848:1 877:1 924:1 944:1 967:1 981:1 1032:1 1066:1 1089:1 1114:1 1221:1 1235:1 1249:1 1263:1 1274:1 1276:2
-1 208:1 210:1 212:1 239:1 252:1 299:1 362:1 398:1 420:1 422:1 431:1 486:1 500:1 507:1 532:1 537:1 540:1 562:1 576:1 577:1 606:1 806:1 842:1 848:1 924:1 944:1 967:1 1000:1 1114:1 1221:1 1263:1 1276:3
-1 1042:1 1225:1 1276:1
-1 806:2 1042:1 1225:1 1263:2 1276:2
-1 502:2 688:1 1042:2 1066:1 1072:2 1219:1 1225:2 1227:2 1249:1 1255:2 1276:7
-1 502:1 650:1 688:1 754:1 787:1 806:1 1038:1 1042:1 1072:1 1217:1 1219:1 1225:1 1227:1 1243:1 1245:1 1255:1 1263:1 1276:2
-1 877:1 1042:1 1072:1 1225:1 1255:1 1274:1 1276:1
-1 502:1 650:1 806:1 888:1 1038:1 1042:1 1216:1 1225:1 1227:1 1245:1 1263:1 1276:2
-1 373:1 502:1 597:1 688:1 754:1 764:1 787:1 888:1 1042:1 1066:1 1216:1 1217:1 1219:1 1222:1 1225:1 1227:1 1243:1 1247:1 1249:1 1269:1 1276:5
-1 387:1 485:1 502:1 681:1 774:1 787:1 806:1 874:1 888:1 962:1 1042:1 1066:1 1216:1 1225:1 1227:1 1243:1 1249:1 1263:1 1276:2
-1 502:1 688:1 754:1 1042:1 1072:1 1217:1 1219:1 1225:1 1227:1 1255:1 1276:2
-1 1211:1 1273:1 1276:3
-1 980:1 1042:1 1072:1 1225:1 1234:1 1255:1 1276:1
-1 502:1 787:1 806:2 1042:1 1072:1 1225:1 1227:1 1243:1 1255:1 1263:2 1276:4 1278:7
-1 373:1 502:1 611:1 650:1 850:1 1024:1 1042:1 1225:1 1227:1 1245:1 1247:1 1276:1 1278:771
-1 133:1 443:1 502:1 688:1 739:1 754:1 787:1 806:1 849:1 980:1 1038:1 1042:1 1072:1 1217:1 1219:1 1225:1 1227:1 1234:1 1243:1 1255:1 1263:1 1276:4
-1 502:2 688:1 1042:2 1066:1 1072:2 1219:1 1225:2 1227:2 1249:1 1255:2 1276:7
-1 502:1 980:1 1042:1 1072:1 1225:1 1227:1 1234:1 1255:1 1276:1
-1 502:1 980:1 1042:1 1072:1 1225:1 1227:1 1234:1 1255:1 1276:3
-1 980:1 1042:1 1072:1 1225:1 1234:1 1255:1 1276:1
-1 980:1 1042:1 1072:1 1225:1 1234:1 1255:1 1276:1
-1 980:1 1042:1 1072:1 1225:1 1234:1 1255:1 1276:1
-1 249:1 297:1 502:1 597:1 650:1 688:1 709:1 754:1 764:1 787:1 888:1 910:1 934:1 1042:1 1066:1 1072:1 1216:1 1217:1 1219:1 1222:1 1225:1 1227:1 1229:1 1236:1 1243:1 1244:1 1245:1 1249:1 1255:1 1256:1 1269:1 1270:1 1276:1
-1 502:1 688:1 754:1 764:1 787:1 888:1 1042:1 1072:1 1216:1 1217:1 1219:1 1222:1 1225:1 1227:1 1243:1 1255:1 1276:2
-1 502:1 597:1 650:1 688:1 754:1 787:1 806:2 1042:1 1217:1 1219:1 1225:1 1227:1 1243:1 1245:1 1263:2 1269:1 1276:3
-1 502:1 888:1 1024:1 1042:1 1066:1 1072:1 1216:1 1225:1 1227:1 1249:1 1255:1 1276:1
-1 133:1 502:1 520:1 597:1 621:1 650:1 688:1 739:1 754:1 787:1 888:1 952:1 1042:1 1072:1 1081:1 1216:1 1217:1 1219:1 1225:1 1227:1 1243:1 1245:1 1255:1 1269:1 1276:2 1278:2
-1 1211:1 1273:1 1276:3
-1 138:1 249:1 502:1 688:1 754:1 806:1 877:1 1042:1 1217:1 1219:1 1225:1 1227:1 1263:1 1270:1 1274:1 1276:1
-1 150:1 161:1 486:1 502:1 650:1 692:1 709:1 714:1 754:1 787:1 801:1 877:1 910:1 1042:1 1066:1 1072:1 1217:1 1225:1 1227:1 1229:1 1236:1 1243:1 1245:1 1246:1 1249:1 1253:1 1255:1 1274:1 1276:2
-1 502:1 688:1 754:1 787:1 1042:1 1217:1 1219:1 1225:1 1227:1 1243:1 1276:3
-1 223:1 531:1 647:1 806:1 878:1 1042:1 1104:1 1207:1 1225:1 1263:1 1276:4
-1 502:1 806:1 1042:1 1072:1 1225:1 1227:1 1255:1 1263:1 1276:5
-1 373:1 502:1 602:1 806:1 877:1 1042:1 1072:1 1165:1 1225:1 1226:1 1227:1 1247:1 1255:1 1263:1 1274:1 1276:2
-1 1211:1 1273:1 1276:3
-1 787:1 806:1 877:1 1042:1 1072:1 1225:1 1243:1 1255:1 1263:1 1274:1 1276:2
-1 223:1 647:1 806:2 812:1 836:1 949:1 1042:1 1104:1 1225:1 1263:2 1276:3
-1 502:1 787:1 806:1 1042:1 1072:1 1225:1 1227:1 1243:1 1255:1 1263:1 1276:3
-1 502:1 787:1 1042:1 1066:1 1225:1 1227:1 1243:1 1249:1 1276:2
-1 227:1 378:1 502:1 650:1 787:1 888:1 910:1 1042:1 1066:1 1072:1 1142:1 1216:1 1225:1 1227:1 1229:1 1243:1 1245:1 1249:1 1255:1 1265:1 1276:1
-1 227:1 249:1 373:1 378:1 448:1 502:1 637:1 688:1 754:1 764:1 787:1 820:1 888:1 910:1 1042:1 1066:1 1072:1 1165:1 1214:1 1216:1 1217:1 1219:1 1222:1 1225:1 1226:1 1227:1 1229:1 1230:1 1243:1 1247:1 1249:1 1255:1 1270:1 1276:1 1278:20
-1 227:1 378:1 502:1 888:1 1042:1 1072:1 1216:1 1225:1 1227:1 1255:1 1276:1
-1 227:1 378:1 448:1 502:1 688:1 787:1 888:1 1042:1 1066:1 1216:1 1219:1 1225:1 1227:1 1243:1 1249:1 1276:2
-1 227:1 249:1 373:1 378:1 502:1 688:1 754:1 764:1 787:1 792:1 888:1 910:1 1042:1 1066:1 1072:1 1193:1 1216:1 1217:1 1219:1 1222:1 1225:1 1227:1 1229:1 1243:1 1247:1 1249:1 1255:1 1258:1 1270:1 1276:1 1278:326
-1 175:1 222:1 227:1 249:1 320:1 378:1 425:1 502:1 652:1 688:1 695:1 706:1 754:1 787:1 888:1 1042:1 1066:1 1072:1 1127:1 1129:1 1216:1 1217:1 1219:1 1225:1 1227:1 1243:1 1249:1 1255:1 1270:1 1276:1
-1 1211:1 1273:1 1276:3
-1 1211:1 1273:1 1276:3
-1 159:1 172:1 205:1 208:1 210:1 239:1 252:1 299:1 393:1 398:1 409:1 422:1 431:1 488:1 500:1 533:1 537:1 550:1 555:1 556:1 562:1 596:1 606:1 653:1 687:1 806:1 877:1 885:1 914:1 924:1 944:1 991:1 1045:1 1089:1 1113:1 1221:1 1263:1 1274:1 1276:1
-1 373:1 461:1 502:1 688:1 756:1 806:1 1038:1 1042:1 1218:1 1219:1 1225:1 1227:1 1247:1 1260:1 1263:1 1276:2
-1 806:1 877:1 1042:1 1072:1 1165:1 1225:1 1226:1 1255:1 1263:1 1274:1 1276:2
-1 806:1 888:1 1042:1 1072:1 1142:1 1216:1 1225:1 1255:1 1263:1 1265:1 1276:2
-1 210:1 299:1 422:1 431:1 486:1 507:1 537:1 606:1 806:1 820:1 877:1 1042:1 1214:1 1221:1 1225:1 1263:1 1274:1 1276:1
-1 502:2 688:1 754:1 888:1 980:1 1042:3 1066:1 1072:2 1216:1 1217:1 1219:1 1225:3 1227:2 1234:1 1249:1 1255:2 1276:6
-1 208:1 210:1 299:1 420:1 422:1 431:1 486:1 537:1 590:1 606:1 631:1 806:1 820:1 877:1 967:1 986:1 1066:1 1089:1 1214:1 1221:1 1249:1 1263:1 1274:1 1276:1
-1 159:1 208:1 210:1 239:1 252:1 299:1 393:1 398:1 420:1 422:1 431:1 500:1 537:1 550:1 555:1 556:1 562:1 596:1 606:1 756:1 806:1 877:1 914:1 924:1 991:1 1165:1 1185:1 1218:1 1221:1 1226:1 1263:1 1274:1 1276:2
-1 210:1 239:1 299:1 422:1 431:1 537:1 606:1 806:1 1221:1 1263:1 1276:3
-1 159:1 208:1 210:1 252:1 299:1 422:1 431:1 537:1 562:1 606:1 687:1 750:1 806:1 877:1 890:1 924:1 1150:1 1165:1 1221:1 1226:1 1263:1 1274:1 1276:2
-1 502:2 688:1 1042:2 1066:1 1072:2 1219:1 1225:2 1227:2 1249:1 1255:2 1276:7
-1 210:1 299:1 422:1 431:1 502:1 537:1 606:1 754:1 806:1 910:1 963:1 1042:1 1217:1 1221:1 1225:1 1227:1 1229:1 1263:1 1276:2
-1 787:1 806:1 954:1 1042:1 1072:1 1225:1 1243:1 1255:1 1263:1 1276:3
-1 146:1 159:1 208:1 210:1 239:1 252:1 299:1 398:1 420:1 422:1 431:1 486:1 500:1 537:1 562:1 596:1 606:1 806:1 877:1 914:1 924:1 1066:1 1089:1 1221:1 1249:1 1263:1 1274:1 1276:3 1278:23
-1 159:1 208:1 210:1 252:1 299:1 373:1 398:1 420:1 422:1 431:1 443:1 500:1 537:1 606:1 641:1 806:1 914:1 924:1 1089:1 1150:1 1165:1 1221:1 1226:1 1247:1 1263:1 1276:2
-1 502:1 597:1 688:1 754:1 787:1 1042:1 1072:1 1217:1 1219:1 1225:1 1227:1 1243:1 1255:1 1269:1 1276:2
-1 1211:1 1273:1 1276:4
-1 208:1 210:1 252:1 299:1 420:1 422:1 431:1 486:1 502:1 537:1 605:1 606:1 787:1 806:1 877:1 1042:1 1089:1 1221:1 1225:1 1227:1 1243:1 1263:1 1274:1 1276:2
-1 1211:1 1273:1 1276:3
-1 1042:1 1225:1 1276:3
-1 373:1 502:1 597:1 621:1 688:1 754:1 787:1 888:1 910:1 1042:1 1066:1 1072:1 1216:1 1217:1 1219:1 1225:1 1227:1 1229:1 1243:1 1247:1 1249:1 1255:1 1269:1 1276:3
-1 1211:1 1273:1 1276:2
-1 373:1 806:2 1042:1 1225:1 1247:1 1263:2 1276:2
-1 373:1 806:2 1042:1 1225:1 1247:1 1263:2 1276:2
-1 373:1 502:1 1042:1 1072:1 1225:1 1227:1 1247:1 1255:1 1276:2
-1 1211:1 1273:1 1276:3
-1 161:1 360:1 545:1 877:1 886:1 923:1 1042:1 1086:1 1215:1 1225:1 1228:1 1242:1 1253:1 1271:1 1274:1 1275:1 1276:4
-1 502:1 754:1 1042:1 1217:1 1225:1 1227:1 1276:3
-1 502:1 1042:1 1225:1 1227:1 1276:1
-1 205:1 208:1 210:1 299:1 366:1 420:1 422:1 431:1 502:1 532:1 537:1 562:1 605:1 606:1 806:1 876:1 888:1 915:1 924:1 1042:1 1066:1 1072:1 1180:1 1187:1 1198:1 1216:1 1221:1 1225:1 1227:1 1232:1 1249:1 1255:1 1262:1 1263:1 1276:1 1278:9
-1 373:1 488:1 502:1 555:1 806:1 820:1 877:1 918:1 1042:1 1072:1 1214:1 1225:1 1227:1 1247:1 1255:1 1263:1 1274:1 1276:1
-1 227:1 378:1 448:1 502:1 637:1 688:1 754:1 764:1 787:1 888:1 910:1 1042:1 1066:1 1072:1 1216:1 1217:1 1219:1 1222:1 1225:1 1227:1 1229:1 1230:1 1243:1 1249:1 1255:1 1276:1
-1 502:1 597:1 650:1 688:1 754:1 756:1 764:1 787:1 888:1 1042:1 1066:1 1072:1 1095:1 1216:1 1217:1 1218:1 1219:1 1222:1 1225:1 1227:1 1243:1 1245:1 1249:1 1255:1 1269:1 1276:5
-1 314:1 356:1 365:1 502:1 640:1 650:1 676:1 1042:1 1225:1 1227:1 1245:1 1276:2
-1 502:1 688:1 754:1 764:1 787:1 888:1 1042:1 1072:1 1216:1 1217:1 1219:1 1222:1 1225:1 1227:1 1243:1 1255:1 1276:3
-1 332:1 421:1 502:1 728:1 770:1 787:1 993:1 1014:1 1042:1 1072:1 1077:1 1091:1 1116:1 1201:1 1225:1 1227:1 1243:1 1255:1 1276:4
-1 502:1 597:1 688:1 754:1 764:1 787:1 806:1 877:1 888:1 910:1 1042:1 1066:1 1072:1 1216:1 1217:1 1219:1 1222:1 1225:1 1227:1 1229:1 1243:1 1249:1 1255:1 1263:1 1269:1 1274:1 1276:3
-1 300:1 502:1 597:1 688:1 754:1 787:1 888:1 910:1 915:1 1042:1 1072:1 1096:1 1198:1 1216:1 1217:1 1219:1 1225:1 1227:1 1229:1 1232:1 1243:1 1255:1 1262:1 1269:1 1276:1
-1 159:1 208:1 210:1 299:1 422:1 431:1 486:1 502:1 532:1 537:1 597:1 606:1 688:1 754:1 787:1 806:1 842:1 877:1 907:1 910:1 946:1 982:1 1000:1 1042:1 1066:1 1072:1 1139:1 1217:1 1219:1 1221:1 1225:1 1227:1 1229:1 1239:1 1243:1 1249:1 1255:1 1263:1 1269:1 1274:1 1276:2
-1 502:1 597:1 754:1 764:1 1042:1 1072:1 1217:1 1222:1 1225:1 1227:1 1255:1 1269:1 1276:2
-1 502:1 597:1 688:1 754:1 787:1 910:1 1042:1 1072:1 1217:1 1219:1 1225:1 1227:1 1229:1 1243:1 1255:1 1269:1 1276:2
-1 281:1 502:2 688:1 754:1 764:1 1042:4 1066:2 1072:2 1217:1 1219:1 1222:1 1225:4 1227:2 1249:2 1255:2 1276:6
-1 502:1 688:1 754:1 787:1 888:1 1042:1 1072:1 1216:1 1217:1 1219:1 1225:1 1227:1 1243:1 1255:1 1276:2
-1 806:1 1009:1 1042:1 1225:1 1263:1 1276:3
-1 502:1 688:1 754:1 764:1 787:1 888:1 1042:1 1072:1 1216:1 1217:1 1219:1 1222:1 1225:1 1227:1 1243:1 1255:1 1276:2
-1 208:1 210:1 239:1 252:1 299:1 373:1 398:1 422:1 431:1 500:1 537:1 550:1 562:1 602:1 606:1 806:1 877:1 1070:1 1221:1 1247:1 1263:1 1274:1 1276:3
-1 1211:1 1273:1 1276:3
-1 903:1 1223:1 1276:1
-1 502:1 754:1 806:1 1042:1 1217:1 1225:1 1227:1 1263:1 1276:2
-1 1211:1 1273:1 1276:3
-1 1211:1 1273:1 1276:3
-1 1211:1 1273:1 1276:3
-1 1211:1 1273:1 1276:3
-1 1211:1 1273:1 1276:3
-1 1211:1 1273:1 1276:3
-1 1211:1 1273:1 1276:3
-1 806:2 1042:1 1151:1 1225:1 1263:2 1276:2
-1 502:1 525:1 688:1 910:1 1042:1 1072:1 1219:1 1225:1 1227:1 1229:1 1254:1 1255:1 1276:1
-1 502:1 806:1 1042:1 1225:1 1227:1 1263:1 1276:5
-1 1211:1 1273:1 1276:3
-1 373:1 502:1 597:1 688:1 754:1 787:1 806:1 888:1 980:1 1042:1 1066:1 1072:1 1216:1 1217:1 1219:1 1225:1 1227:1 1234:1 1243:1 1247:1 1249:1 1255:1 1263:1 1269:1 1276:4
-1 502:1 806:1 1042:1 1225:1 1227:1 1263:1 1276:3
-1 502:1 806:1 1042:1 1072:1 1225:1 1227:1 1255:1 1263:1 1276:2
-1 525:1 542:1 764:1 787:1 888:1 1042:1 1072:1 1096:1 1216:1 1222:1 1225:1 1243:1 1254:1 1255:1 1267:1 1276:1
-1 161:1 360:1 545:1 886:1 923:1 1042:1 1086:1 1215:1 1225:1 1228:1 1242:1 1253:1 1271:1 1275:1 1276:2
-1 1211:1 1273:1 1276:4
-1 1211:1 1273:1 1276:2
-1 1042:1 1225:1 1276:4
-1 1042:1 1225:1 1276:2
-1 489:1 502:1 520:1 650:1 952:1 1042:1 1081:1 1225:1 1227:1 1245:1 1276:2
-1 1276:1
-1 150:1 161:1 359:1 360:1 545:1 668:1 863:1 886:1 888:1 923:1 988:1 1042:1 1072:1 1086:1 1215:1 1216:1 1225:1 1228:1 1242:1 1246:1 1248:1 1253:1 1255:1 1257:1 1259:1 1271:1 1275:1 1276:3
-1 173:1 192:1 208:1 210:1 239:1 244:1 252:1 254:1 273:1 299:1 362:1 398:1 420:1 422:1 431:1 454:1 486:1 500:1 503:1 507:1 532:1 537:1 562:1 605:1 606:1 631:1 641:1 654:1 805:1 806:1 848:1 861:1 877:1 915:1 924:1 944:1 1032:1 1066:1 1221:1 1232:1 1249:1 1263:1 1274:1 1276:2
-1 192:1 208:1 210:1 245:1 299:1 398:1 420:1 422:1 431:1 486:1 500:1 503:1 507:1 532:1 537:1 562:1 577:1 606:1 806:1 848:1 944:1 1221:1 1263:1 1276:1
-1 502:1 597:1 650:1 688:1 754:1 764:1 787:1 1042:1 1072:1 1217:1 1219:1 1222:1 1225:1 1227:1 1243:1 1245:1 1255:1 1269:1 1276:2
-1 502:1 597:1 650:1 688:1 754:1 764:1 787:1 1042:1 1072:1 1217:1 1219:1 1222:1 1225:1 1227:1 1243:1 1245:1 1255:1 1269:1 1276:2
-1 195:1 483:1 747:1 1276:2
-1 195:1 483:1 747:1 1276:2
-1 787:1 888:1 910:1 1042:1 1066:1 1072:1 1193:1 1216:1 1225:1 1229:1 1243:1 1249:1 1255:1 1258:1 1276:2
-1 187:1 249:1 373:1 502:1 542:1 664:1 688:1 710:1 754:1 764:1 787:1 877:1 888:1 910:1 915:1 1042:1 1066:1 1072:1 1198:1 1216:1 1217:1 1219:1 1222:1 1225:1 1227:1 1229:1 1232:1 1233:1 1237:1 1243:1 1247:1 1249:1 1255:1 1262:1 1267:1 1270:1 1274:1 1276:2
-1 502:1 754:1 866:1 888:1 910:1 1024:1 1042:1 1072:1 1216:1 1217:1 1225:1 1227:1 1229:1 1255:1 1276:1
-1 502:1 1024:1 1042:1 1225:1 1227:1 1276:1
-1 502:2 688:1 1042:2 1066:1 1072:2 1219:1 1225:2 1227:2 1249:1 1255:2 1276:7
-1 159:1 208:1 210:1 252:1 299:1 398:1 409:1 420:1 422:1 431:1 486:1 507:1 537:1 562:1 576:1 590:1 605:1 606:1 776:1 806:1 848:1 877:1 924:1 978:1 1066:1 1111:1 1221:1 1249:1 1263:1 1274:1 1276:2
-1 787:1 806:1 888:1 910:1 915:1 1042:1 1072:1 1198:1 1216:1 1225:1 1229:1 1232:1 1243:1 1255:1 1262:1 1263:1 1276:2
-1 806:1 1042:1 1225:1 1263:1 1276:6
-1 388:1 638:1 728:1 770:1 787:1 806:1 931:1 976:1 993:1 1042:1 1225:1 1243:1 1263:1 1276:5 1278:150
-1 806:1 931:1 949:1 1042:1 1225:1 1263:1 1276:6
-1 224:1 806:1 1042:1 1225:1 1263:1 1276:6
-1 224:1 332:1 388:1 638:1 728:1 770:1 806:1 931:1 976:1 993:1 1042:1 1225:1 1263:1 1276:5 1278:52
-1 502:1 688:1 754:1 764:1 787:1 888:1 1042:1 1072:1 1216:1 1217:1 1219:1 1222:1 1225:1 1227:1 1243:1 1255:1 1276:3
-1 806:2 980:1 1042:1 1225:1 1234:1 1263:2 1276:3
-1 174:1 178:1 181:1 230:1 265:1 611:1 758:1 784:1 785:1 850:1 883:1 898:1 916:1 948:1 1042:1 1225:1 1276:1
-1 147:1 177:1 191:1 230:1 265:1 345:1 380:1 530:1 634:1 658:1 703:2 770:1 806:2 972:1 1042:1 1225:1 1263:2 1276:2
-1 502:1 688:1 754:1 764:1 787:1 888:1 1042:1 1072:1 1216:1 1217:1 1219:1 1222:1 1225:1 1227:1 1243:1 1255:1 1276:3
-1 373:1 502:1 555:1 556:1 575:1 756:1 764:1 806:1 877:1 910:1 983:1 1042:1 1072:1 1218:1 1222:1 1225:1 1227:1 1229:1 1247:1 1255:1 1263:1 1274:1 1276:2
-1 178:1 502:1 650:1 715:1 745:1 754:1 806:1 1030:1 1042:1 1217:1 1225:1 1227:1 1245:1 1263:1 1276:2
-1 265:1 502:2 611:1 1042:4 1066:2 1072:1 1225:4 1227:2 1249:2 1255:1 1276:5
-1 265:2 502:2 688:1 754:1 888:1 1042:3 1066:1 1072:2 1216:1 1217:1 1219:1 1225:3 1227:2 1249:1 1255:2 1276:6
-1 1211:1 1273:1 1276:4
-1 1211:1 1273:1 1276:3
-1 251:1 611:1 806:2 850:1 1042:1 1168:1 1225:1 1263:2 1276:2
-1 223:1 553:1 647:1 806:2 1042:1 1207:1 1225:1 1263:2 1276:3
-1 502:2 597:1 650:1 688:1 754:1 756:1 764:1 1042:4 1066:2 1072:2 1217:1 1218:1 1219:1 1222:1 1225:4 1227:2 1245:1 1249:2 1255:2 1269:1 1276:6
-1 744:1 1276:1
-1 293:1 566:1 806:1 980:1 1042:1 1225:1 1234:1 1263:1 1276:3
-1 502:1 597:1 650:1 688:1 754:1 764:1 787:1 888:1 1042:1 1066:1 1072:1 1216:1 1217:1 1219:1 1222:1 1225:1 1227:1 1243:1 1245:1 1249:1 1255:1 1269:1 1276:5
-1 1211:1 1273:1 1276:3
-1 502:1 688:1 754:1 764:1 787:1 888:1 1042:1 1072:1 1216:1 1217:1 1219:1 1222:1 1225:1 1227:1 1243:1 1255:1 1276:3
-1 502:2 688:1 1042:2 1066:1 1072:2 1219:1 1225:2 1227:2 1249:1 1255:2 1276:7
-1 210:1 299:1 398:1 422:1 431:1 462:1 486:1 502:1 537:1 606:1 688:1 787:1 806:1 910:1 1042:1 1219:1 1221:1 1225:1 1227:1 1229:1 1243:1 1263:1 1276:4
-1 502:1 754:1 787:1 806:1 888:1 1042:1 1066:1 1216:1 1217:1 1225:1 1227:1 1243:1 1249:1 1263:1 1276:1
-1 679:1 1042:1 1225:1 1276:2
-1 210:1 299:1 422:1 431:1 486:1 502:1 537:1 606:1 754:1 806:1 888:1 910:1 1042:1 1216:1 1217:1 1221:1 1225:1 1227:1 1229:1 1263:1 1276:3
-1 1211:1 1273:1 1276:4
-1 657:1 916:1 1042:1 1225:1 1276:2
-1 502:2 650:1 688:1 754:1 764:1 787:2 888:1 1042:5 1066:3 1072:2 1216:1 1217:1 1219:1 1222:1 1225:5 1227:2 1243:2 1245:1 1249:3 1255:2 1276:6
-1 502:1 787:1 806:1 1042:1 1072:1 1225:1 1227:1 1243:1 1255:1 1263:1 1276:3 1278:1
-1 373:1 502:1 1042:1 1225:1 1227:1 1247:1 1276:4
-1 1211:1 1273:1 1276:3
-1 502:1 597:1 688:1 754:1 787:1 806:2 888:1 980:1 1042:1 1072:1 1216:1 1217:1 1219:1 1225:1 1227:1 1234:1 1243:1 1255:1 1263:2 1269:1 1276:2
-1 502:1 688:1 754:1 764:1 787:1 888:1 1042:1 1072:1 1216:1 1217:1 1219:1 1222:1 1225:1 1227:1 1243:1 1255:1 1276:3
-1 130:1 249:1 502:1 650:1 709:1 714:1 754:1 787:1 806:1 830:1 877:1 888:1 891:1 1042:1 1066:1 1072:1 1154:1 1216:1 1217:1 1225:1 1227:1 1236:1 1243:1 1245:1 1249:1 1255:1 1263:1 1270:1 1274:1 1276:1
-1 1211:1 1273:1 1276:2
-1 502:1 688:1 754:1 764:1 787:1 888:1 1042:1 1072:1 1216:1 1217:1 1219:1 1222:1 1225:1 1227:1 1243:1 1255:1 1276:3
-1 363:1 502:1 806:1 1042:1 1225:1 1227:1 1263:1 1276:2
-1 502:1 650:1 754:1 764:1 1042:1 1217:1 1222:1 1225:1 1227:1 1245:1 1276:2
-1 195:1 747:1 1276:2
-1 1276:1
-1 1211:1 1273:1 1276:4
-1 502:1 525:1 754:1 764:1 839:1 888:1 934:1 1024:1 1042:1 1072:1 1216:1 1217:1 1222:1 1225:1 1227:1 1254:1 1255:1 1256:1 1276:3 1278:123
-1 131:1 236:1 268:1 373:1 502:1 771:1 787:1 839:1 888:1 915:1 953:1 1024:1 1042:1 1066:1 1072:1 1216:1 1225:1 1227:1 1232:1 1243:1 1247:1 1249:1 1255:1 1276:1 1278:2
-1 1211:1 1273:1 1276:2
-1 1042:1 1225:1 1276:2
-1 502:2 597:1 688:1 754:1 764:1 787:2 888:1 1042:4 1066:3 1072:2 1216:1 1217:1 1219:1 1222:1 1225:4 1227:2 1243:2 1249:3 1255:2 1269:1 1276:6
-1 341:1 502:1 754:1 787:1 806:1 820:1 877:1 910:1 1025:1 1042:1 1072:1 1214:1 1217:1 1225:1 1227:1 1229:1 1243:1 1255:1 1263:1 1274:1 1276:1
-1 373:1 502:1 597:1 673:1 688:1 754:1 764:1 787:1 888:1 910:1 1042:1 1066:1 1072:1 1076:1 1216:1 1217:1 1219:1 1222:1 1225:1 1227:1 1229:1 1243:1 1247:1 1249:1 1255:1 1264:1 1266:1 1269:1 1276:4
-1 210:1 212:1 299:1 422:1 431:1 537:1 606:1 806:1 888:1 1042:1 1072:1 1216:1 1221:1 1225:1 1255:1 1263:1 1276:1
-1 218:1 502:1 725:1 806:1 915:1 1042:1 1072:1 1198:1 1225:1 1227:1 1232:1 1255:1 1262:1 1263:1 1276:1
-1 502:1 597:1 688:1 754:1 764:1 787:1 888:1 1042:1 1066:1 1072:1 1216:1 1217:1 1219:1 1222:1 1225:1 1227:1 1243:1 1249:1 1255:1 1269:1 1276:5
-1 502:2 1042:4 1066:2 1072:1 1225:4 1227:2 1249:2 1255:1 1276:6
-1 502:2 688:1 1042:2 1066:1 1072:2 1219:1 1225:2 1227:2 1249:1 1255:2 1276:7
-1 502:1 597:1 754:1 787:1 1042:1 1072:1 1217:1 1225:1 1227:1 1243:1 1255:1 1269:1 1276:2
-1 502:1 597:1 688:1 754:1 787:1 1042:1 1072:1 1217:1 1219:1 1225:1 1227:1 1243:1 1255:1 1269:1 1276:1
-1 1211:1 1273:1 1276:3
-1 502:1 787:1 1042:1 1066:1 1225:1 1227:1 1243:1 1249:1 1276:1
-1 196:1 332:1 770:1 806:1 993:1 1042:1 1225:1 1263:1 1276:3
-1 502:1 794:1 806:2 1042:1 1072:1 1225:1 1227:1 1255:1 1263:2 1276:5
-1 502:1 597:1 754:1 787:1 888:1 905:1 910:1 1042:1 1066:1 1072:1 1076:1 1216:1 1217:1 1225:1 1227:1 1229:1 1243:1 1249:1 1255:1 1264:1 1269:1 1276:4
-1 297:1 502:2 597:1 688:1 754:1 764:1 888:1 1042:6 1066:3 1072:2 1216:1 1217:1 1219:1 1222:1 1225:6 1227:2 1244:1 1249:3 1255:2 1269:1 1276:6
-1 502:2 597:1 688:1 754:1 764:1 787:1 888:1 1042:4 1066:2 1072:2 1216:1 1217:1 1219:1 1222:1 1225:4 1227:2 1243:1 1249:2 1255:2 1269:1 1276:6
-1 502:1 688:1 754:1 764:1 787:1 888:1 1042:1 1072:1 1216:1 1217:1 1219:1 1222:1 1225:1 1227:1 1243:1 1255:1 1276:3
-1 502:2 688:1 754:1 888:1 1042:3 1066:1 1072:2 1216:1 1217:1 1219:1 1225:3 1227:2 1249:1 1255:2 1276:6
-1 1211:1 1273:1 1276:3
-1 502:2 688:1 1042:4 1066:2 1072:3 1219:1 1225:4 1227:2 1249:2 1255:3 1276:4
-1 1042:1 1225:1 1276:2
-1 208:1 210:1 252:1 299:1 420:1 422:1 431:1 486:1 500:1 502:1 532:1 537:1 550:1 606:1 714:1 787:1 806:1 845:1 910:1 1042:1 1221:1 1225:1 1227:1 1229:1 1240:1 1243:1 1263:1 1276:3
-1 502:1 1042:1 1225:1 1227:1 1276:2
-1 502:1 688:1 754:1 787:1 806:1 874:1 1038:1 1042:1 1072:1 1217:1 1219:1 1225:1 1227:1 1243:1 1255:1 1263:1 1276:2 1278:1
-1 159:1 208:1 210:1 252:1 299:1 373:1 398:1 422:1 431:1 500:1 537:1 606:1 806:1 877:1 914:1 924:1 1165:1 1221:1 1226:1 1247:1 1263:1 1274:1 1276:1
-1 502:1 688:1 754:1 764:1 787:1 888:1 1042:1 1072:1 1216:1 1217:1 1219:1 1222:1 1225:1 1227:1 1243:1 1255:1 1276:2
-1 1042:1 1225:1 1276:3
-1 502:1 888:1 1042:1 1066:1 1072:1 1216:1 1225:1 1227:1 1249:1 1255:1 1276:1
-1 502:1 787:1 806:1 877:1 1005:1 1042:1 1072:1 1225:1 1227:1 1243:1 1255:1 1263:1 1274:1 1276:2
