1 347:1 910:1 1119:1 1162:1 1218:1 1222:1 1224:1 1230:1 1242:2
1 508:1 910:1 1119:1 1162:1 1218:1 1222:1 1230:1 1235:1 1242:2
1 910:1 911:1 1119:1 1162:1 1218:1 1222:1 1230:1 1231:1 1242:2
1 508:1 910:1 1162:1 1218:1 1230:1 1235:1 1242:2
1 910:1 1162:1 1218:1 1230:1 1242:2
1 178:1 508:1 1119:1 1162:1 1215:1 1218:1 1222:1 1235:1 1242:1
1 178:1 508:1 911:1 1119:1 1162:1 1215:1 1218:1 1222:1 1231:1 1235:1 1242:2
1 508:1 1162:1 1218:1 1235:1 1242:2
1 1162:1 1218:1 1242:2
1 508:1 911:1 1119:1 1162:1 1218:1 1222:1 1231:1 1235:1 1242:2
1 508:1 911:1 1162:1 1218:1 1231:1 1235:1 1242:2
1 1119:1 1162:1 1218:1 1222:1 1242:2
1 178:1 1117:1 1162:1 1215:1 1218:1 1221:1 1242:4
1 1119:1 1162:1 1218:1 1222:1 1242:2
1 910:1 1119:1 1162:1 1218:1 1222:1 1230:1 1242:2
1 178:1 508:1 1119:1 1162:1 1215:1 1218:1 1222:1 1235:1 1242:1
1 166:1 508:1 651:1 820:1 910:1 1117:1 1119:1 1162:1 1218:1 1220:1 1221:1 1222:1 1230:1 1232:1 1235:1 1236:1 1242:2
1 1119:1 1162:1 1218:1 1222:1 1242:2
1 508:1 910:1 911:1 1119:1 1162:1 1218:1 1222:1 1230:1 1231:1 1235:1 1242:2
1 1119:1 1162:1 1218:1 1222:1 1242:2
1 928:1 1240:1 1242:4
1 910:1 1162:1 1218:1 1230:1 1242:2
1 1162:1 1218:1 1242:4
1 508:1 910:1 911:1 1119:1 1162:1 1218:1 1222:1 1230:1 1231:1 1235:1 1242:2
1 508:1 910:1 1119:1 1162:1 1218:1 1222:1 1230:1 1235:1 1242:2
1 238:1 347:1 403:1 496:1 629:1 650:1 910:1 995:1 1080:1 1119:1 1162:1 1218:1 1219:1 1222:1 1223:1 1224:1 1227:1 1230:1 1234:1 1237:1 1239:1 1241:1 1242:3
1 347:1 508:1 910:1 1119:1 1162:1 1218:1 1222:1 1224:1 1230:1 1235:1 1242:2
1 347:1 910:1 911:1 1119:1 1162:1 1218:1 1222:1 1224:1 1230:1 1231:1 1242:2
1 1119:1 1162:1 1218:1 1222:1 1242:2
1 910:1 911:1 1119:1 1162:1 1218:1 1222:1 1230:1 1231:1 1242:1
1 178:1 508:1 1119:1 1162:1 1215:1 1218:1 1222:1 1235:1 1242:1
1 1119:1 1162:1 1218:1 1222:1 1242:2
1 928:1 1240:1 1242:4
1 910:1 1119:1 1162:1 1218:1 1222:1 1230:1 1242:3
1 911:1 970:1 1119:1 1162:1 1218:1 1222:1 1225:1 1231:1 1242:2
1 508:1 911:1 1119:1 1162:1 1218:1 1222:1 1231:1 1235:1 1242:2
1 508:1 910:1 1119:1 1162:1 1218:1 1222:1 1230:1 1235:1 1242:2
1 508:1 911:1 970:1 1119:1 1162:1 1218:1 1222:1 1225:1 1231:1 1235:1 1242:3
1 508:1 1119:1 1162:1 1218:1 1222:1 1235:1 1242:1
1 347:1 910:1 1119:1 1162:1 1218:1 1222:1 1224:1 1230:1 1242:2
1 1119:1 1162:1 1218:1 1222:1 1242:2
1 1119:1 1162:1 1218:1 1222:1 1242:3
1 910:1 1119:1 1162:1 1218:1 1222:1 1230:1 1242:2
1 166:1 508:1 651:1 820:1 910:1 1117:1 1119:1 1162:1 1218:1 1220:1 1221:1 1222:1 1230:1 1232:1 1235:1 1236:1 1242:2
1 1119:1 1162:1 1218:1 1222:1 1242:2
1 178:1 509:1 1117:1 1119:1 1162:1 1215:1 1218:1 1221:1 1222:1 1238:1 1242:3
1 910:1 1119:1 1162:1 1218:1 1222:1 1230:1 1242:2
1 347:1 910:1 911:1 1119:1 1162:1 1218:1 1222:1 1224:1 1230:1 1231:1 1242:2
1 1162:1 1218:1 1242:3 1244:1
1 1119:1 1162:1 1218:1 1222:1 1242:2
1 508:1 1119:1 1162:1 1218:1 1222:1 1235:1 1242:2
1 508:1 910:1 911:1 1119:1 1162:1 1218:1 1222:1 1230:1 1231:1 1235:1 1242:2
1 1119:1 1162:1 1218:1 1222:1 1242:2
1 1119:1 1162:1 1218:1 1222:1 1242:2
1 166:1 508:1 651:1 820:1 910:1 1117:1 1119:1 1162:1 1218:1 1220:1 1221:1 1222:1 1230:1 1232:1 1235:1 1236:1 1242:2
1 1119:1 1162:1 1218:1 1222:1 1242:2
1 1162:1 1218:1 1242:3 1244:1
1 1162:1 1218:1 1242:3
1 910:1 1119:1 1162:1 1218:1 1222:1 1230:1 1242:1
1 178:1 347:1 1119:1 1162:1 1215:1 1218:1 1222:1 1224:1 1242:2
1 1242:3
1 508:1 910:1 1119:1 1162:1 1218:1 1222:1 1230:1 1235:1 1242:2
1 508:1 1119:1 1162:1 1218:1 1222:1 1235:1 1242:1
1 347:1 910:1 1119:1 1162:1 1218:1 1222:1 1224:1 1230:1 1242:2
1 508:1 1119:1 1162:1 1218:1 1222:1 1235:1 1242:2
1 508:1 1119:1 1162:1 1218:1 1222:1 1235:1 1242:2
1 508:1 1119:1 1162:1 1218:1 1222:1 1235:1 1242:3
1 178:1 910:1 1119:1 1162:1 1215:1 1218:1 1222:1 1230:1 1242:2
1 1119:1 1162:1 1218:1 1222:1 1242:1
1 1242:3
1 178:1 508:1 1119:1 1162:1 1215:1 1218:1 1222:1 1235:1 1242:1
1 1119:1 1162:1 1218:1 1222:1 1242:2
1 1119:1 1162:1 1218:1 1222:1 1242:1
1 178:1 347:1 508:1 910:1 911:1 1119:1 1162:1 1215:1 1218:1 1222:1 1224:1 1230:1 1231:1 1235:1 1242:2
1 1162:1 1218:1 1242:1
1 508:1 910:1 1119:1 1162:1 1218:1 1222:1 1230:1 1235:1 1242:2
1 166:1 508:1 651:1 820:1 910:1 1117:1 1119:1 1162:1 1218:1 1220:1 1221:1 1222:1 1230:1 1232:1 1235:1 1236:1 1242:2
1 508:1 910:1 1119:1 1162:1 1218:1 1222:1 1230:1 1235:1 1242:3
1 166:1 508:1 651:1 820:1 910:1 1117:1 1119:1 1162:1 1218:1 1220:1 1221:1 1222:1 1230:1 1232:1 1235:1 1236:1 1242:2
1 508:1 1119:1 1162:1 1218:1 1222:1 1235:1 1242:1
1 508:1 911:1 1119:1 1162:1 1218:1 1222:1 1231:1 1235:1 1242:3
1 508:1 1162:1 1218:1 1235:1 1242:1
1 166:1 508:1 651:1 820:1 910:1 1117:1 1119:1 1162:1 1218:1 1220:1 1221:1 1222:1 1230:1 1232:1 1235:1 1236:1 1242:2
1 1119:1 1162:1 1218:1 1222:1 1242:1
1 508:1 1119:1 1162:1 1218:1 1222:1 1235:1 1242:2
1 1119:1 1162:1 1218:1 1222:1 1242:2
1 178:1 347:1 508:1 910:1 911:1 1119:1 1162:1 1215:1 1218:1 1222:1 1224:1 1230:1 1231:1 1235:1 1242:2
1 910:1 1162:1 1218:1 1230:1 1242:2
1 508:1 1119:1 1162:1 1218:1 1222:1 1235:1 1242:2
1 1119:1 1162:1 1218:1 1222:1 1242:2
1 347:1 1119:1 1162:1 1218:1 1222:1 1224:1 1242:2
1 1119:1 1162:1 1218:1 1222:1 1242:2
1 508:1 910:1 1119:1 1162:1 1218:1 1222:1 1230:1 1235:1 1242:1
1 1119:1 1162:1 1218:1 1222:1 1242:1
1 508:1 1162:1 1218:1 1235:1 1242:2
1 347:1 910:1 1119:1 1162:1 1218:1 1222:1 1224:1 1230:1 1242:2
1 178:1 508:1 911:1 1119:1 1162:1 1215:1 1218:1 1222:1 1231:1 1235:1 1242:2
1 928:1 1240:1 1242:4
1 508:1 911:1 1162:1 1218:1 1231:1 1235:1 1242:1
1 508:1 911:1 1119:1 1162:1 1218:1 1222:1 1231:1 1235:1 1242:2
1 910:1 1119:1 1162:1 1218:1 1222:1 1230:1 1242:2
1 1119:1 1162:1 1218:1 1222:1 1242:2
1 508:1 911:1 1162:1 1218:1 1231:1 1235:1 1242:1
1 508:1 1162:1 1218:1 1235:1 1242:2
1 910:1 911:1 1119:1 1162:1 1218:1 1222:1 1230:1 1231:1 1242:2
1 1119:1 1162:1 1218:1 1222:1 1242:2
1 178:1 910:1 1119:1 1162:1 1215:1 1218:1 1222:1 1230:1 1242:2
1 178:1 347:1 910:1 1119:1 1162:1 1215:1 1218:1 1222:1 1224:1 1230:1 1242:2
1 178:1 347:1 508:1 1162:1 1215:1 1218:1 1224:1 1235:1 1242:2
1 1119:1 1162:1 1218:1 1222:1 1242:2
1 1119:1 1162:1 1218:1 1222:1 1242:2
1 928:1 1240:1 1242:5
1 1162:1 1218:1 1242:1
1 166:1 508:1 651:1 820:1 910:1 1117:1 1119:1 1162:1 1218:1 1220:1 1221:1 1222:1 1230:1 1232:1 1235:1 1236:1 1242:2
1 508:1 1119:1 1162:1 1218:1 1222:1 1235:1 1242:2
1 508:1 910:1 1119:1 1162:1 1218:1 1222:1 1230:1 1235:1 1242:2
1 910:1 1119:1 1162:1 1218:1 1222:1 1230:1 1242:2
1 1162:1 1218:1 1242:1
1 347:1 508:1 1119:1 1162:1 1218:1 1222:1 1224:1 1235:1 1242:2
1 347:1 1119:1 1162:1 1218:1 1222:1 1224:1 1242:3 1244:1
1 508:1 910:1 1119:1 1162:1 1218:1 1222:1 1230:1 1235:1 1242:3
1 508:1 1119:1 1162:1 1218:1 1222:1 1235:1 1242:2
1 508:1 910:1 1119:1 1162:1 1218:1 1222:1 1230:1 1235:1 1242:2
1 1119:1 1162:1 1218:1 1222:1 1242:1
1 178:1 347:1 508:1 1162:1 1215:1 1218:1 1224:1 1235:1 1242:2
1 347:1 508:1 910:1 1119:1 1162:1 1218:1 1222:1 1224:1 1230:1 1235:1 1242:3
1 508:1 910:1 1119:1 1162:1 1218:1 1222:1 1230:1 1235:1 1242:1
1 910:1 911:1 1119:1 1162:1 1218:1 1222:1 1230:1 1231:1 1242:2
1 910:1 1119:1 1162:1 1218:1 1222:1 1230:1 1242:2
1 508:1 910:1 1119:1 1162:1 1218:1 1222:1 1230:1 1235:1 1242:2
1 911:1 1119:1 1162:1 1218:1 1222:1 1231:1 1242:2
1 1242:3
1 910:1 1119:1 1162:1 1218:1 1222:1 1230:1 1242:1
1 1119:1 1162:1 1218:1 1222:1 1242:2
1 347:1 910:1 1119:1 1162:1 1218:1 1222:1 1224:1 1230:1 1242:2
1 1162:1 1218:1 1242:2
1 1119:1 1162:1 1218:1 1222:1 1242:2
1 508:1 1119:1 1162:1 1218:1 1222:1 1235:1 1242:2
1 508:1 1162:1 1218:1 1235:1 1242:2
1 166:1 508:1 651:1 820:1 910:1 1117:1 1119:1 1162:1 1218:1 1220:1 1221:1 1222:1 1230:1 1232:1 1235:1 1236:1 1242:2
1 166:1 508:1 651:1 820:1 910:1 1117:1 1119:1 1162:1 1218:1 1220:1 1221:1 1222:1 1230:1 1232:1 1235:1 1236:1 1242:2
1 347:1 1119:1 1162:1 1218:1 1222:1 1224:1 1242:1
1 508:1 1119:1 1162:1 1218:1 1222:1 1235:1 1242:3
1 1162:1 1218:1 1242:1
1 928:1 1240:1 1242:5
1 178:1 508:1 1162:1 1215:1 1218:1 1235:1 1242:2
1 1162:1 1218:1 1242:1
1 508:1 1119:1 1162:1 1218:1 1222:1 1235:1 1242:2
1 166:1 508:1 651:1 820:1 910:1 1117:1 1119:1 1162:1 1218:1 1220:1 1221:1 1222:1 1230:1 1232:1 1235:1 1236:1 1242:2
1 178:1 508:1 911:1 1119:1 1162:1 1215:1 1218:1 1222:1 1231:1 1235:1 1242:2
1 1119:1 1162:1 1218:1 1222:1 1242:2
1 178:1 508:1 911:1 1119:1 1162:1 1215:1 1218:1 1222:1 1231:1 1235:1 1242:2
1 508:1 1119:1 1162:1 1218:1 1222:1 1235:1 1242:2
1 1119:1 1162:1 1218:1 1222:1 1242:2
1 347:1 508:1 911:1 1119:1 1162:1 1218:1 1222:1 1224:1 1231:1 1235:1 1242:3
1 1119:1 1162:1 1218:1 1222:1 1242:2
1 178:1 347:1 508:1 910:1 911:1 1119:1 1162:1 1215:1 1218:1 1222:1 1224:1 1230:1 1231:1 1235:1 1242:2
1 508:1 910:1 1119:1 1162:1 1218:1 1222:1 1230:1 1235:1 1242:2
1 1119:1 1162:1 1218:1 1222:1 1242:2
1 347:1 508:1 910:1 1119:1 1162:1 1218:1 1222:1 1224:1 1230:1 1235:1 1242:2
1 178:1 508:1 1162:1 1215:1 1218:1 1235:1 1242:2
1 347:1 508:1 910:1 1119:1 1162:1 1218:1 1222:1 1224:1 1230:1 1235:1 1242:2
1 1119:1 1162:1 1218:1 1222:1 1242:2
1 508:1 1119:1 1162:1 1218:1 1222:1 1235:1 1242:1
1 508:1 910:1 1119:1 1162:1 1218:1 1222:1 1230:1 1235:1 1242:3
1 910:1 1119:1 1162:1 1218:1 1222:1 1230:1 1242:2
1 508:1 1119:1 1162:1 1218:1 1222:1 1235:1 1242:1
1 910:1 1119:1 1162:1 1218:1 1222:1 1230:1 1242:2
1 166:1 508:1 651:1 820:1 910:1 1117:1 1119:1 1162:1 1218:1 1220:1 1221:1 1222:1 1230:1 1232:1 1235:1 1236:1 1242:2
1 928:1 1240:1 1242:4
1 1119:1 1162:1 1218:1 1222:1 1242:2
1 347:1 508:1 910:1 1119:1 1162:1 1218:1 1222:1 1224:1 1230:1 1235:1 1242:2
1 1119:1 1162:1 1218:1 1222:1 1242:2
1 508:1 910:1 1119:1 1162:1 1218:1 1222:1 1230:1 1235:1 1242:2
1 1119:1 1162:1 1218:1 1222:1 1242:2
1 347:1 508:1 910:1 1119:1 1162:1 1218:1 1222:1 1224:1 1230:1 1235:1 1242:2
1 508:1 910:1 1119:1 1162:1 1218:1 1222:1 1230:1 1235:1 1242:1
1 910:1 911:1 1119:1 1162:1 1218:1 1222:1 1230:1 1231:1 1242:2
1 1162:1 1218:1 1242:2
1 347:1 911:1 1119:1 1162:1 1218:1 1222:1 1224:1 1231:1 1242:2
1 508:1 910:1 911:1 1119:1 1162:1 1218:1 1222:1 1230:1 1231:1 1235:1 1242:2
1 508:1 1119:1 1162:1 1218:1 1222:1 1235:1 1242:2
1 910:1 970:1 1119:1 1162:1 1218:1 1222:1 1225:1 1230:1 1242:2
1 1119:1 1162:1 1218:1 1222:1 1242:2
1 928:1 1240:1 1242:4
1 508:1 910:1 1119:1 1162:1 1218:1 1222:1 1230:1 1235:1 1242:3
1 508:1 910:1 1119:1 1162:1 1218:1 1222:1 1230:1 1235:1 1242:1
1 178:1 347:1 910:1 1119:1 1162:1 1215:1 1218:1 1222:1 1224:1 1230:1 1242:2
1 508:1 910:1 1119:1 1162:1 1218:1 1222:1 1230:1 1235:1 1242:2
1 508:1 1162:1 1218:1 1235:1 1242:1
1 508:1 1119:1 1162:1 1218:1 1222:1 1235:1 1242:2
1 508:1 911:1 1119:1 1162:1 1218:1 1222:1 1231:1 1235:1 1242:1
1 508:1 1162:1 1218:1 1235:1 1242:1
1 910:1 1162:1 1218:1 1230:1 1242:2
1 508:1 1119:1 1162:1 1218:1 1222:1 1235:1 1242:1
1 178:1 508:1 910:1 1162:1 1215:1 1218:1 1230:1 1235:1 1242:2
1 508:1 1119:1 1162:1 1218:1 1222:1 1235:1 1242:3
1 166:1 508:1 651:1 820:1 910:1 1117:1 1119:1 1162:1 1218:1 1220:1 1221:1 1222:1 1230:1 1232:1 1235:1 1236:1 1242:2
1 508:1 1119:1 1162:1 1218:1 1222:1 1235:1 1242:2
1 1119:1 1162:1 1218:1 1222:1 1242:2
1 347:1 910:1 911:1 1119:1 1162:1 1218:1 1222:1 1224:1 1230:1 1231:1 1242:3
1 910:1 1162:1 1218:1 1230:1 1242:3
1 910:1 1119:1 1162:1 1218:1 1222:1 1230:1 1242:2
1 1119:1 1162:1 1218:1 1222:1 1242:2
1 178:1 347:1 508:1 910:1 911:1 1119:1 1162:1 1215:1 1218:1 1222:1 1224:1 1230:1 1231:1 1235:1 1242:2
1 508:1 910:1 911:1 1119:1 1162:1 1218:1 1222:1 1230:1 1231:1 1235:1 1242:2
1 166:1 508:1 651:1 820:1 910:1 1117:1 1119:1 1162:1 1218:1 1220:1 1221:1 1222:1 1230:1 1232:1 1235:1 1236:1 1242:2
1 1119:1 1162:1 1218:1 1222:1 1242:2
1 347:1 508:1 910:1 1119:1 1162:1 1218:1 1222:1 1224:1 1230:1 1235:1 1242:2
1 1119:1 1162:1 1218:1 1222:1 1242:2
1 508:1 910:1 1119:1 1162:1 1218:1 1222:1 1230:1 1235:1 1242:2
1 347:1 508:1 1162:1 1218:1 1224:1 1235:1 1242:5 1244:1
1 1119:1 1162:1 1218:1 1222:1 1242:2
1 508:1 1119:1 1162:1 1218:1 1222:1 1235:1 1242:1
1 1119:1 1162:1 1218:1 1222:1 1242:2
1 347:1 508:1 1119:1 1162:1 1218:1 1222:1 1224:1 1235:1 1242:3
1 178:1 508:1 910:1 1119:1 1162:1 1215:1 1218:1 1222:1 1230:1 1235:1 1242:2
1 166:1 508:1 651:1 820:1 910:1 1117:1 1119:1 1162:1 1218:1 1220:1 1221:1 1222:1 1230:1 1232:1 1235:1 1236:1 1242:2
1 166:1 508:1 651:1 820:1 910:1 1117:1 1119:1 1162:1 1218:1 1220:1 1221:1 1222:1 1230:1 1232:1 1235:1 1236:1 1242:2
1 166:1 508:1 651:1 820:1 910:1 1117:1 1119:1 1162:1 1218:1 1220:1 1221:1 1222:1 1230:1 1232:1 1235:1 1236:1 1242:2
1 910:1 1119:1 1162:1 1218:1 1222:1 1230:1 1242:2
1 508:1 910:1 1119:1 1162:1 1218:1 1222:1 1230:1 1235:1 1242:1
1 508:1 910:1 1119:1 1162:1 1218:1 1222:1 1230:1 1235:1 1242:1
1 166:1 508:1 651:1 820:1 910:1 1117:1 1119:1 1162:1 1218:1 1220:1 1221:1 1222:1 1230:1 1232:1 1235:1 1236:1 1242:2
1 508:1 910:1 1119:1 1162:1 1218:1 1222:1 1230:1 1235:1 1242:2
1 508:1 1119:1 1162:1 1218:1 1222:1 1235:1 1242:2
1 178:1 347:1 508:1 910:1 911:1 1119:1 1162:1 1215:1 1218:1 1222:1 1224:1 1230:1 1231:1 1235:1 1242:2
1 508:1 1162:1 1218:1 1235:1 1242:2
1 910:1 1162:1 1218:1 1230:1 1242:2
1 910:1 1119:1 1162:1 1218:1 1222:1 1230:1 1242:2
1 347:1 910:1 1119:1 1162:1 1218:1 1222:1 1224:1 1230:1 1242:2
1 508:1 910:1 1119:1 1162:1 1218:1 1222:1 1230:1 1235:1 1242:2
1 1119:1 1162:1 1218:1 1222:1 1242:2
1 1119:1 1162:1 1218:1 1222:1 1242:2
1 347:1 508:1 910:1 1119:1 1162:1 1218:1 1222:1 1224:1 1230:1 1235:1 1242:1
1 1162:1 1218:1 1242:3 1244:1
1 1162:1 1218:1 1242:3 1244:1
1 1242:3
1 347:1 508:1 910:1 1119:1 1162:1 1218:1 1222:1 1224:1 1230:1 1235:1 1242:3
1 508:1 1162:1 1218:1 1235:1 1242:3
1 928:1 1240:1 1242:4
1 508:1 1119:1 1162:1 1218:1 1222:1 1235:1 1242:1
1 1242:3
1 347:1 508:1 910:1 1119:1 1162:1 1218:1 1222:1 1224:1 1230:1 1235:1 1242:3
1 178:1 347:1 508:1 910:1 911:1 1119:1 1162:1 1215:1 1218:1 1222:1 1224:1 1230:1 1231:1 1235:1 1242:2
1 508:1 910:1 911:1 1162:1 1218:1 1230:1 1231:1 1235:1 1242:2
1 1162:1 1218:1 1242:3 1244:1
1 508:1 1119:1 1162:1 1218:1 1222:1 1235:1 1242:2
1 1242:3
1 508:1 1119:1 1162:1 1218:1 1222:1 1235:1 1242:2
1 178:1 508:1 911:1 1119:1 1162:1 1215:1 1218:1 1222:1 1231:1 1235:1 1242:2
1 1119:1 1162:1 1218:1 1222:1 1242:2
1 166:1 508:1 651:1 820:1 910:1 1117:1 1119:1 1162:1 1218:1 1220:1 1221:1 1222:1 1230:1 1232:1 1235:1 1236:1 1242:2
1 508:1 1119:1 1162:1 1218:1 1222:1 1235:1 1242:2
1 910:1 911:1 1119:1 1162:1 1218:1 1222:1 1230:1 1231:1 1242:1
1 1119:1 1162:1 1218:1 1222:1 1242:2
1 508:1 1162:1 1218:1 1235:1 1242:1
1 347:1 508:1 910:1 1119:1 1162:1 1218:1 1222:1 1224:1 1230:1 1235:1 1242:2
1 1119:1 1162:1 1218:1 1222:1 1242:2
1 1119:1 1162:1 1218:1 1222:1 1242:2
1 508:1 1119:1 1162:1 1218:1 1222:1 1235:1 1242:2
1 508:1 910:1 911:1 1119:1 1162:1 1218:1 1222:1 1230:1 1231:1 1235:1 1242:2
1 1119:1 1162:1 1218:1 1222:1 1242:1
1 1119:1 1162:1 1218:1 1222:1 1242:2
1 508:1 1119:1 1162:1 1218:1 1222:1 1235:1 1242:1
1 508:1 910:1 1119:1 1162:1 1218:1 1222:1 1230:1 1235:1 1242:2
1 910:1 1162:1 1218:1 1230:1 1242:3 1244:1
1 508:1 1162:1 1218:1 1235:1 1242:2
1 1162:1 1218:1 1242:3
1 508:1 1119:1 1162:1 1218:1 1222:1 1235:1 1242:3
1 347:1 508:1 910:1 1119:1 1162:1 1218:1 1222:1 1224:1 1230:1 1235:1 1242:2
1 911:1 1119:1 1162:1 1218:1 1222:1 1231:1 1242:2
1 1119:1 1162:1 1218:1 1222:1 1242:3
1 508:1 910:1 911:1 1119:1 1162:1 1218:1 1222:1 1230:1 1231:1 1235:1 1242:2
1 508:1 911:1 1119:1 1162:1 1218:1 1222:1 1231:1 1235:1 1242:2
1 508:1 910:1 1119:1 1162:1 1218:1 1222:1 1230:1 1235:1 1242:2
1 1119:1 1162:1 1218:1 1222:1 1242:2
1 508:1 1119:1 1162:1 1218:1 1222:1 1235:1 1242:1
1 910:1 911:1 1119:1 1162:1 1218:1 1222:1 1230:1 1231:1 1242:1
1 1119:1 1162:1 1218:1 1222:1 1242:2
1 166:1 178:1 347:1 508:1 910:1 1119:1 1162:1 1215:1 1218:1 1222:1 1224:1 1230:1 1232:1 1235:1 1242:2
1 508:1 1162:1 1218:1 1235:1 1242:2
1 347:1 508:1 910:1 1119:1 1162:1 1218:1 1222:1 1224:1 1230:1 1235:1 1242:2
1 1119:1 1162:1 1218:1 1222:1 1242:7
1 508:1 910:1 1162:1 1218:1 1230:1 1235:1 1242:2
1 1119:1 1162:1 1218:1 1222:1 1242:2
1 508:1 1162:1 1218:1 1235:1 1242:2
1 178:1 508:1 911:1 1119:1 1162:1 1215:1 1218:1 1222:1 1231:1 1235:1 1242:2
1 508:1 1119:1 1162:1 1218:1 1222:1 1235:1 1242:1
1 178:1 347:1 910:1 1119:1 1162:2 1215:1 1218:2 1222:1 1224:1 1230:1 1242:9
1 1119:1 1162:1 1218:1 1222:1 1242:2
1 166:1 508:1 651:1 820:1 910:1 1117:1 1119:1 1162:1 1218:1 1220:1 1221:1 1222:1 1230:1 1232:1 1235:1 1236:1 1242:2
1 1119:1 1162:1 1218:1 1222:1 1242:2
1 178:1 347:1 1119:1 1162:1 1215:1 1218:1 1222:1 1224:1 1242:2
1 1119:1 1162:1 1218:1 1222:1 1242:2
1 166:1 508:1 651:1 820:1 910:1 1117:1 1119:1 1162:1 1218:1 1220:1 1221:1 1222:1 1230:1 1232:1 1235:1 1236:1 1242:2
1 508:1 1119:1 1162:1 1218:1 1222:1 1235:1 1242:2
1 166:1 508:1 651:1 820:1 910:1 1117:1 1119:1 1162:1 1218:1 1220:1 1221:1 1222:1 1230:1 1232:1 1235:1 1236:1 1242:2
1 508:1 1119:1 1162:1 1218:1 1222:1 1235:1 1242:1
1 347:1 508:1 910:1 1119:1 1162:1 1218:1 1222:1 1224:1 1230:1 1235:1 1242:2
1 166:1 508:1 651:1 820:1 910:1 1117:1 1119:1 1162:1 1218:1 1220:1 1221:1 1222:1 1230:1 1232:1 1235:1 1236:1 1242:2
1 508:1 910:1 1119:1 1162:1 1218:1 1222:1 1230:1 1235:1 1242:1
1 508:1 910:1 1119:1 1162:1 1218:1 1222:1 1230:1 1235:1 1242:2
1 911:1 1119:1 1162:1 1218:1 1222:1 1231:1 1242:1
1 508:1 910:1 1119:1 1162:1 1218:1 1222:1 1230:1 1235:1 1242:3
1 1119:1 1162:1 1218:1 1222:1 1242:2
1 347:1 910:1 911:1 1119:1 1162:1 1218:1 1222:1 1224:1 1230:1 1231:1 1242:2
1 347:1 508:1 1162:1 1218:1 1224:1 1235:1 1242:5 1244:1
1 508:1 910:1 1119:1 1162:1 1218:1 1222:1 1230:1 1235:1 1242:2
1 910:1 1119:1 1162:1 1218:1 1222:1 1230:1 1242:2
1 508:1 910:1 911:1 1119:1 1162:1 1218:1 1222:1 1230:1 1231:1 1235:1 1242:2
1 508:1 910:1 1119:1 1162:1 1218:1 1222:1 1230:1 1235:1 1242:2
1 178:1 347:1 910:1 1119:1 1162:1 1215:1 1218:1 1222:1 1224:1 1230:1 1242:2
1 1162:1 1218:1 1242:3
1 1119:1 1162:1 1218:1 1222:1 1242:1
1 508:1 911:1 1119:1 1162:1 1218:1 1222:1 1231:1 1235:1 1242:2
1 1119:1 1162:1 1218:1 1222:1 1242:2
1 508:1 1119:1 1162:1 1218:1 1222:1 1235:1 1242:2
1 508:1 910:1 1119:1 1162:1 1218:1 1222:1 1230:1 1235:1 1242:2
1 166:1 508:1 651:1 820:1 910:1 1117:1 1119:1 1162:1 1218:1 1220:1 1221:1 1222:1 1230:1 1232:1 1235:1 1236:1 1242:2
1 910:1 1119:1 1162:1 1218:1 1222:1 1230:1 1242:2
1 1119:1 1162:1 1218:1 1222:1 1242:2
1 347:1 911:1 1119:1 1162:1 1218:1 1222:1 1224:1 1231:1 1242:2
1 508:1 1119:1 1162:1 1218:1 1222:1 1235:1 1242:2
1 508:1 910:1 1119:1 1162:1 1218:1 1222:1 1230:1 1235:1 1242:3
1 910:1 1119:1 1162:1 1218:1 1222:1 1230:1 1242:1
1 347:1 910:1 1119:1 1162:1 1218:1 1222:1 1224:1 1230:1 1242:2
1 910:1 1162:1 1218:1 1230:1 1242:2
1 1119:1 1162:1 1218:1 1222:1 1242:2
1 508:1 911:1 1119:1 1162:1 1218:1 1222:1 1231:1 1235:1 1242:2
1 1119:1 1162:1 1218:1 1222:1 1242:2
1 178:1 1119:1 1162:1 1215:1 1218:1 1222:1 1242:2
1 1119:1 1162:1 1218:1 1222:1 1242:2
1 178:1 347:1 508:1 910:1 1119:1 1162:1 1215:1 1218:1 1222:1 1224:1 1230:1 1235:1 1242:1
1 1119:1 1162:1 1218:1 1222:1 1242:2
1 928:1 1240:1 1242:4
1 1119:1 1162:1 1218:1 1222:1 1242:2
1 1242:3
1 508:1 1119:1 1162:1 1218:1 1222:1 1235:1 1242:3
1 178:1 508:1 911:1 1119:1 1162:1 1215:1 1218:1 1222:1 1231:1 1235:1 1242:2
1 1119:1 1162:1 1218:1 1222:1 1242:2
1 178:1 347:1 910:1 1119:1 1162:1 1215:1 1218:1 1222:1 1224:1 1230:1 1242:2
1 508:1 1119:1 1162:1 1218:1 1222:1 1235:1 1242:3
1 911:1 1119:1 1162:1 1218:1 1222:1 1231:1 1242:2
1 1242:3
1 1119:1 1162:1 1218:1 1222:1 1242:1
1 166:1 178:1 347:1 508:1 910:1 1119:1 1162:1 1215:1 1218:1 1222:1 1224:1 1230:1 1232:1 1235:1 1242:3
1 910:1 1119:1 1162:1 1218:1 1222:1 1230:1 1242:2
1 347:1 508:1 910:1 1119:1 1162:1 1218:1 1222:1 1224:1 1230:1 1235:1 1242:2
1 508:1 1119:1 1162:1 1218:1 1222:1 1235:1 1242:2
1 508:1 1119:1 1162:1 1218:1 1222:1 1235:1 1242:2
1 910:1 1119:1 1162:1 1218:1 1222:1 1230:1 1242:1
1 1119:1 1162:1 1218:1 1222:1 1242:1
1 508:1 910:1 911:1 1119:1 1162:1 1218:1 1222:1 1230:1 1231:1 1235:1 1242:2
1 910:1 1162:1 1218:1 1230:1 1242:2
1 1119:1 1162:1 1218:1 1222:1 1242:4
1 1119:1 1162:1 1218:1 1222:1 1242:1
1 347:1 910:1 1119:1 1162:1 1218:1 1222:1 1224:1 1230:1 1242:2
1 928:1 1240:1 1242:3
1 347:1 910:1 1119:1 1162:1 1218:1 1222:1 1224:1 1230:1 1242:2
1 508:1 1119:1 1162:1 1218:1 1222:1 1235:1 1242:2
1 508:1 1119:1 1162:1 1218:1 1222:1 1235:1 1242:1
1 1119:1 1162:1 1218:1 1222:1 1242:2
1 1119:1 1162:1 1218:1 1222:1 1242:2
1 508:1 1162:1 1218:1 1235:1 1242:1
1 178:1 347:1 1119:1 1162:1 1215:1 1218:1 1222:1 1224:1 1242:2
1 347:1 910:1 1119:1 1162:1 1218:1 1222:1 1224:1 1230:1 1242:2
1 508:1 1119:1 1162:1 1218:1 1222:1 1235:1 1242:1
1 910:1 1119:1 1162:1 1218:1 1222:1 1230:1 1242:2
1 508:1 1119:1 1162:1 1218:1 1222:1 1235:1 1242:1
1 508:1 911:1 1119:1 1162:1 1218:1 1222:1 1231:1 1235:1 1242:2
1 347:1 1119:1 1162:1 1218:1 1222:1 1224:1 1242:2
1 1162:1 1218:1 1242:2
1 166:1 508:1 651:1 820:1 910:1 1117:1 1119:1 1162:1 1218:1 1220:1 1221:1 1222:1 1230:1 1232:1 1235:1 1236:1 1242:2
1 508:1 1119:1 1162:1 1218:1 1222:1 1235:1 1242:2
1 910:1 1162:1 1218:1 1230:1 1242:2
1 1119:1 1162:1 1218:1 1222:1 1242:1
1 166:1 508:1 651:1 820:1 910:1 1117:1 1119:1 1162:1 1218:1 1220:1 1221:1 1222:1 1230:1 1232:1 1235:1 1236:1 1242:2
1 508:1 910:1 1119:1 1162:1 1218:1 1222:1 1230:1 1235:1 1242:2
1 508:1 1119:1 1162:1 1218:1 1222:1 1235:1 1242:3
1 928:1 1240:1 1242:4
1 166:1 508:1 651:1 820:1 910:1 1117:1 1119:1 1162:1 1218:1 1220:1 1221:1 1222:1 1230:1 1232:1 1235:1 1236:1 1242:2
1 1119:1 1162:1 1218:1 1222:1 1242:2
1 910:1 1119:1 1162:1 1218:1 1222:1 1230:1 1242:3
1 1119:1 1162:1 1218:1 1222:1 1242:2
1 1119:1 1162:1 1218:1 1222:1 1242:2
1 166:1 508:1 651:1 820:1 910:1 1117:1 1119:1 1162:1 1218:1 1220:1 1221:1 1222:1 1230:1 1232:1 1235:1 1236:1 1242:2
1 508:1 1119:1 1162:1 1218:1 1222:1 1235:1 1242:3
1 910:1 970:1 1119:1 1162:1 1218:1 1222:1 1225:1 1230:1 1242:1
1 178:1 347:1 910:1 1119:1 1162:1 1215:1 1218:1 1222:1 1224:1 1230:1 1242:2
1 1119:1 1162:1 1218:1 1222:1 1242:1
1 1119:1 1162:1 1218:1 1222:1 1242:2
1 1119:1 1162:1 1218:1 1222:1 1242:2
1 178:1 347:1 508:1 910:1 1119:1 1162:1 1215:1 1218:1 1222:1 1224:1 1230:1 1235:1 1242:1
1 508:1 1162:1 1218:1 1235:1 1242:2
1 1119:1 1162:1 1218:1 1222:1 1242:2
1 910:1 1119:1 1162:1 1218:1 1222:1 1230:1 1242:2
1 910:1 1119:1 1162:1 1218:1 1222:1 1230:1 1242:2
1 347:1 910:1 1119:1 1162:1 1218:1 1222:1 1224:1 1230:1 1242:2
1 166:1 508:1 651:1 820:1 910:1 1117:1 1119:1 1162:1 1218:1 1220:1 1221:1 1222:1 1230:1 1232:1 1235:1 1236:1 1242:2
1 911:1 1119:1 1162:1 1218:1 1222:1 1231:1 1242:2
1 166:1 508:1 651:1 820:1 910:1 1117:1 1119:1 1162:1 1218:1 1220:1 1221:1 1222:1 1230:1 1232:1 1235:1 1236:1 1242:2
1 508:1 1119:1 1162:1 1218:1 1222:1 1235:1 1242:1
1 166:1 508:1 651:1 820:1 910:1 1117:1 1119:1 1162:1 1218:1 1220:1 1221:1 1222:1 1230:1 1232:1 1235:1 1236:1 1242:2
1 166:1 508:1 651:1 820:1 910:1 1117:1 1119:1 1162:1 1218:1 1220:1 1221:1 1222:1 1230:1 1232:1 1235:1 1236:1 1242:2
1 1119:1 1162:1 1218:1 1222:1 1242:2
1 347:1 1119:1 1162:1 1218:1 1222:1 1224:1 1242:1
1 1119:1 1162:1 1218:1 1222:1 1242:2
1 928:1 1240:1 1242:4
1 508:1 911:1 1162:1 1218:1 1231:1 1235:1 1242:2
1 508:1 910:1 911:1 1119:1 1162:1 1218:1 1222:1 1230:1 1231:1 1235:1 1242:2
1 1162:1 1218:1 1242:2
1 910:1 1119:1 1162:1 1218:1 1222:1 1230:1 1242:1
1 1119:1 1162:1 1218:1 1222:1 1242:2
1 508:1 1119:1 1162:1 1218:1 1222:1 1235:1 1242:2
1 178:1 910:1 1119:1 1162:1 1215:1 1218:1 1222:1 1230:1 1242:2
1 1162:1 1218:1 1242:3
1 1119:1 1162:1 1218:1 1222:1 1242:2
1 1119:1 1162:1 1218:1 1222:1 1242:2
1 1119:1 1162:1 1218:1 1222:1 1242:2
1 178:1 508:1 910:1 1119:1 1162:1 1215:1 1218:1 1222:1 1230:1 1235:1 1242:2
1 508:1 1162:1 1218:1 1235:1 1242:2
1 910:1 1119:1 1162:1 1218:1 1222:1 1230:1 1242:1
1 1119:1 1162:1 1218:1 1222:1 1242:3
1 508:1 1162:1 1218:1 1235:1 1242:2
1 347:1 508:1 910:1 1119:1 1162:1 1218:1 1222:1 1224:1 1230:1 1235:1 1242:2
1 178:1 347:1 1119:1 1162:1 1215:1 1218:1 1222:1 1224:1 1242:2
1 508:1 1119:1 1162:1 1218:1 1222:1 1235:1 1242:1
1 347:1 910:1 1119:1 1162:1 1218:1 1222:1 1224:1 1230:1 1242:2
1 347:1 910:1 911:1 1119:1 1162:1 1218:1 1222:1 1224:1 1230:1 1231:1 1242:2
1 1119:1 1162:1 1218:1 1222:1 1242:2
1 1119:1 1162:1 1218:1 1222:1 1242:2
1 508:1 910:1 1119:1 1162:1 1218:1 1222:1 1230:1 1235:1 1242:1
1 911:1 1119:1 1162:1 1218:1 1222:1 1231:1 1242:2
1 1119:1 1162:1 1218:1 1222:1 1242:1
1 508:1 1119:1 1162:1 1218:1 1222:1 1235:1 1242:1
1 1119:1 1162:1 1218:1 1222:1 1242:2
1 508:1 1119:1 1162:1 1218:1 1222:1 1235:1 1242:1
1 1119:1 1162:1 1218:1 1222:1 1242:2
1 508:1 910:1 1162:1 1218:1 1230:1 1235:1 1242:2
1 1162:1 1218:1 1242:3
1 508:1 910:1 1119:1 1162:1 1218:1 1222:1 1230:1 1235:1 1242:2
1 166:1 508:1 651:1 820:1 910:1 1117:1 1119:1 1162:1 1218:1 1220:1 1221:1 1222:1 1230:1 1232:1 1235:1 1236:1 1242:2
1 178:1 347:1 508:1 910:1 911:1 1119:1 1162:1 1215:1 1218:1 1222:1 1224:1 1230:1 1231:1 1235:1 1242:2
1 1119:1 1162:1 1218:1 1222:1 1242:3
1 508:1 1119:1 1162:1 1218:1 1222:1 1235:1 1242:2
1 508:1 1119:1 1162:1 1218:1 1222:1 1235:1 1242:2
1 178:1 508:1 1119:1 1162:1 1215:1 1218:1 1222:1 1235:1 1242:1
1 166:1 508:1 651:1 820:1 910:1 1117:1 1119:1 1162:1 1218:1 1220:1 1221:1 1222:1 1230:1 1232:1 1235:1 1236:1 1242:2
1 508:1 910:1 1119:1 1162:1 1218:1 1222:1 1230:1 1235:1 1242:1
1 166:1 508:1 651:1 820:1 910:1 1117:1 1119:1 1162:1 1218:1 1220:1 1221:1 1222:1 1230:1 1232:1 1235:1 1236:1 1242:2
1 508:1 1119:1 1162:1 1218:1 1222:1 1235:1 1242:2
1 508:1 911:1 970:1 1119:1 1162:1 1218:1 1222:1 1225:1 1231:1 1235:1 1242:3
1 910:1 1119:1 1162:1 1218:1 1222:1 1230:1 1242:2
1 1162:1 1218:1 1242:2
1 347:1 508:1 910:1 1119:1 1162:1 1218:1 1222:1 1224:1 1230:1 1235:1 1242:2
1 508:1 910:1 1119:1 1162:1 1218:1 1222:1 1230:1 1235:1 1242:2
1 508:1 910:1 1119:1 1162:1 1218:1 1222:1 1230:1 1235:1 1242:2
1 508:1 1119:1 1162:1 1218:1 1222:1 1235:1 1242:1
1 910:1 1119:1 1162:1 1218:1 1222:1 1230:1 1242:2
1 347:1 910:1 1119:1 1162:1 1218:1 1222:1 1224:1 1230:1 1242:2
1 1119:1 1162:1 1218:1 1222:1 1242:2
1 166:1 508:1 651:1 820:1 910:1 1117:1 1119:1 1162:1 1218:1 1220:1 1221:1 1222:1 1230:1 1232:1 1235:1 1236:1 1242:2
1 347:1 910:1 911:1 1119:1 1162:1 1218:1 1222:1 1224:1 1230:1 1231:1 1242:2
1 928:1 1240:1 1242:4
1 508:1 910:1 1162:1 1218:1 1230:1 1235:1 1242:2
1 1119:1 1162:1 1218:1 1222:1 1242:2
1 508:1 1119:1 1162:1 1218:1 1222:1 1235:1 1242:2
1 166:1 508:1 651:1 820:1 910:1 1117:1 1119:1 1162:1 1218:1 1220:1 1221:1 1222:1 1230:1 1232:1 1235:1 1236:1 1242:2
1 166:1 508:1 651:1 820:1 910:1 1117:1 1119:1 1162:1 1218:1 1220:1 1221:1 1222:1 1230:1 1232:1 1235:1 1236:1 1242:2
1 508:1 911:1 1119:1 1162:1 1218:1 1222:1 1231:1 1235:1 1242:1
1 347:1 910:1 1119:1 1162:1 1218:1 1222:1 1224:1 1230:1 1242:2
1 347:1 910:1 1119:1 1162:1 1218:1 1222:1 1224:1 1230:1 1242:2
1 910:1 1119:1 1162:1 1218:1 1222:1 1230:1 1242:2
1 1119:1 1162:1 1218:1 1222:1 1242:2
1 178:1 508:1 1119:1 1162:1 1215:1 1218:1 1222:1 1235:1 1242:1
1 508:1 910:1 1119:1 1162:1 1218:1 1222:1 1230:1 1235:1 1242:2
1 1119:1 1162:1 1218:1 1222:1 1242:2
1 178:1 347:1 508:1 910:1 911:1 1119:1 1162:1 1215:1 1218:1 1222:1 1224:1 1230:1 1231:1 1235:1 1242:1
1 347:1 910:1 911:1 1119:1 1162:1 1218:1 1222:1 1224:1 1230:1 1231:1 1242:1
1 508:1 1119:1 1162:1 1218:1 1222:1 1235:1 1242:2
1 1119:1 1162:1 1218:1 1222:1 1242:2
1 508:1 910:1 911:1 1119:1 1162:1 1218:1 1222:1 1230:1 1231:1 1235:1 1242:2
1 1242:3
1 178:1 508:1 1119:1 1162:1 1215:1 1218:1 1222:1 1235:1 1242:2
1 508:1 1119:1 1162:1 1218:1 1222:1 1235:1 1242:1
1 508:1 910:1 911:1 1119:1 1162:1 1218:1 1222:1 1230:1 1231:1 1235:1 1242:2
1 508:1 911:1 970:1 1119:1 1162:1 1218:1 1222:1 1225:1 1231:1 1235:1 1242:3
1 508:1 1119:1 1162:1 1218:1 1222:1 1235:1 1242:1
1 910:1 1119:1 1162:1 1218:1 1222:1 1230:1 1242:2
1 910:1 1119:1 1162:1 1218:1 1222:1 1230:1 1242:3
1 910:1 1119:1 1162:1 1218:1 1222:1 1230:1 1242:3
1 347:1 910:1 1119:1 1162:1 1218:1 1222:1 1224:1 1230:1 1242:2
1 347:1 508:1 910:1 1119:1 1162:1 1218:1 1222:1 1224:1 1230:1 1235:1 1242:2
1 166:1 508:1 651:1 820:1 910:1 1117:1 1119:1 1162:1 1218:1 1220:1 1221:1 1222:1 1230:1 1232:1 1235:1 1236:1 1242:2
1 178:1 347:1 508:1 910:1 911:1 970:1 1119:1 1162:1 1215:1 1218:1 1222:1 1224:1 1225:1 1230:1 1231:1 1235:1 1242:2
1 347:1 508:1 1119:1 1162:1 1218:1 1222:1 1224:1 1235:1 1242:2
1 508:1 1162:1 1218:1 1235:1 1242:3
1 910:1 1119:1 1162:1 1218:1 1222:1 1230:1 1242:2
1 347:1 910:1 1119:1 1162:1 1218:1 1222:1 1224:1 1230:1 1242:2
1 1119:1 1162:1 1218:1 1222:1 1242:2
1 166:1 508:1 651:1 820:1 910:1 1117:1 1119:1 1162:1 1218:1 1220:1 1221:1 1222:1 1230:1 1232:1 1235:1 1236:1 1242:2
1 910:1 1119:1 1162:1 1218:1 1222:1 1230:1 1242:2
1 910:1 1119:1 1162:1 1218:1 1222:1 1230:1 1242:2
1 508:1 911:1 1119:1 1162:1 1218:1 1222:1 1231:1 1235:1 1242:1
1 1119:1 1162:1 1218:1 1222:1 1242:2
1 1119:1 1162:1 1218:1 1222:1 1242:2
1 178:1 347:1 508:1 910:1 911:1 1119:1 1162:1 1215:1 1218:1 1222:1 1224:1 1230:1 1231:1 1235:1 1242:2
1 910:1 1119:1 1162:1 1218:1 1222:1 1230:1 1242:2
1 1119:1 1162:1 1218:1 1222:1 1242:1
1 508:1 1162:1 1218:1 1235:1 1242:2
1 910:1 911:1 1119:1 1162:1 1218:1 1222:1 1230:1 1231:1 1242:2
1 910:1 1119:1 1162:1 1218:1 1222:1 1230:1 1242:1
1 347:1 910:1 1119:1 1162:1 1218:1 1222:1 1224:1 1230:1 1242:1
1 1119:1 1162:1 1218:1 1222:1 1242:2
1 508:1 1162:1 1218:1 1235:1 1242:2
1 347:1 910:1 911:1 1119:1 1162:1 1218:1 1222:1 1224:1 1230:1 1231:1 1242:2
1 910:1 1119:1 1162:1 1218:1 1222:1 1230:1 1242:2
1 928:1 1240:1 1242:4
1 1119:1 1162:1 1218:1 1222:1 1242:2
1 166:1 508:1 651:1 820:1 910:1 1117:1 1119:1 1162:1 1218:1 1220:1 1221:1 1222:1 1230:1 1232:1 1235:1 1236:1 1242:2
1 508:1 911:1 1119:1 1162:1 1218:1 1222:1 1231:1 1235:1 1242:2
1 1119:1 1162:1 1218:1 1222:1 1242:2
1 178:1 347:1 508:1 910:1 1119:1 1162:1 1215:1 1218:1 1222:1 1224:1 1230:1 1235:1 1242:1
1 1119:1 1162:1 1218:1 1222:1 1242:2
1 1119:1 1162:1 1218:1 1222:1 1242:2
1 508:1 1119:1 1162:1 1218:1 1222:1 1235:1 1242:2
1 508:1 910:1 1119:1 1162:1 1218:1 1222:1 1230:1 1235:1 1242:2
1 928:1 1240:1 1242:4
1 178:1 910:1 1119:1 1162:1 1215:1 1218:1 1222:1 1230:1 1242:2
1 911:1 1119:1 1162:1 1218:1 1222:1 1231:1 1242:1
1 166:1 508:1 651:1 820:1 910:1 1117:1 1119:1 1162:1 1218:1 1220:1 1221:1 1222:1 1230:1 1232:1 1235:1 1236:1 1242:2
1 166:1 508:1 651:1 820:1 910:1 1117:1 1119:1 1162:1 1218:1 1220:1 1221:1 1222:1 1230:1 1232:1 1235:1 1236:1 1242:2
1 508:1 1162:1 1218:1 1235:1 1242:2
1 1119:1 1162:1 1218:1 1222:1 1242:2
1 1119:1 1162:1 1218:1 1222:1 1242:2
1 166:1 508:1 651:1 820:1 910:1 1117:1 1119:1 1162:1 1218:1 1220:1 1221:1 1222:1 1230:1 1232:1 1235:1 1236:1 1242:2
1 166:1 508:1 651:1 820:1 910:1 1117:1 1119:1 1162:1 1218:1 1220:1 1221:1 1222:1 1230:1 1232:1 1235:1 1236:1 1242:2
1 1162:1 1218:1 1242:2
1 1119:1 1162:1 1218:1 1222:1 1242:2
1 1119:1 1162:1 1218:1 1222:1 1242:2
1 347:1 508:1 910:1 1119:1 1162:1 1218:1 1222:1 1224:1 1230:1 1235:1 1242:2
1 347:1 508:1 1162:1 1218:1 1224:1 1235:1 1242:2
1 166:1 508:1 651:1 820:1 910:1 1117:1 1119:1 1162:1 1218:1 1220:1 1221:1 1222:1 1230:1 1232:1 1235:1 1236:1 1242:2
1 928:1 1240:1 1242:2
1 1119:1 1162:1 1218:1 1222:1 1242:1
1 178:1 347:1 508:1 910:1 911:1 1119:1 1162:1 1215:1 1218:1 1222:1 1224:1 1230:1 1231:1 1235:1 1242:2
1 166:1 508:1 651:1 820:1 910:1 1117:1 1119:1 1162:1 1218:1 1220:1 1221:1 1222:1 1230:1 1232:1 1235:1 1236:1 1242:2
1 166:1 508:1 651:1 820:1 910:1 1117:1 1119:1 1162:1 1218:1 1220:1 1221:1 1222:1 1230:1 1232:1 1235:1 1236:1 1242:2
1 1119:1 1162:1 1218:1 1222:1 1242:2
1 910:1 1119:1 1162:1 1218:1 1222:1 1230:1 1242:3
1 1119:1 1162:1 1218:1 1222:1 1242:3
1 911:1 1162:1 1218:1 1231:1 1242:2
1 508:1 1119:1 1162:1 1218:1 1222:1 1235:1 1242:1
1 911:1 1119:1 1162:1 1218:1 1222:1 1231:1 1242:1
1 1242:3
1 508:1 911:1 970:1 1119:1 1162:1 1218:1 1222:1 1225:1 1231:1 1235:1 1242:3
1 508:1 1119:1 1162:1 1218:1 1222:1 1235:1 1242:2
1 178:1 508:1 910:1 911:1 1119:1 1162:1 1215:1 1218:1 1222:1 1230:1 1231:1 1235:1 1242:2
1 178:1 508:1 911:1 1119:1 1162:1 1215:1 1218:1 1222:1 1231:1 1235:1 1242:2
1 347:1 508:1 910:1 1119:1 1162:1 1218:1 1222:1 1224:1 1230:1 1235:1 1242:1
1 508:1 910:1 1119:1 1162:1 1218:1 1222:1 1230:1 1235:1 1242:2
1 347:1 910:1 1119:1 1162:1 1218:1 1222:1 1224:1 1230:1 1242:2
1 910:1 1119:1 1162:1 1218:1 1222:1 1230:1 1242:2
1 166:1 508:1 651:1 820:1 910:1 1117:1 1119:1 1162:1 1218:1 1220:1 1221:1 1222:1 1230:1 1232:1 1235:1 1236:1 1242:2
1 178:1 910:1 1119:1 1162:1 1215:1 1218:1 1222:1 1230:1 1242:2
1 1119:1 1162:1 1218:1 1222:1 1242:2
1 347:1 508:1 910:1 1119:1 1162:1 1218:1 1222:1 1224:1 1230:1 1235:1 1242:2
1 928:1 1240:1 1242:4
1 508:1 1119:1 1162:1 1218:1 1222:1 1235:1 1242:2
1 508:1 1119:1 1162:1 1218:1 1222:1 1235:1 1242:2
1 1119:1 1162:1 1218:1 1222:1 1242:2
1 508:1 1119:1 1162:1 1218:1 1222:1 1235:1 1242:2
1 178:1 1117:1 1162:1 1215:1 1218:1 1221:1 1242:4
1 910:1 1119:1 1162:1 1218:1 1222:1 1230:1 1242:3
1 1119:1 1162:1 1218:1 1222:1 1242:2
1 508:1 911:1 1162:1 1218:1 1231:1 1235:1 1242:1
1 1162:1 1218:1 1242:3 1244:1
1 347:1 910:1 1119:1 1162:1 1218:1 1222:1 1224:1 1230:1 1242:2
1 1119:1 1162:1 1218:1 1222:1 1242:2
1 508:1 1119:1 1162:1 1218:1 1222:1 1235:1 1242:1
1 1119:1 1162:1 1218:1 1222:1 1242:2
1 508:1 1119:1 1162:1 1218:1 1222:1 1235:1 1242:2
1 347:1 508:1 910:1 1119:1 1162:1 1218:1 1222:1 1224:1 1230:1 1235:1 1242:3
1 347:1 910:1 1119:1 1162:1 1218:1 1222:1 1224:1 1230:1 1242:3
1 508:1 1119:1 1162:1 1218:1 1222:1 1235:1 1242:2
1 508:1 1162:1 1218:1 1235:1 1242:2
1 508:1 1162:1 1218:1 1235:1 1242:2
1 508:1 1162:1 1218:1 1235:1 1242:2
1 910:1 1119:1 1162:1 1218:1 1222:1 1230:1 1242:2
1 910:1 1119:1 1162:1 1218:1 1222:1 1230:1 1242:2
1 1119:1 1162:1 1218:1 1222:1 1242:2
1 1162:1 1218:1 1242:3
1 347:1 910:1 1119:1 1162:1 1218:1 1222:1 1224:1 1230:1 1242:2
1 347:1 910:1 911:1 1119:1 1162:1 1218:1 1222:1 1224:1 1230:1 1231:1 1242:1
1 1119:1 1162:1 1218:1 1222:1 1242:1
1 347:1 508:1 910:1 1119:1 1162:1 1218:1 1222:1 1224:1 1230:1 1235:1 1242:2
1 910:1 1119:1 1162:1 1218:1 1222:1 1230:1 1242:2
1 910:1 1162:1 1218:1 1230:1 1242:2
1 508:1 1119:1 1162:1 1218:1 1222:1 1235:1 1242:2
1 347:1 910:1 1119:1 1162:1 1218:1 1222:1 1224:1 1230:1 1242:2
1 508:1 1119:1 1162:1 1218:1 1222:1 1235:1 1242:3
1 508:1 911:1 970:1 1119:1 1162:1 1218:1 1222:1 1225:1 1231:1 1235:1 1242:3
1 178:1 347:1 1119:1 1162:1 1215:1 1218:1 1222:1 1224:1 1242:2
1 166:1 508:1 651:1 820:1 910:1 1117:1 1119:1 1162:1 1218:1 1220:1 1221:1 1222:1 1230:1 1232:1 1235:1 1236:1 1242:2
1 1119:1 1162:1 1218:1 1222:1 1242:2
1 508:1 1119:1 1162:1 1218:1 1222:1 1235:1 1242:1
1 166:1 508:1 651:1 820:1 910:1 1117:1 1119:1 1162:1 1218:1 1220:1 1221:1 1222:1 1230:1 1232:1 1235:1 1236:1 1242:2
1 1119:1 1162:1 1218:1 1222:1 1242:2
1 166:1 508:1 651:1 820:1 910:1 1117:1 1119:1 1162:1 1218:1 1220:1 1221:1 1222:1 1230:1 1232:1 1235:1 1236:1 1242:2
1 1119:1 1162:1 1218:1 1222:1 1242:1
1 910:1 1162:1 1218:1 1230:1 1242:1
1 166:1 178:1 347:1 508:1 910:1 1119:1 1162:1 1215:1 1218:1 1222:1 1224:1 1230:1 1232:1 1235:1 1242:2
1 1119:1 1162:1 1218:1 1222:1 1242:1
1 1119:1 1162:1 1218:1 1222:1 1242:2
1 178:1 347:1 910:1 1119:1 1162:1 1215:1 1218:1 1222:1 1224:1 1230:1 1242:2
1 508:1 1162:1 1218:1 1235:1 1242:2
1 1119:1 1162:1 1218:1 1222:1 1242:2
1 910:1 911:1 1119:1 1162:1 1218:1 1222:1 1230:1 1231:1 1242:1
1 1119:1 1162:1 1218:1 1222:1 1242:2
1 928:1 1240:1 1242:5
1 910:1 1119:1 1162:1 1218:1 1222:1 1230:1 1242:2
1 178:1 347:1 508:1 910:1 1119:1 1162:1 1215:1 1218:1 1222:1 1224:1 1230:1 1235:1 1242:1
1 1119:1 1162:1 1218:1 1222:1 1242:2
1 1119:1 1162:1 1218:1 1222:1 1242:2
1 910:1 1119:1 1162:1 1218:1 1222:1 1230:1 1242:1
1 508:1 1162:1 1218:1 1235:1 1242:2
1 347:1 910:1 1119:1 1162:1 1218:1 1222:1 1224:1 1230:1 1242:2
1 508:1 910:1 1119:1 1162:1 1218:1 1222:1 1230:1 1235:1 1242:3
1 178:1 347:1 508:1 910:1 911:1 1119:1 1162:1 1215:1 1218:1 1222:1 1224:1 1230:1 1231:1 1235:1 1242:1
1 910:1 1119:1 1162:1 1218:1 1222:1 1230:1 1242:2
1 347:1 910:1 1119:1 1162:1 1218:1 1222:1 1224:1 1230:1 1242:2
1 910:1 1119:1 1162:1 1218:1 1222:1 1230:1 1242:2
1 347:1 508:1 910:1 1119:1 1162:1 1218:1 1222:1 1224:1 1230:1 1235:1 1242:3
1 1119:1 1162:1 1218:1 1222:1 1242:2
1 508:1 910:1 1119:1 1162:1 1218:1 1222:1 1230:1 1235:1 1242:2
1 508:1 1119:1 1162:1 1218:1 1222:1 1235:1 1242:1
1 1119:1 1162:1 1218:1 1222:1 1242:1
1 508:1 911:1 970:1 1119:1 1162:1 1218:1 1222:1 1225:1 1231:1 1235:1 1242:3
1 347:1 508:1 910:1 1119:1 1162:1 1218:1 1222:1 1224:1 1230:1 1235:1 1242:3
1 508:1 1119:1 1162:1 1218:1 1222:1 1235:1 1242:2
1 166:1 508:1 651:1 820:1 910:1 1117:1 1119:1 1162:1 1218:1 1220:1 1221:1 1222:1 1230:1 1232:1 1235:1 1236:1 1242:2
1 347:1 508:1 910:1 1119:1 1162:1 1218:1 1222:1 1224:1 1230:1 1235:1 1242:2
1 910:1 1162:1 1218:1 1230:1 1242:2
1 1119:1 1162:1 1218:1 1222:1 1242:2
1 178:1 347:1 1119:1 1162:1 1215:1 1218:1 1222:1 1224:1 1242:2
1 166:1 508:1 651:1 820:1 910:1 1117:1 1119:1 1162:1 1218:1 1220:1 1221:1 1222:1 1230:1 1232:1 1235:1 1236:1 1242:2
1 166:1 508:1 651:1 820:1 910:1 1117:1 1119:1 1162:1 1218:1 1220:1 1221:1 1222:1 1230:1 1232:1 1235:1 1236:1 1242:2
1 508:1 910:1 911:1 1119:1 1162:1 1218:1 1222:1 1230:1 1231:1 1235:1 1242:2
1 910:1 1119:1 1162:1 1218:1 1222:1 1230:1 1242:2
1 178:1 347:1 1119:1 1162:1 1215:1 1218:1 1222:1 1224:1 1242:2
1 910:1 1119:1 1162:1 1218:1 1222:1 1230:1 1242:1
1 178:1 347:1 508:1 910:1 1119:1 1162:1 1215:1 1218:1 1222:1 1224:1 1230:1 1235:1 1242:2
1 178:1 910:1 1119:1 1162:1 1215:1 1218:1 1222:1 1230:1 1242:2
1 508:1 910:1 1119:1 1162:1 1218:1 1222:1 1230:1 1235:1 1242:2
1 910:1 911:1 1119:1 1162:1 1218:1 1222:1 1230:1 1231:1 1242:2
1 910:1 1119:1 1162:1 1218:1 1222:1 1230:1 1242:1
1 910:1 1119:1 1162:1 1218:1 1222:1 1230:1 1242:2
1 347:1 508:1 910:1 911:1 1162:1 1218:1 1224:1 1230:1 1231:1 1235:1 1242:1
1 1119:1 1162:1 1218:1 1222:1 1242:2
1 1162:1 1218:1 1242:3
1 166:1 508:1 651:1 820:1 910:1 1117:1 1119:1 1162:1 1218:1 1220:1 1221:1 1222:1 1230:1 1232:1 1235:1 1236:1 1242:2
1 508:1 910:1 1162:1 1218:1 1230:1 1235:1 1242:2
1 166:1 508:1 651:1 820:1 910:1 1117:1 1119:1 1162:1 1218:1 1220:1 1221:1 1222:1 1230:1 1232:1 1235:1 1236:1 1242:2
1 508:1 1119:1 1162:1 1218:1 1222:1 1235:1 1242:2
1 508:1 1119:1 1162:1 1218:1 1222:1 1235:1 1242:1
1 178:1 508:1 1119:1 1162:1 1215:1 1218:1 1222:1 1235:1 1242:2
1 508:1 1119:1 1162:1 1218:1 1222:1 1235:1 1242:1
1 910:1 1119:1 1162:1 1218:1 1222:1 1230:1 1242:2
1 178:1 508:1 911:1 1119:1 1162:1 1215:1 1218:1 1222:1 1231:1 1235:1 1242:2
1 910:1 1119:1 1162:1 1218:1 1222:1 1230:1 1242:2
1 508:1 1119:1 1162:1 1218:1 1222:1 1235:1 1242:1
1 508:1 910:1 1119:1 1162:1 1218:1 1222:1 1230:1 1235:1 1242:2
1 910:1 1119:1 1162:1 1218:1 1222:1 1230:1 1242:2
1 508:1 910:1 1119:1 1162:1 1218:1 1222:1 1230:1 1235:1 1242:2
1 508:1 910:1 1119:1 1162:1 1218:1 1222:1 1230:1 1235:1 1242:1
1 508:1 1119:1 1162:1 1218:1 1222:1 1235:1 1242:2
1 508:1 911:1 1119:1 1162:1 1218:1 1222:1 1231:1 1235:1 1242:2
1 910:1 1119:1 1162:1 1218:1 1222:1 1230:1 1242:2
1 166:1 508:1 651:1 820:1 910:1 1117:1 1119:1 1162:1 1218:1 1220:1 1221:1 1222:1 1230:1 1232:1 1235:1 1236:1 1242:2
1 178:1 508:1 911:1 1119:1 1162:1 1215:1 1218:1 1222:1 1231:1 1235:1 1242:2
1 1119:1 1162:1 1218:1 1222:1 1242:2
1 347:1 508:1 910:1 911:1 1162:1 1218:1 1224:1 1230:1 1231:1 1235:1 1242:2
1 347:1 508:1 910:1 1119:1 1162:1 1218:1 1222:1 1224:1 1230:1 1235:1 1242:1
1 508:1 1119:1 1162:1 1218:1 1222:1 1235:1 1242:2
1 1119:1 1162:1 1218:1 1222:1 1242:3
1 166:1 508:1 651:1 820:1 910:1 1117:1 1119:1 1162:1 1218:1 1220:1 1221:1 1222:1 1230:1 1232:1 1235:1 1236:1 1242:2
1 178:1 347:1 508:1 910:1 1119:1 1162:1 1215:1 1218:1 1222:1 1224:1 1230:1 1235:1 1242:2
1 928:1 1240:1 1242:3
1 347:1 508:1 910:1 1119:1 1162:1 1218:1 1222:1 1224:1 1230:1 1235:1 1242:2
1 178:1 508:1 910:1 1119:1 1162:1 1215:1 1218:1 1222:1 1230:1 1235:1 1242:2
1 910:1 1119:1 1162:1 1218:1 1222:1 1230:1 1242:2
1 910:1 1162:1 1218:1 1230:1 1242:3
1 1119:1 1162:1 1218:1 1222:1 1242:2
1 928:1 1240:1 1242:3
1 910:1 1119:1 1162:1 1218:1 1222:1 1230:1 1242:2
1 508:1 1119:1 1162:1 1218:1 1222:1 1235:1 1242:1
1 1119:1 1162:1 1218:1 1222:1 1242:2
1 166:1 508:1 651:1 820:1 910:1 1117:1 1119:1 1162:1 1218:1 1220:1 1221:1 1222:1 1230:1 1232:1 1235:1 1236:1 1242:2
1 910:1 1119:1 1162:1 1218:1 1222:1 1230:1 1242:2
1 1119:1 1162:1 1218:1 1222:1 1242:2
1 1119:1 1162:1 1218:1 1222:1 1242:2
1 508:1 911:1 1119:1 1162:1 1218:1 1222:1 1231:1 1235:1 1242:2
1 347:1 910:1 1119:1 1162:1 1218:1 1222:1 1224:1 1230:1 1242:2
1 970:1 1119:1 1162:1 1218:1 1222:1 1225:1 1242:2
1 508:1 910:1 1119:1 1162:1 1218:1 1222:1 1230:1 1235:1 1242:2
1 1119:1 1162:1 1218:1 1222:1 1242:2
1 910:1 1119:1 1162:1 1218:1 1222:1 1230:1 1242:3
1 508:1 910:1 1119:1 1162:1 1218:1 1222:1 1230:1 1235:1 1242:3
1 1119:1 1162:1 1218:1 1222:1 1242:2
1 508:1 910:1 1119:1 1162:1 1218:1 1222:1 1230:1 1235:1 1242:2
1 508:1 1162:1 1218:1 1235:1 1242:2
1 1119:1 1162:1 1218:1 1222:1 1242:2
1 508:1 910:1 1119:1 1162:1 1218:1 1222:1 1230:1 1235:1 1242:2
1 347:1 508:1 910:1 1119:1 1162:1 1218:1 1222:1 1224:1 1230:1 1235:1 1242:2
1 1242:2
1 1162:1 1218:1 1242:3 1244:1
1 910:1 1119:1 1162:1 1218:1 1222:1 1230:1 1242:2
1 508:1 1119:1 1162:1 1218:1 1222:1 1235:1 1242:2
1 166:1 508:1 651:1 820:1 910:1 1117:1 1119:1 1162:1 1218:1 1220:1 1221:1 1222:1 1230:1 1232:1 1235:1 1236:1 1242:2
1 1119:1 1162:1 1218:1 1222:1 1242:3
1 508:1 910:1 911:1 1119:1 1162:1 1218:1 1222:1 1230:1 1231:1 1235:1 1242:2
1 508:1 910:1 1119:1 1162:1 1218:1 1222:1 1230:1 1235:1 1242:2
1 1119:1 1162:1 1218:1 1222:1 1242:2
1 910:1 1119:1 1162:1 1218:1 1222:1 1230:1 1242:2
1 1242:3
1 166:1 508:1 651:1 820:1 910:1 1117:1 1119:1 1162:1 1218:1 1220:1 1221:1 1222:1 1230:1 1232:1 1235:1 1236:1 1242:2
1 1119:1 1162:1 1218:1 1222:1 1242:1
1 508:1 1162:1 1218:1 1235:1 1242:2
1 508:1 1119:1 1162:1 1218:1 1222:1 1235:1 1242:2
1 166:1 508:1 651:1 820:1 910:1 1117:1 1119:1 1162:1 1218:1 1220:1 1221:1 1222:1 1230:1 1232:1 1235:1 1236:1 1242:2
1 508:1 910:1 911:1 1119:1 1162:1 1218:1 1222:1 1230:1 1231:1 1235:1 1242:2
1 508:1 910:1 911:1 1119:1 1162:1 1218:1 1222:1 1230:1 1231:1 1235:1 1242:2
1 508:1 911:1 1162:1 1218:1 1231:1 1235:1 1242:1
1 910:1 1119:1 1162:1 1218:1 1222:1 1230:1 1242:2
1 910:1 1119:1 1162:1 1218:1 1222:1 1230:1 1242:2
1 508:1 1119:1 1162:1 1218:1 1222:1 1235:1 1242:1
1 508:1 1119:1 1162:1 1218:1 1222:1 1235:1 1242:2
1 178:1 508:1 1119:1 1162:1 1215:1 1218:1 1222:1 1235:1 1242:2
1 1119:1 1162:1 1218:1 1222:1 1242:2
1 508:1 910:1 911:1 1119:1 1162:1 1218:1 1222:1 1230:1 1231:1 1235:1 1242:2
1 1119:1 1162:1 1218:1 1222:1 1242:1
1 1242:3
1 1119:1 1162:1 1218:1 1222:1 1242:2
1 178:1 347:1 508:1 910:1 1162:1 1215:1 1218:1 1224:1 1230:1 1235:1 1242:2
1 347:1 1119:1 1162:1 1218:1 1222:1 1224:1 1242:1
1 1119:1 1162:1 1218:1 1222:1 1242:3
1 178:1 508:1 1119:1 1162:1 1215:1 1218:1 1222:1 1235:1 1242:2
1 347:1 910:1 1119:1 1162:1 1218:1 1222:1 1224:1 1230:1 1242:2
1 508:1 1119:1 1162:1 1218:1 1222:1 1235:1 1242:2
1 1119:1 1162:1 1218:1 1222:1 1242:2
1 1119:1 1162:1 1218:1 1222:1 1242:2
1 178:1 508:1 1119:1 1162:1 1215:1 1218:1 1222:1 1235:1 1242:1
1 1119:1 1162:1 1218:1 1222:1 1242:3
1 347:1 911:1 1119:1 1162:1 1218:1 1222:1 1224:1 1231:1 1242:2
1 508:1 911:1 970:1 1119:1 1162:1 1218:1 1222:1 1225:1 1231:1 1235:1 1242:3
1 166:1 508:1 651:1 820:1 910:1 1117:1 1119:1 1162:1 1218:1 1220:1 1221:1 1222:1 1230:1 1232:1 1235:1 1236:1 1242:2
1 508:1 1119:1 1162:1 1218:1 1222:1 1235:1 1242:2
1 508:1 910:1 1119:1 1162:1 1218:1 1222:1 1230:1 1235:1 1242:3
1 178:1 508:1 911:1 1119:1 1162:1 1215:1 1218:1 1222:1 1231:1 1235:1 1242:2
1 178:1 347:1 910:1 1119:2 1162:3 1215:1 1218:3 1222:2 1224:1 1230:1 1242:10
1 347:1 910:1 1119:1 1162:1 1218:1 1222:1 1224:1 1230:1 1242:2
1 508:1 910:1 1119:1 1162:1 1218:1 1222:1 1230:1 1235:1 1242:2
1 1119:1 1162:1 1218:1 1222:1 1242:2
1 1162:1 1218:1 1242:3 1244:1
1 1119:1 1162:1 1218:1 1222:1 1242:2
1 166:1 508:1 651:1 820:1 910:1 1117:1 1119:1 1162:1 1218:1 1220:1 1221:1 1222:1 1230:1 1232:1 1235:1 1236:1 1242:2
1 508:1 1162:1 1218:1 1235:1 1242:1
1 508:1 1119:1 1162:1 1218:1 1222:1 1235:1 1242:1
1 910:1 1119:1 1162:1 1218:1 1222:1 1230:1 1242:2
1 508:1 910:1 1119:1 1162:1 1218:1 1222:1 1230:1 1235:1 1242:2
1 166:1 508:1 651:1 820:1 910:1 1117:1 1119:1 1162:1 1218:1 1220:1 1221:1 1222:1 1230:1 1232:1 1235:1 1236:1 1242:2
1 910:1 911:1 1119:1 1162:1 1218:1 1222:1 1230:1 1231:1 1242:2
1 508:1 1119:1 1162:1 1218:1 1222:1 1235:1 1242:1
1 508:1 1119:1 1162:1 1218:1 1222:1 1235:1 1242:3
1 910:1 1119:1 1162:1 1218:1 1222:1 1230:1 1242:2
1 508:1 911:1 1119:1 1162:1 1218:1 1222:1 1231:1 1235:1 1242:3
1 1119:1 1162:1 1218:1 1222:1 1242:2
1 508:1 911:1 1119:1 1162:1 1218:1 1222:1 1231:1 1235:1 1242:2
1 1119:1 1162:1 1218:1 1222:1 1242:2
1 1162:1 1218:1 1242:3
1 928:1 1240:1 1242:4
1 928:1 1240:1 1242:4
1 347:1 508:1 911:1 1119:1 1162:1 1218:1 1222:1 1224:1 1231:1 1235:1 1242:2
1 1119:1 1162:1 1218:1 1222:1 1242:2
1 347:1 910:1 1119:1 1162:1 1218:1 1222:1 1224:1 1230:1 1242:2
1 508:1 1119:1 1162:1 1218:1 1222:1 1235:1 1242:2
1 166:1 508:1 651:1 820:1 910:1 1117:1 1119:1 1162:1 1218:1 1220:1 1221:1 1222:1 1230:1 1232:1 1235:1 1236:1 1242:2
1 1119:1 1162:1 1218:1 1222:1 1242:2
1 910:1 1119:1 1162:1 1218:1 1222:1 1230:1 1242:2
1 1119:1 1162:1 1218:1 1222:1 1242:2
1 178:1 508:1 1162:1 1215:1 1218:1 1235:1 1242:3
1 178:1 508:1 910:1 1162:1 1215:1 1218:1 1230:1 1235:1 1242:2
1 508:1 1119:1 1162:1 1218:1 1222:1 1235:1 1242:1
1 1119:1 1162:1 1218:1 1222:1 1242:2
1 508:1 910:1 911:1 1119:1 1162:1 1218:1 1222:1 1230:1 1231:1 1235:1 1242:2
1 347:1 910:1 1119:1 1162:1 1218:1 1222:1 1224:1 1230:1 1242:2
1 1119:1 1162:1 1218:1 1222:1 1242:2
1 508:1 1119:1 1162:1 1218:1 1222:1 1235:1 1242:2
1 910:1 1162:1 1218:1 1230:1 1242:2
1 166:1 508:1 651:1 820:1 910:1 1117:1 1119:1 1162:1 1218:1 1220:1 1221:1 1222:1 1230:1 1232:1 1235:1 1236:1 1242:2
1 347:1 910:1 1119:1 1162:1 1218:1 1222:1 1224:1 1230:1 1242:2
1 1119:1 1162:1 1218:1 1222:1 1242:2
1 911:1 1162:1 1218:1 1231:1 1242:2
1 508:1 1119:1 1162:1 1218:1 1222:1 1235:1 1242:1
1 166:1 508:1 651:1 820:1 910:1 1117:1 1119:1 1162:1 1218:1 1220:1 1221:1 1222:1 1230:1 1232:1 1235:1 1236:1 1242:2
1 1119:1 1162:1 1218:1 1222:1 1242:2
1 970:1 1119:1 1162:1 1218:1 1222:1 1225:1 1242:3
1 970:1 1119:1 1162:1 1218:1 1222:1 1225:1 1242:2
1 508:1 1162:1 1218:1 1235:1 1242:3
1 1119:1 1162:1 1218:1 1222:1 1242:2
1 508:1 910:1 1119:1 1162:1 1218:1 1222:1 1230:1 1235:1 1242:1
1 1119:1 1162:1 1218:1 1222:1 1242:2
1 508:1 910:1 1119:1 1162:1 1218:1 1222:1 1230:1 1235:1 1242:2
1 1119:1 1162:1 1218:1 1222:1 1242:1
1 347:1 910:1 911:1 1119:1 1162:1 1218:1 1222:1 1224:1 1230:1 1231:1 1242:2
1 508:1 910:1 1119:1 1162:1 1218:1 1222:1 1230:1 1235:1 1242:2
1 166:1 508:1 651:1 820:1 910:1 1117:1 1119:1 1162:1 1218:1 1220:1 1221:1 1222:1 1230:1 1232:1 1235:1 1236:1 1242:2
1 1119:1 1162:1 1218:1 1222:1 1242:2
1 508:1 1119:1 1162:1 1218:1 1222:1 1235:1 1242:1
1 178:1 910:1 1119:1 1162:1 1215:1 1218:1 1222:1 1230:1 1242:1
1 1162:1 1218:1 1242:2
1 910:1 1162:1 1218:1 1230:1 1242:3 1244:1
1 178:1 508:1 910:1 911:1 1119:1 1162:1 1215:1 1218:1 1222:1 1230:1 1231:1 1235:1 1242:2
1 1162:1 1218:1 1242:2
1 1119:1 1162:1 1218:1 1222:1 1242:2
1 1119:1 1162:1 1218:1 1222:1 1242:2
1 178:1 508:1 1119:1 1162:1 1215:1 1218:1 1222:1 1235:1 1242:2
1 508:1 910:1 1119:1 1162:1 1218:1 1222:1 1230:1 1235:1 1242:1
1 166:1 508:1 651:1 820:1 910:1 1117:1 1119:1 1162:1 1218:1 1220:1 1221:1 1222:1 1230:1 1232:1 1235:1 1236:1 1242:2
1 166:1 508:1 651:1 820:1 910:1 1117:1 1119:1 1162:1 1218:1 1220:1 1221:1 1222:1 1230:1 1232:1 1235:1 1236:1 1242:2
1 911:1 970:1 1119:1 1162:1 1218:1 1222:1 1225:1 1231:1 1242:2
1 1119:1 1162:1 1218:1 1222:1 1242:2
1 508:1 1119:1 1162:1 1218:1 1222:1 1235:1 1242:1
1 166:1 508:1 651:1 820:1 910:1 1117:1 1119:1 1162:1 1218:1 1220:1 1221:1 1222:1 1230:1 1232:1 1235:1 1236:1 1242:2
1 166:1 178:1 347:1 508:1 910:1 1119:1 1162:1 1215:1 1218:1 1222:1 1224:1 1230:1 1232:1 1235:1 1242:2
1 1162:1 1218:1 1242:2
1 166:1 508:1 651:1 820:1 910:1 1117:1 1119:1 1162:1 1218:1 1220:1 1221:1 1222:1 1230:1 1232:1 1235:1 1236:1 1242:2
1 1119:1 1162:1 1218:1 1222:1 1242:2
1 508:1 911:1 1119:1 1162:1 1218:1 1222:1 1231:1 1235:1 1242:2
1 910:1 1162:1 1218:1 1230:1 1242:2
1 347:1 508:1 1119:1 1162:1 1218:1 1222:1 1224:1 1235:1 1242:2
1 1119:1 1162:1 1218:1 1222:1 1242:2
1 178:1 347:1 1119:1 1162:1 1215:1 1218:1 1222:1 1224:1 1242:2
1 1119:1 1162:1 1218:1 1222:1 1242:2
1 1119:1 1162:1 1218:1 1222:1 1242:2
1 166:1 508:1 651:1 820:1 910:1 1117:1 1119:1 1162:1 1218:1 1220:1 1221:1 1222:1 1230:1 1232:1 1235:1 1236:1 1242:2
1 508:1 1119:1 1162:1 1218:1 1222:1 1235:1 1242:1
1 166:1 508:1 651:1 820:1 910:1 1117:1 1119:1 1162:1 1218:1 1220:1 1221:1 1222:1 1230:1 1232:1 1235:1 1236:1 1242:2
1 347:1 508:1 910:1 911:1 970:1 1119:1 1162:1 1218:1 1222:1 1224:1 1225:1 1230:1 1231:1 1235:1 1242:3
1 1119:1 1162:1 1218:1 1222:1 1242:2
1 1119:1 1162:1 1218:1 1222:1 1242:3
1 508:1 1119:1 1162:1 1218:1 1222:1 1235:1 1242:2
1 508:1 910:1 911:1 1119:1 1162:1 1218:1 1222:1 1230:1 1231:1 1235:1 1242:2
1 347:1 910:1 1119:1 1162:1 1218:1 1222:1 1224:1 1230:1 1242:2
1 178:1 508:1 1162:1 1215:1 1218:1 1235:1 1242:2
1 1119:1 1162:1 1218:1 1222:1 1242:2
1 347:1 910:1 1119:1 1162:1 1218:1 1222:1 1224:1 1230:1 1242:2
1 166:1 508:1 651:1 820:1 910:1 1117:1 1119:1 1162:1 1218:1 1220:1 1221:1 1222:1 1230:1 1232:1 1235:1 1236:1 1242:2
1 508:1 1162:1 1218:1 1235:1 1242:2
1 166:1 508:1 651:1 820:1 910:1 1117:1 1119:1 1162:1 1218:1 1220:1 1221:1 1222:1 1230:1 1232:1 1235:1 1236:1 1242:2
1 910:1 911:1 1119:1 1162:1 1218:1 1222:1 1230:1 1231:1 1242:1
1 508:1 1119:1 1162:1 1218:1 1222:1 1235:1 1242:3
1 1119:1 1162:1 1218:1 1222:1 1242:2
1 508:1 1119:1 1162:1 1218:1 1222:1 1235:1 1242:1
1 1162:1 1218:1 1242:1
1 508:1 1119:1 1162:1 1218:1 1222:1 1235:1 1242:1
1 508:1 910:1 1119:1 1162:1 1218:1 1222:1 1230:1 1235:1 1242:3
1 1119:1 1162:1 1218:1 1222:1 1242:2
1 1119:1 1162:1 1218:1 1222:1 1242:1
1 508:1 911:1 1119:1 1162:1 1218:1 1222:1 1231:1 1235:1 1242:2
1 1119:1 1162:1 1218:1 1222:1 1242:2
1 508:1 1119:1 1162:1 1218:1 1222:1 1235:1 1242:1
1 1119:1 1162:1 1218:1 1222:1 1242:2
1 1119:1 1162:1 1218:1 1222:1 1242:2
1 178:1 1117:1 1162:1 1215:1 1218:1 1221:1 1242:4
1 508:1 1119:1 1162:1 1218:1 1222:1 1235:1 1242:2
1 1242:2
1 1119:1 1162:1 1218:1 1222:1 1242:2
1 178:1 1119:1 1162:1 1215:1 1218:1 1222:1 1242:2
1 928:1 1240:1 1242:4
1 166:1 508:1 651:1 820:1 910:1 1117:1 1119:1 1162:1 1218:1 1220:1 1221:1 1222:1 1230:1 1232:1 1235:1 1236:1 1242:2
1 508:1 910:1 1119:1 1162:1 1218:1 1222:1 1230:1 1235:1 1242:2
1 1119:1 1162:1 1218:1 1222:1 1242:1
1 347:1 508:1 910:1 1119:1 1162:1 1218:1 1222:1 1224:1 1230:1 1235:1 1242:2
1 1119:1 1162:1 1218:1 1222:1 1242:2
1 347:1 508:1 1162:1 1218:1 1224:1 1235:1 1242:2
1 1119:1 1162:1 1218:1 1222:1 1242:2
1 1119:1 1162:1 1218:1 1222:1 1242:2
1 1119:1 1162:1 1218:1 1222:1 1242:2
1 1119:1 1162:1 1218:1 1222:1 1242:2
1 347:1 910:1 1119:1 1162:1 1218:1 1222:1 1224:1 1230:1 1242:2
1 508:1 1162:1 1218:1 1235:1 1242:2
1 910:1 1119:1 1162:1 1218:1 1222:1 1230:1 1242:2
1 178:1 508:1 1119:1 1162:1 1215:1 1218:1 1222:1 1235:1 1242:1
1 508:1 1162:1 1218:1 1235:1 1242:2
1 1162:1 1218:1 1242:3
1 178:1 347:1 910:1 1119:1 1162:1 1215:1 1218:1 1222:1 1224:1 1230:1 1242:2
1 1119:1 1162:1 1218:1 1222:1 1242:2
1 178:1 508:1 910:1 911:1 1119:1 1162:1 1215:1 1218:1 1222:1 1230:1 1231:1 1235:1 1242:2
1 928:1 1240:1 1242:4
1 508:1 910:1 1119:1 1162:1 1218:1 1222:1 1230:1 1235:1 1242:3
1 1119:1 1162:1 1218:1 1222:1 1242:2
1 928:1 1240:1 1242:5
1 508:1 1119:1 1162:1 1218:1 1222:1 1235:1 1242:1
1 1162:1 1218:1 1242:3
1 508:1 1119:1 1162:1 1218:1 1222:1 1235:1 1242:3
1 1119:1 1162:1 1218:1 1222:1 1242:2
1 347:1 508:1 910:1 1119:1 1162:1 1218:1 1222:1 1224:1 1230:1 1235:1 1242:3
1 347:1 910:1 911:1 1119:1 1162:1 1218:1 1222:1 1224:1 1230:1 1231:1 1242:2
1 178:1 347:1 1119:1 1162:1 1215:1 1218:1 1222:1 1224:1 1242:2
1 508:1 910:1 911:1 1119:1 1162:1 1218:1 1222:1 1230:1 1231:1 1235:1 1242:2
1 910:1 1162:1 1218:1 1230:1 1242:3
1 508:1 1119:1 1162:1 1218:1 1222:1 1235:1 1242:2
1 347:1 910:1 1119:1 1162:1 1218:1 1222:1 1224:1 1230:1 1242:2
1 928:1 1240:1 1242:4
1 508:1 1162:1 1218:1 1235:1 1242:2
1 1119:1 1162:1 1218:1 1222:1 1242:2
1 178:1 347:1 508:1 910:1 911:1 1119:1 1162:1 1215:1 1218:1 1222:1 1224:1 1230:1 1231:1 1235:1 1242:1
1 347:1 910:1 1119:1 1162:1 1218:1 1222:1 1224:1 1230:1 1242:1
1 166:1 508:1 651:1 820:1 910:1 1117:1 1119:1 1162:1 1218:1 1220:1 1221:1 1222:1 1230:1 1232:1 1235:1 1236:1 1242:2
1 508:1 1162:1 1218:1 1235:1 1242:2
1 1119:1 1162:1 1218:1 1222:1 1242:3
1 508:1 1119:1 1162:1 1218:1 1222:1 1235:1 1242:1
1 928:1 1240:1 1242:4
1 166:1 508:1 651:1 820:1 910:1 1117:1 1119:1 1162:1 1218:1 1220:1 1221:1 1222:1 1230:1 1232:1 1235:1 1236:1 1242:2
1 508:1 910:1 1119:1 1162:1 1218:1 1222:1 1230:1 1235:1 1242:2
1 347:1 508:1 910:1 1119:1 1162:1 1218:1 1222:1 1224:1 1230:1 1235:1 1242:3
1 508:1 1162:1 1218:1 1235:1 1242:2
1 508:1 911:1 1119:1 1162:1 1218:1 1222:1 1231:1 1235:1 1242:1
1 508:1 1119:1 1162:1 1218:1 1222:1 1235:1 1242:1
1 1162:1 1218:1 1242:3 1244:1
1 508:1 1162:1 1218:1 1235:1 1242:2
1 1119:1 1162:1 1218:1 1222:1 1242:1
1 178:1 911:1 1119:1 1162:1 1215:1 1218:1 1222:1 1231:1 1242:2
1 508:1 1119:1 1162:1 1218:1 1222:1 1235:1 1242:2
1 178:1 508:1 1119:1 1162:1 1215:1 1218:1 1222:1 1235:1 1242:1
1 1162:1 1218:1 1242:3
1 178:1 347:1 1119:1 1162:1 1215:1 1218:1 1222:1 1224:1 1242:2
1 347:1 910:1 1119:1 1162:1 1218:1 1222:1 1224:1 1230:1 1242:2
1 166:1 508:1 651:1 820:1 910:1 1117:1 1119:1 1162:1 1218:1 1220:1 1221:1 1222:1 1230:1 1232:1 1235:1 1236:1 1242:2
1 178:1 347:1 1119:1 1162:1 1215:1 1218:1 1222:1 1224:1 1242:2
1 1242:3
1 1119:1 1162:1 1218:1 1222:1 1242:2
1 166:1 508:1 651:1 820:1 910:1 1117:1 1119:1 1162:1 1218:1 1220:1 1221:1 1222:1 1230:1 1232:1 1235:1 1236:1 1242:2
1 928:1 1240:1 1242:4
1 347:1 1119:1 1162:1 1218:1 1222:1 1224:1 1242:2
1 508:1 1119:1 1162:1 1218:1 1222:1 1235:1 1242:2
1 970:1 1119:1 1162:1 1218:1 1222:1 1225:1 1242:2
1 910:1 1119:1 1162:1 1218:1 1222:1 1230:1 1242:2
1 178:1 508:1 910:1 1119:1 1162:1 1215:1 1218:1 1222:1 1230:1 1235:1 1242:2
1 178:1 508:1 911:1 1119:1 1162:1 1215:1 1218:1 1222:1 1231:1 1235:1 1242:2
1 1119:1 1162:1 1218:1 1222:1 1242:2
1 508:1 1119:1 1162:1 1218:1 1222:1 1235:1 1242:2
1 910:1 911:1 1119:1 1162:1 1218:1 1222:1 1230:1 1231:1 1242:2
1 508:1 1119:1 1162:1 1218:1 1222:1 1235:1 1242:2
1 928:1 1240:1 1242:4
1 508:1 910:1 1119:1 1162:1 1218:1 1222:1 1230:1 1235:1 1242:3
1 508:1 910:1 1119:1 1162:1 1218:1 1222:1 1230:1 1235:1 1242:1
1 1119:1 1162:1 1218:1 1222:1 1242:2
1 910:1 1119:1 1162:1 1218:1 1222:1 1230:1 1242:2
1 1119:1 1162:1 1218:1 1222:1 1242:3
1 347:1 508:1 910:1 911:1 970:1 1119:1 1162:1 1218:1 1222:1 1224:1 1225:1 1230:1 1231:1 1235:1 1242:3
1 508:1 1162:1 1218:1 1235:1 1242:2
1 1162:1 1218:1 1242:2
1 1119:1 1162:1 1218:1 1222:1 1242:2
1 508:1 910:1 1119:1 1162:1 1218:1 1222:1 1230:1 1235:1 1242:3
1 508:1 1119:1 1162:1 1218:1 1222:1 1235:1 1242:1
1 238:1 347:1 403:1 496:1 629:1 650:1 910:1 995:1 1080:1 1162:1 1218:1 1219:1 1223:1 1224:1 1227:1 1230:1 1234:1 1237:1 1239:1 1241:1 1242:3
1 1119:1 1162:1 1218:1 1222:1 1242:2
1 508:1 1162:1 1218:1 1235:1 1242:2
1 508:1 910:1 1162:1 1218:1 1230:1 1235:1 1242:2
1 508:1 1119:1 1162:1 1218:1 1222:1 1235:1 1242:2
1 508:1 1119:1 1162:1 1218:1 1222:1 1235:1 1242:1
1 910:1 1119:1 1162:1 1218:1 1222:1 1230:1 1242:2
1 1119:1 1162:1 1218:1 1222:1 1242:2
1 178:1 347:1 1119:1 1162:1 1215:1 1218:1 1222:1 1224:1 1242:2
1 1119:1 1162:1 1218:1 1222:1 1242:2
1 347:1 508:1 910:1 1119:1 1162:1 1218:1 1222:1 1224:1 1230:1 1235:1 1242:2
1 508:1 1119:1 1162:1 1218:1 1222:1 1235:1 1242:2
1 1119:1 1162:1 1218:1 1222:1 1242:2
1 1119:1 1162:1 1218:1 1222:1 1242:2
1 508:1 1119:1 1162:1 1218:1 1222:1 1235:1 1242:1
1 910:1 970:1 1119:1 1162:1 1218:1 1222:1 1225:1 1230:1 1242:1
1 166:1 508:1 651:1 820:1 910:1 1117:1 1119:1 1162:1 1218:1 1220:1 1221:1 1222:1 1230:1 1232:1 1235:1 1236:1 1242:2
1 347:1 910:1 1119:1 1162:1 1218:1 1222:1 1224:1 1230:1 1242:2
1 910:1 1119:1 1162:1 1218:1 1222:1 1230:1 1242:2
1 1119:1 1162:1 1218:1 1222:1 1242:2
1 508:1 910:1 1119:1 1162:1 1218:1 1222:1 1230:1 1235:1 1242:3
1 166:1 508:1 651:1 820:1 910:1 1117:1 1119:1 1162:1 1218:1 1220:1 1221:1 1222:1 1230:1 1232:1 1235:1 1236:1 1242:2
1 508:1 1119:1 1162:1 1218:1 1222:1 1235:1 1242:2
1 910:1 1162:1 1218:1 1230:1 1242:2
1 1119:1 1162:1 1218:1 1222:1 1242:2
1 1119:1 1162:1 1218:1 1222:1 1242:2
1 1119:1 1162:1 1218:1 1222:1 1242:2
1 178:1 1119:1 1162:1 1215:1 1218:1 1222:1 1242:2
1 508:1 1119:1 1162:1 1218:1 1222:1 1235:1 1242:2
1 347:1 910:1 1119:1 1162:1 1218:1 1222:1 1224:1 1230:1 1242:2
1 166:1 508:1 651:1 820:1 910:1 1117:1 1119:1 1162:1 1218:1 1220:1 1221:1 1222:1 1230:1 1232:1 1235:1 1236:1 1242:2
1 178:1 1119:1 1162:1 1215:1 1218:1 1222:1 1242:2
1 910:1 1119:1 1162:1 1218:1 1222:1 1230:1 1242:2
1 508:1 911:1 1119:1 1162:1 1218:1 1222:1 1231:1 1235:1 1242:2
1 347:1 508:1 910:1 1119:1 1162:1 1218:1 1222:1 1224:1 1230:1 1235:1 1242:1
1 166:1 508:1 651:1 820:1 910:1 1117:1 1119:1 1162:1 1218:1 1220:1 1221:1 1222:1 1230:1 1232:1 1235:1 1236:1 1242:2
1 178:1 347:1 508:1 911:1 1119:1 1162:1 1215:1 1218:1 1222:1 1224:1 1231:1 1235:1 1242:3
1 928:1 1240:1 1242:3
1 928:1 1240:1 1242:3
1 1119:1 1162:1 1218:1 1222:1 1242:2
1 508:1 911:1 1119:1 1162:1 1218:1 1222:1 1231:1 1235:1 1242:2
1 508:1 1119:1 1162:1 1218:1 1222:1 1235:1 1242:2
1 910:1 1119:1 1162:1 1218:1 1222:1 1230:1 1242:2
1 347:1 508:1 910:1 1119:1 1162:1 1218:1 1222:1 1224:1 1230:1 1235:1 1242:1
1 910:1 1119:1 1162:1 1218:1 1222:1 1230:1 1242:2
1 166:1 508:1 651:1 820:1 910:1 1117:1 1119:1 1162:1 1218:1 1220:1 1221:1 1222:1 1230:1 1232:1 1235:1 1236:1 1242:2
1 1162:1 1218:1 1242:3
1 910:1 1119:1 1162:1 1218:1 1222:1 1230:1 1242:2
1 178:1 347:1 508:1 910:1 1119:1 1162:1 1215:1 1218:1 1222:1 1224:1 1230:1 1235:1 1242:1
1 347:1 910:1 1119:1 1162:1 1218:1 1222:1 1224:1 1230:1 1242:2
1 178:1 347:1 1119:1 1162:1 1215:1 1218:1 1222:1 1224:1 1242:2
1 508:1 910:1 1119:1 1162:1 1218:1 1222:1 1230:1 1235:1 1242:3
1 347:1 508:1 910:1 1119:1 1162:1 1218:1 1222:1 1224:1 1230:1 1235:1 1242:3
1 910:1 1119:1 1162:1 1218:1 1222:1 1230:1 1242:1
1 1119:1 1162:1 1218:1 1222:1 1242:2
1 910:1 1119:1 1162:1 1218:1 1222:1 1230:1 1242:2
1 1162:1 1218:1 1242:2
1 1119:1 1162:1 1218:1 1222:1 1242:2
1 166:1 508:1 651:1 820:1 910:1 1117:1 1119:1 1162:1 1218:1 1220:1 1221:1 1222:1 1230:1 1232:1 1235:1 1236:1 1242:2
1 347:1 910:1 1119:1 1162:1 1218:1 1222:1 1224:1 1230:1 1242:2
1 1162:1 1218:1 1242:3
1 1119:1 1162:1 1218:1 1222:1 1242:2
1 1119:1 1162:1 1218:1 1222:1 1242:2
1 1119:1 1162:1 1218:1 1222:1 1242:2
1 508:1 910:1 1119:1 1162:1 1218:1 1222:1 1230:1 1235:1 1242:2
1 166:1 508:1 651:1 820:1 910:1 1117:1 1119:1 1162:1 1218:1 1220:1 1221:1 1222:1 1230:1 1232:1 1235:1 1236:1 1242:2
1 1119:1 1162:1 1218:1 1222:1 1242:3
1 178:1 508:1 1119:1 1162:1 1215:1 1218:1 1222:1 1235:1 1242:2
1 178:1 508:1 1119:1 1162:1 1215:1 1218:1 1222:1 1235:1 1242:2
1 508:1 910:1 1119:1 1162:1 1218:1 1222:1 1230:1 1235:1 1242:3
1 166:1 178:1 347:1 508:1 910:1 1119:1 1162:1 1215:1 1218:1 1222:1 1224:1 1230:1 1232:1 1235:1 1242:3
1 508:1 910:1 911:1 1119:1 1162:1 1218:1 1222:1 1230:1 1231:1 1235:1 1242:1
1 508:1 910:1 1119:1 1162:1 1218:1 1222:1 1230:1 1235:1 1242:2
1 508:1 911:1 1119:1 1162:1 1218:1 1222:1 1231:1 1235:1 1242:2
1 1119:1 1162:1 1218:1 1222:1 1242:2
1 928:1 1240:1 1242:4
1 347:1 508:1 1119:1 1162:1 1218:1 1222:1 1224:1 1235:1 1242:2
1 166:1 508:1 651:1 820:1 910:1 1117:1 1119:1 1162:1 1218:1 1220:1 1221:1 1222:1 1230:1 1232:1 1235:1 1236:1 1242:2
1 1119:1 1162:1 1218:1 1222:1 1242:2
1 508:1 910:1 1119:1 1162:1 1218:1 1222:1 1230:1 1235:1 1242:2
1 508:1 1162:1 1218:1 1235:1 1242:2
1 910:1 1119:1 1162:1 1218:1 1222:1 1230:1 1242:2
1 1119:1 1162:1 1218:1 1222:1 1242:2
1 1119:1 1162:1 1218:1 1222:1 1242:1
1 508:1 910:1 1119:1 1162:1 1218:1 1222:1 1230:1 1235:1 1242:2
1 347:1 910:1 1119:1 1162:1 1218:1 1222:1 1224:1 1230:1 1242:2
1 166:1 509:1 910:2 1119:2 1162:2 1218:2 1222:2 1230:2 1232:1 1238:1 1242:7
1 508:1 1119:1 1162:1 1218:1 1222:1 1235:1 1242:2
1 508:1 1119:1 1162:1 1218:1 1222:1 1235:1 1242:2
1 508:1 910:1 911:1 1119:1 1162:1 1218:1 1222:1 1230:1 1231:1 1235:1 1242:2
1 178:1 347:1 910:1 1119:1 1162:1 1215:1 1218:1 1222:1 1224:1 1230:1 1242:2
1 508:1 910:1 1119:1 1162:1 1218:1 1222:1 1230:1 1235:1 1242:2
1 1162:1 1218:1 1242:2
1 508:1 1119:1 1162:1 1218:1 1222:1 1235:1 1242:3
1 347:1 508:1 1162:1 1218:1 1224:1 1235:1 1242:2
1 166:1 508:1 651:1 820:1 910:1 1117:1 1119:1 1162:1 1218:1 1220:1 1221:1 1222:1 1230:1 1232:1 1235:1 1236:1 1242:2
1 1119:1 1162:1 1218:1 1222:1 1242:2
1 910:1 1119:1 1162:1 1218:1 1222:1 1230:1 1242:2
1 508:1 1119:1 1162:1 1218:1 1222:1 1235:1 1242:1
1 347:1 910:1 911:1 1119:1 1162:1 1218:1 1222:1 1224:1 1230:1 1231:1 1242:2
1 910:1 1119:1 1162:1 1218:1 1222:1 1230:1 1242:2
1 508:1 910:1 1162:1 1218:1 1230:1 1235:1 1242:2
1 1119:1 1162:1 1218:1 1222:1 1242:2
1 910:1 1119:1 1162:1 1218:1 1222:1 1230:1 1242:1
1 910:1 1119:1 1162:1 1218:1 1222:1 1230:1 1242:2
1 347:1 508:1 910:1 1162:1 1218:1 1224:1 1230:1 1235:1 1242:2
1 508:1 1119:1 1162:1 1218:1 1222:1 1235:1 1242:2
1 178:1 347:1 1119:1 1162:1 1215:1 1218:1 1222:1 1224:1 1242:2
1 508:1 910:1 1119:1 1162:1 1218:1 1222:1 1230:1 1235:1 1242:2
1 1162:1 1218:1 1242:2
1 508:1 1119:1 1162:1 1218:1 1222:1 1235:1 1242:2
1 508:1 1162:1 1218:1 1235:1 1242:2
1 910:1 1119:1 1162:1 1218:1 1222:1 1230:1 1242:2
1 178:1 347:1 1119:1 1162:1 1215:1 1218:1 1222:1 1224:1 1242:2
1 1162:1 1218:1 1242:3 1244:1
1 1119:1 1162:1 1218:1 1222:1 1242:2
1 1162:1 1218:1 1242:2
1 910:1 1119:1 1162:1 1218:1 1222:1 1230:1 1242:2
1 928:1 1240:1 1242:4
1 178:1 347:1 910:1 1119:1 1162:1 1215:1 1218:1 1222:1 1224:1 1230:1 1242:2
1 508:1 910:1 1119:1 1162:1 1218:1 1222:1 1230:1 1235:1 1242:2
1 178:1 508:1 1162:1 1215:1 1218:1 1235:1 1242:2
1 508:1 1119:1 1162:1 1218:1 1222:1 1235:1 1242:3 1244:1
1 347:1 911:1 1119:1 1162:1 1218:1 1222:1 1224:1 1231:1 1242:2
1 508:1 1119:1 1162:1 1218:1 1222:1 1235:1 1242:1
1 1119:1 1162:1 1218:1 1222:1 1242:3
1 508:1 1119:1 1162:1 1218:1 1222:1 1235:1 1242:1
1 1119:1 1162:1 1218:1 1222:1 1242:2
1 508:1 1119:1 1162:1 1218:1 1222:1 1235:1 1242:4
1 508:1 1162:1 1218:1 1235:1 1242:2
1 166:1 508:1 651:1 820:1 910:1 1117:1 1119:1 1162:1 1218:1 1220:1 1221:1 1222:1 1230:1 1232:1 1235:1 1236:1 1242:2
1 508:1 1162:1 1218:1 1235:1 1242:2
1 1119:1 1162:1 1218:1 1222:1 1242:2
1 178:1 347:1 508:1 910:1 911:1 1119:1 1162:1 1215:1 1218:1 1222:1 1224:1 1230:1 1231:1 1235:1 1242:2
1 910:1 1162:1 1218:1 1230:1 1242:3 1244:1
1 508:1 1119:1 1162:1 1218:1 1222:1 1235:1 1242:1
1 178:1 508:1 1119:1 1162:1 1215:1 1218:1 1222:1 1235:1 1242:1
1 910:1 1119:1 1162:1 1218:1 1222:1 1230:1 1242:2
1 910:1 911:1 1119:1 1162:1 1218:1 1222:1 1230:1 1231:1 1242:2
1 347:1 508:1 910:1 1119:1 1162:1 1218:1 1222:1 1224:1 1230:1 1235:1 1242:2
1 910:1 1162:1 1218:1 1230:1 1242:3 1244:1
1 1119:1 1162:1 1218:1 1222:1 1242:2
1 178:1 508:1 1162:1 1215:1 1218:1 1235:1 1242:2
1 1119:1 1162:1 1218:1 1222:1 1242:2
1 1119:1 1162:1 1218:1 1222:1 1242:2
1 1119:1 1162:1 1218:1 1222:1 1242:2
1 910:1 911:1 1119:1 1162:1 1218:1 1222:1 1230:1 1231:1 1242:2
1 508:1 910:1 1119:1 1162:1 1218:1 1222:1 1230:1 1235:1 1242:2
1 508:1 910:1 1119:1 1162:1 1218:1 1222:1 1230:1 1235:1 1242:1
1 508:1 1119:1 1162:1 1218:1 1222:1 1235:1 1242:1
1 347:1 910:1 1119:1 1162:1 1218:1 1222:1 1224:1 1230:1 1242:2
1 508:1 1119:1 1162:1 1218:1 1222:1 1235:1 1242:2
1 910:1 911:1 1119:1 1162:1 1218:1 1222:1 1230:1 1231:1 1242:2
1 910:1 1119:1 1162:1 1218:1 1222:1 1230:1 1242:2
1 1119:1 1162:1 1218:1 1222:1 1242:2
1 166:1 508:1 651:1 820:1 910:1 1117:1 1119:1 1162:1 1218:1 1220:1 1221:1 1222:1 1230:1 1232:1 1235:1 1236:1 1242:2
1 1119:1 1162:1 1218:1 1222:1 1242:2
1 1119:1 1162:1 1218:1 1222:1 1242:2
1 166:1 508:1 651:1 820:1 910:1 1117:1 1119:1 1162:1 1218:1 1220:1 1221:1 1222:1 1230:1 1232:1 1235:1 1236:1 1242:2
1 508:1 1119:1 1162:1 1218:1 1222:1 1235:1 1242:1
1 178:1 347:1 508:1 910:1 911:1 1119:1 1162:1 1215:1 1218:1 1222:1 1224:1 1230:1 1231:1 1235:1 1242:2
1 1242:3
1 508:1 1119:1 1162:1 1218:1 1222:1 1235:1 1242:2
1 347:1 910:1 1119:1 1162:1 1218:1 1222:1 1224:1 1230:1 1242:2
1 1162:1 1218:1 1242:3
1 508:1 1119:1 1162:1 1218:1 1222:1 1235:1 1242:3
1 910:1 911:1 1119:1 1162:1 1218:1 1222:1 1230:1 1231:1 1242:2
1 508:1 910:1 1119:1 1162:1 1218:1 1222:1 1230:1 1235:1 1242:2
1 1119:1 1162:1 1218:1 1222:1 1242:2
1 347:1 508:1 910:1 1119:1 1162:1 1218:1 1222:1 1224:1 1230:1 1235:1 1242:3
1 508:1 1119:1 1162:1 1218:1 1222:1 1235:1 1242:2
1 347:1 508:1 910:1 1119:1 1162:1 1218:1 1222:1 1224:1 1230:1 1235:1 1242:1
1 166:1 508:1 651:1 820:1 910:1 1117:1 1119:1 1162:1 1218:1 1220:1 1221:1 1222:1 1230:1 1232:1 1235:1 1236:1 1242:2
1 508:1 1119:1 1162:1 1218:1 1222:1 1235:1 1242:2
1 508:1 1119:1 1162:1 1218:1 1222:1 1235:1 1242:2
1 508:1 1119:1 1162:1 1218:1 1222:1 1235:1 1242:1
1 178:1 347:1 910:1 1119:1 1162:2 1215:1 1218:2 1222:1 1224:1 1230:1 1242:4
1 508:1 910:1 1119:1 1162:1 1218:1 1222:1 1230:1 1235:1 1242:1
1 910:1 911:1 1119:1 1162:1 1218:1 1222:1 1230:1 1231:1 1242:2
1 1119:1 1162:1 1218:1 1222:1 1242:2
1 347:1 910:1 1119:1 1162:1 1218:1 1222:1 1224:1 1230:1 1242:2
1 910:1 1119:1 1162:1 1218:1 1222:1 1230:1 1242:2
1 347:1 508:1 910:1 911:1 970:1 1119:1 1162:1 1218:1 1222:1 1224:1 1225:1 1230:1 1231:1 1235:1 1242:2
1 910:1 1119:1 1162:1 1218:1 1222:1 1230:1 1242:1
1 1162:1 1218:1 1242:2
1 508:1 910:1 1162:1 1218:1 1230:1 1235:1 1242:2
1 508:1 1119:1 1162:1 1218:1 1222:1 1235:1 1242:2
1 166:1 508:1 651:1 820:1 910:1 1117:1 1119:1 1162:1 1218:1 1220:1 1221:1 1222:1 1230:1 1232:1 1235:1 1236:1 1242:2
1 166:1 508:1 651:1 820:1 910:1 1117:1 1119:1 1162:1 1218:1 1220:1 1221:1 1222:1 1230:1 1232:1 1235:1 1236:1 1242:2
1 508:1 910:1 1162:1 1218:1 1230:1 1235:1 1242:2
1 910:1 1119:1 1162:1 1218:1 1222:1 1230:1 1242:2
1 508:1 911:1 1119:1 1162:1 1218:1 1222:1 1231:1 1235:1 1242:2
1 508:1 911:1 1119:1 1162:1 1218:1 1222:1 1231:1 1235:1 1242:2
1 1119:1 1162:1 1218:1 1222:1 1242:2
1 508:1 910:1 1119:1 1162:1 1218:1 1222:1 1230:1 1235:1 1242:2
1 910:1 1119:1 1162:1 1218:1 1222:1 1230:1 1242:2
1 1119:1 1162:1 1218:1 1222:1 1242:2
1 1119:1 1162:1 1218:1 1222:1 1242:2
1 1119:1 1162:1 1218:1 1222:1 1242:2
1 347:1 508:1 910:1 1119:1 1162:1 1218:1 1222:1 1224:1 1230:1 1235:1 1242:2
1 166:1 508:1 651:1 820:1 910:1 1117:1 1119:1 1162:1 1218:1 1220:1 1221:1 1222:1 1230:1 1232:1 1235:1 1236:1 1242:2
1 1119:1 1162:1 1218:1 1222:1 1242:2
1 1119:1 1162:1 1218:1 1222:1 1242:2
1 1162:1 1218:1 1242:3 1244:1
1 508:1 1162:1 1218:1 1235:1 1242:2
1 1119:1 1162:1 1218:1 1222:1 1242:3
1 508:1 911:1 1162:1 1218:1 1231:1 1235:1 1242:2
1 508:1 910:1 1119:1 1162:1 1218:1 1222:1 1230:1 1235:1 1242:2
1 1162:1 1218:1 1242:3
1 1119:1 1162:1 1218:1 1222:1 1242:1
1 508:1 1119:1 1162:1 1218:1 1222:1 1235:1 1242:1
1 166:1 508:1 651:1 820:1 910:1 1117:1 1119:1 1162:1 1218:1 1220:1 1221:1 1222:1 1230:1 1232:1 1235:1 1236:1 1242:2
1 178:1 508:1 910:1 911:1 1119:1 1162:1 1215:1 1218:1 1222:1 1230:1 1231:1 1235:1 1242:2
1 166:1 508:1 651:1 820:1 910:1 1117:1 1119:1 1162:1 1218:1 1220:1 1221:1 1222:1 1230:1 1232:1 1235:1 1236:1 1242:2
1 508:1 1119:1 1162:1 1218:1 1222:1 1235:1 1242:2
1 166:1 508:1 651:1 820:1 910:1 1117:1 1119:1 1162:1 1218:1 1220:1 1221:1 1222:1 1230:1 1232:1 1235:1 1236:1 1242:2
1 178:1 508:1 1119:1 1162:1 1215:1 1218:1 1222:1 1235:1 1242:2
1 508:1 910:1 1119:1 1162:1 1218:1 1222:1 1230:1 1235:1 1242:2
1 910:1 1119:1 1162:1 1218:1 1222:1 1230:1 1242:2
1 508:1 911:1 1119:1 1162:1 1218:1 1222:1 1231:1 1235:1 1242:2
1 1119:1 1162:1 1218:1 1222:1 1242:2
1 910:1 911:1 1119:1 1162:1 1218:1 1222:1 1230:1 1231:1 1242:2
1 1119:1 1162:1 1218:1 1222:1 1242:2
1 928:1 1240:1 1242:4
1 508:1 910:1 1119:1 1162:1 1218:1 1222:1 1230:1 1235:1 1242:2
1 508:1 1119:1 1162:1 1218:1 1222:1 1235:1 1242:3
1 508:1 910:1 911:1 1119:1 1162:1 1218:1 1222:1 1230:1 1231:1 1235:1 1242:2
1 178:1 1119:1 1162:1 1215:1 1218:1 1222:1 1242:2
1 910:1 1119:1 1162:1 1218:1 1222:1 1230:1 1242:2
1 508:1 1162:1 1218:1 1235:1 1242:2
1 1119:1 1162:1 1218:1 1222:1 1242:1
1 508:1 1119:1 1162:1 1218:1 1222:1 1235:1 1242:3 1244:1
1 166:1 508:1 651:1 820:1 910:1 1117:1 1119:1 1162:1 1218:1 1220:1 1221:1 1222:1 1230:1 1232:1 1235:1 1236:1 1242:2
1 508:1 910:1 1119:1 1162:1 1218:1 1222:1 1230:1 1235:1 1242:2
1 347:1 508:1 1119:1 1162:1 1218:1 1222:1 1224:1 1235:1 1242:3
1 178:1 347:1 508:1 910:1 911:1 1119:1 1162:1 1215:1 1218:1 1222:1 1224:1 1230:1 1231:1 1235:1 1242:2
1 1119:1 1162:1 1218:1 1222:1 1242:2
1 166:1 508:1 651:1 820:1 910:1 1117:1 1119:1 1162:1 1218:1 1220:1 1221:1 1222:1 1230:1 1232:1 1235:1 1236:1 1242:2
1 910:1 1119:1 1162:1 1218:1 1222:1 1230:1 1242:1
1 928:1 1240:1 1242:3
1 508:1 1162:1 1218:1 1235:1 1242:1
1 508:1 910:1 1119:1 1162:1 1218:1 1222:1 1230:1 1235:1 1242:3
1 910:1 1162:1 1218:1 1230:1 1242:3 1244:1
1 910:1 1119:1 1162:1 1218:1 1222:1 1230:1 1242:2
1 1117:1 1119:1 1162:1 1218:1 1221:1 1222:1 1242:5
1 910:1 1119:1 1162:1 1218:1 1222:1 1230:1 1242:2
1 347:1 910:1 1119:1 1162:1 1218:1 1222:1 1224:1 1230:1 1242:2
1 928:1 1240:1 1242:4
1 178:1 347:1 1119:1 1162:1 1215:1 1218:1 1222:1 1224:1 1242:2
1 347:1 910:1 1119:1 1162:1 1218:1 1222:1 1224:1 1230:1 1242:2
1 347:1 910:1 1119:1 1162:1 1218:1 1222:1 1224:1 1230:1 1242:2
1 910:1 1119:1 1162:1 1218:1 1222:1 1230:1 1242:2
1 347:1 508:1 910:1 1162:1 1218:1 1224:1 1230:1 1235:1 1242:2
1 910:1 911:1 1119:1 1162:1 1218:1 1222:1 1230:1 1231:1 1242:2
1 508:1 910:1 911:1 1119:1 1162:1 1218:1 1222:1 1230:1 1231:1 1235:1 1242:2
1 1119:1 1162:1 1218:1 1222:1 1242:2
1 1119:1 1162:1 1218:1 1222:1 1242:2
1 166:1 508:1 651:1 820:1 910:1 1117:1 1119:1 1162:1 1218:1 1220:1 1221:1 1222:1 1230:1 1232:1 1235:1 1236:1 1242:2
1 910:1 1119:1 1162:1 1218:1 1222:1 1230:1 1242:2
1 910:1 1119:1 1162:1 1218:1 1222:1 1230:1 1242:2
1 910:1 1119:1 1162:1 1218:1 1222:1 1230:1 1242:2
1 508:1 1119:1 1162:1 1218:1 1222:1 1235:1 1242:1
1 508:1 910:1 1119:1 1162:1 1218:1 1222:1 1230:1 1235:1 1242:2
1 347:1 910:1 1119:1 1162:1 1218:1 1222:1 1224:1 1230:1 1242:4 1244:1
1 508:1 910:1 1119:1 1162:1 1218:1 1222:1 1230:1 1235:1 1242:1
1 166:1 508:1 651:1 820:1 910:1 1117:1 1119:1 1162:1 1218:1 1220:1 1221:1 1222:1 1230:1 1232:1 1235:1 1236:1 1242:2
1 1119:1 1162:1 1218:1 1222:1 1242:2
1 347:1 508:1 1119:1 1162:1 1218:1 1222:1 1224:1 1235:1 1242:3
1 508:1 1119:1 1162:1 1218:1 1222:1 1235:1 1242:3
1 508:1 1119:1 1162:1 1218:1 1222:1 1235:1 1242:1
1 1119:1 1162:1 1218:1 1222:1 1242:2
1 166:1 178:1 347:1 508:1 910:1 1119:1 1162:1 1215:1 1218:1 1222:1 1224:1 1230:1 1232:1 1235:1 1242:2
1 347:1 910:1 1119:1 1162:1 1218:1 1222:1 1224:1 1230:1 1242:2
1 508:1 911:1 1119:1 1162:1 1218:1 1222:1 1231:1 1235:1 1242:2
1 347:1 910:1 1119:1 1162:1 1218:1 1222:1 1224:1 1230:1 1242:2
1 1119:1 1162:1 1218:1 1222:1 1242:2
1 508:1 1119:1 1162:1 1218:1 1222:1 1235:1 1242:1
1 1119:1 1162:1 1218:1 1222:1 1242:2
1 178:1 347:1 508:1 910:1 911:1 1119:1 1162:1 1215:1 1218:1 1222:1 1224:1 1230:1 1231:1 1235:1 1242:3
1 166:1 178:1 347:1 508:1 820:1 910:1 1119:1 1162:1 1215:1 1218:1 1220:1 1222:1 1224:1 1230:1 1232:1 1235:1 1242:4
1 508:1 1162:1 1218:1 1235:1 1242:1
1 508:1 1119:1 1162:1 1218:1 1222:1 1235:1 1242:1
1 508:1 910:1 1119:1 1162:1 1218:1 1222:1 1230:1 1235:1 1242:2
1 1162:1 1218:1 1242:3 1244:1
1 1119:1 1162:1 1218:1 1222:1 1242:2
1 347:1 911:1 1119:1 1162:1 1218:1 1222:1 1224:1 1231:1 1242:2
1 910:1 1119:1 1162:1 1218:1 1222:1 1230:1 1242:3
1 166:1 508:1 651:1 820:1 910:1 1117:1 1119:1 1162:1 1218:1 1220:1 1221:1 1222:1 1230:1 1232:1 1235:1 1236:1 1242:2
1 1119:1 1162:1 1218:1 1222:1 1242:1
1 928:1 1240:1 1242:5
1 508:1 1119:1 1162:1 1218:1 1222:1 1235:1 1242:2
1 347:1 508:1 1119:1 1162:1 1218:1 1222:1 1224:1 1235:1 1242:3
1 508:1 1119:1 1162:1 1218:1 1222:1 1235:1 1242:2
1 178:1 347:1 508:1 910:1 911:1 970:1 1119:1 1162:1 1215:1 1218:1 1222:1 1224:1 1225:1 1230:1 1231:1 1235:1 1242:2
1 508:1 1162:1 1218:1 1235:1 1242:1
1 166:1 508:1 651:1 820:1 910:1 1117:1 1119:1 1162:1 1218:1 1220:1 1221:1 1222:1 1230:1 1232:1 1235:1 1236:1 1242:2
1 911:1 1119:1 1162:1 1218:1 1222:1 1231:1 1242:1
1 347:1 910:1 1119:1 1162:1 1218:1 1222:1 1224:1 1230:1 1242:2
1 508:1 910:1 1119:1 1162:1 1218:1 1222:1 1230:1 1235:1 1242:2
1 508:1 1119:1 1162:1 1218:1 1222:1 1235:1 1242:3
1 928:1 1240:1 1242:3
1 910:1 1119:1 1162:1 1218:1 1222:1 1230:1 1242:3
1 508:1 910:1 911:1 1119:1 1162:1 1218:1 1222:1 1230:1 1231:1 1235:1 1242:2
1 910:1 1119:1 1162:1 1218:1 1222:1 1230:1 1242:2
1 1119:1 1162:1 1218:1 1222:1 1242:2
1 1119:1 1162:1 1218:1 1222:1 1242:2
1 508:1 910:1 1119:1 1162:1 1218:1 1222:1 1230:1 1235:1 1242:2
1 508:1 910:1 1119:1 1162:1 1218:1 1222:1 1230:1 1235:1 1242:2
1 508:1 1162:1 1218:1 1235:1 1242:1
1 178:1 347:1 1119:1 1162:1 1215:1 1218:1 1222:1 1224:1 1242:2
1 1119:1 1162:1 1218:1 1222:1 1242:2
1 508:1 911:1 1119:1 1162:1 1218:1 1222:1 1231:1 1235:1 1242:1
1 1119:1 1162:1 1218:1 1222:1 1242:2
1 178:1 508:1 911:1 1119:1 1162:1 1215:1 1218:1 1222:1 1231:1 1235:1 1242:2
1 1119:1 1162:1 1218:1 1222:1 1242:2
1 508:1 910:1 1119:1 1162:1 1218:1 1222:1 1230:1 1235:1 1242:2
1 508:1 911:1 1119:1 1162:1 1218:1 1222:1 1231:1 1235:1 1242:1
1 508:1 1119:1 1162:1 1218:1 1222:1 1235:1 1242:2
1 1119:1 1162:1 1218:1 1222:1 1242:3
1 1119:1 1162:1 1218:1 1222:1 1242:3
1 928:1 1240:1 1242:4
1 508:1 910:1 1162:1 1218:1 1230:1 1235:1 1242:2
1 508:1 1119:1 1162:1 1218:1 1222:1 1235:1 1242:2
1 508:1 1119:1 1162:1 1218:1 1222:1 1235:1 1242:3
1 347:1 910:1 1119:1 1162:1 1218:1 1222:1 1224:1 1230:1 1242:2
1 347:1 508:1 911:1 1119:1 1162:1 1218:1 1222:1 1224:1 1231:1 1235:1 1242:3
1 910:1 1162:1 1218:1 1230:1 1242:3
1 1119:1 1162:1 1218:1 1222:1 1242:2
1 178:1 347:1 1119:1 1162:1 1215:1 1218:1 1222:1 1224:1 1242:2
1 1162:1 1218:1 1242:3
1 1119:1 1162:1 1218:1 1222:1 1242:2
1 1119:1 1162:1 1218:1 1222:1 1242:2
1 1119:1 1162:1 1218:1 1222:1 1242:2
1 347:1 910:1 911:1 1119:1 1162:1 1218:1 1222:1 1224:1 1230:1 1231:1 1242:2
1 508:1 1119:1 1162:1 1218:1 1222:1 1235:1 1242:2
1 1162:1 1218:1 1242:3 1244:1
1 910:1 1119:1 1162:1 1218:1 1222:1 1230:1 1242:2
1 1119:1 1162:1 1218:1 1222:1 1242:2
1 508:1 1119:1 1162:1 1218:1 1222:1 1235:1 1242:2
1 178:1 508:1 911:1 1119:1 1162:1 1215:1 1218:1 1222:1 1231:1 1235:1 1242:2
1 910:1 1119:1 1162:1 1218:1 1222:1 1230:1 1242:2
1 910:1 1119:1 1162:1 1218:1 1222:1 1230:1 1242:2
1 508:1 1162:1 1218:1 1235:1 1242:2
1 1162:1 1218:1 1242:1
1 166:1 508:1 651:1 820:1 910:1 1117:1 1119:1 1162:1 1218:1 1220:1 1221:1 1222:1 1230:1 1232:1 1235:1 1236:1 1242:2
1 1162:1 1218:1 1242:1
1 178:1 347:1 910:1 1119:1 1162:1 1215:1 1218:1 1222:1 1224:1 1230:1 1242:2
1 928:1 1240:1 1242:4
1 178:1 347:1 1119:1 1162:1 1215:1 1218:1 1222:1 1224:1 1242:2
1 1119:1 1162:1 1218:1 1222:1 1242:2
1 1119:1 1162:1 1218:1 1222:1 1242:1
1 1119:1 1162:1 1218:1 1222:1 1242:2
1 1119:1 1162:1 1218:1 1222:1 1242:2
1 508:1 1119:1 1162:1 1218:1 1222:1 1235:1 1242:1
1 347:1 508:1 910:1 1119:1 1162:1 1218:1 1222:1 1224:1 1230:1 1235:1 1242:2
1 508:1 1162:1 1218:1 1235:1 1242:2
1 508:1 1119:1 1162:1 1218:1 1222:1 1235:1 1242:1
1 508:1 1119:1 1162:1 1218:1 1222:1 1235:1 1242:1
1 508:1 910:1 1162:1 1218:1 1230:1 1235:1 1242:2
1 1119:1 1162:1 1218:1 1222:1 1242:2
1 911:1 1119:1 1162:1 1218:1 1222:1 1231:1 1242:2
1 1162:1 1218:1 1242:3
1 1162:1 1218:1 1242:3
1 1119:1 1162:1 1218:1 1222:1 1242:2
1 508:1 1162:1 1218:1 1235:1 1242:2
1 910:1 1119:1 1162:1 1218:1 1222:1 1230:1 1242:2
1 1119:1 1162:1 1218:1 1222:1 1242:2
1 347:1 910:1 1119:1 1162:1 1218:1 1222:1 1224:1 1230:1 1242:2
1 508:1 910:1 1119:1 1162:1 1218:1 1222:1 1230:1 1235:1 1242:2
1 508:1 1119:1 1162:1 1218:1 1222:1 1235:1 1242:2
1 166:1 508:1 651:1 820:1 910:1 1117:1 1119:1 1162:1 1218:1 1220:1 1221:1 1222:1 1230:1 1232:1 1235:1 1236:1 1242:2
1 508:1 910:1 1119:1 1162:1 1218:1 1222:1 1230:1 1235:1 1242:2
1 508:1 911:1 1119:1 1162:1 1218:1 1222:1 1231:1 1235:1 1242:2
1 166:1 508:1 651:1 820:1 910:1 1117:1 1119:1 1162:1 1218:1 1220:1 1221:1 1222:1 1230:1 1232:1 1235:1 1236:1 1242:2
1 1119:1 1162:1 1218:1 1222:1 1242:2
1 910:1 1162:1 1218:1 1230:1 1242:2
1 1119:1 1162:1 1218:1 1222:1 1242:2
1 1242:3
1 166:1 508:1 651:1 820:1 910:1 1117:1 1119:1 1162:1 1218:1 1220:1 1221:1 1222:1 1230:1 1232:1 1235:1 1236:1 1242:2
1 178:1 347:1 508:1 910:1 1119:1 1162:1 1215:1 1218:1 1222:1 1224:1 1230:1 1235:1 1242:1
1 1119:1 1162:1 1218:1 1222:1 1242:3
1 508:1 1119:1 1162:1 1218:1 1222:1 1235:1 1242:3
1 1162:1 1218:1 1242:3
1 508:1 910:1 1119:1 1162:1 1218:1 1222:1 1230:1 1235:1 1242:1
1 1119:1 1162:1 1218:1 1222:1 1242:2
1 1119:1 1162:1 1218:1 1222:1 1242:2
1 1119:1 1162:1 1218:1 1222:1 1242:2
1 508:1 1119:1 1162:1 1218:1 1222:1 1235:1 1242:2
1 508:1 910:1 1162:1 1218:1 1230:1 1235:1 1242:2
1 166:1 508:1 651:1 820:1 910:1 1117:1 1119:1 1162:1 1218:1 1220:1 1221:1 1222:1 1230:1 1232:1 1235:1 1236:1 1242:2
1 508:1 1119:1 1162:1 1218:1 1222:1 1235:1 1242:2
1 178:1 508:1 910:1 911:1 1119:1 1162:1 1215:1 1218:1 1222:1 1230:1 1231:1 1235:1 1242:2
1 347:1 508:1 910:1 911:1 970:1 1119:1 1162:1 1218:1 1222:1 1224:1 1225:1 1230:1 1231:1 1235:1 1242:2
1 166:1 508:1 651:1 820:1 910:1 1117:1 1119:1 1162:1 1218:1 1220:1 1221:1 1222:1 1230:1 1232:1 1235:1 1236:1 1242:2
1 508:1 910:1 1119:1 1162:1 1218:1 1222:1 1230:1 1235:1 1242:1
1 508:1 1119:1 1162:1 1218:1 1222:1 1235:1 1242:1
1 347:1 910:1 1119:1 1162:1 1218:1 1222:1 1224:1 1230:1 1242:2
1 508:1 1162:1 1218:1 1235:1 1242:2
1 508:1 1119:1 1162:1 1218:1 1222:1 1235:1 1242:3 1244:1
1 178:1 508:1 1119:1 1162:1 1215:1 1218:1 1222:1 1235:1 1242:1
1 1119:1 1162:1 1218:1 1222:1 1242:3
1 508:1 910:1 1119:1 1162:1 1218:1 1222:1 1230:1 1235:1 1242:3
1 508:1 1119:1 1162:1 1218:1 1222:1 1235:1 1242:1
1 347:1 910:1 1119:1 1162:1 1218:1 1222:1 1224:1 1230:1 1242:2
1 166:1 508:1 651:1 820:1 910:1 1117:1 1119:1 1162:1 1218:1 1220:1 1221:1 1222:1 1230:1 1232:1 1235:1 1236:1 1242:2
1 910:1 1119:1 1162:1 1218:1 1222:1 1230:1 1242:2
1 178:1 347:1 508:1 910:1 1119:1 1162:1 1215:1 1218:1 1222:1 1224:1 1230:1 1235:1 1242:2
1 178:1 347:1 508:1 910:1 911:1 1119:1 1162:1 1215:1 1218:1 1222:1 1224:1 1230:1 1231:1 1235:1 1242:2
1 1119:1 1162:1 1218:1 1222:1 1242:1
1 1119:1 1162:1 1218:1 1222:1 1242:2
1 508:1 1119:1 1162:1 1218:1 1222:1 1235:1 1242:1
1 1119:1 1162:1 1218:1 1222:1 1242:2
1 508:1 1119:1 1162:1 1218:1 1222:1 1235:1 1242:2
1 910:1 1119:1 1162:1 1218:1 1222:1 1230:1 1242:1
1 928:1 1240:1 1242:4
1 928:1 1240:1 1242:4
1 178:1 347:1 1119:1 1162:1 1215:1 1218:1 1222:1 1224:1 1242:2
1 508:1 1119:1 1162:1 1218:1 1222:1 1235:1 1242:2
1 910:1 911:1 1119:1 1162:1 1218:1 1222:1 1230:1 1231:1 1242:1
1 1119:1 1162:1 1218:1 1222:1 1242:2
1 508:1 911:1 1119:1 1162:1 1218:1 1222:1 1231:1 1235:1 1242:2
1 910:1 911:1 1119:1 1162:1 1218:1 1222:1 1230:1 1231:1 1242:2
1 1119:1 1162:1 1218:1 1222:1 1242:1
1 910:1 1162:1 1218:1 1230:1 1242:3 1244:1
1 1119:1 1162:1 1218:1 1222:1 1242:2
1 1119:1 1162:1 1218:1 1222:1 1242:2
1 910:1 1119:1 1162:1 1218:1 1222:1 1230:1 1242:2
1 508:1 910:1 1119:1 1162:1 1218:1 1222:1 1230:1 1235:1 1242:1
1 166:1 508:1 651:1 820:1 910:1 1117:1 1119:1 1162:1 1218:1 1220:1 1221:1 1222:1 1230:1 1232:1 1235:1 1236:1 1242:2
1 508:1 910:1 1162:1 1218:1 1230:1 1235:1 1242:2
1 1162:1 1218:1 1242:1
1 910:1 1119:1 1162:1 1218:1 1222:1 1230:1 1242:2
1 347:1 508:1 910:1 1119:1 1162:1 1218:1 1222:1 1224:1 1230:1 1235:1 1242:2
1 347:1 910:1 1119:1 1162:1 1218:1 1222:1 1224:1 1230:1 1242:2
1 166:1 508:1 651:1 820:1 910:1 1117:1 1119:1 1162:1 1218:1 1220:1 1221:1 1222:1 1230:1 1232:1 1235:1 1236:1 1242:2
1 178:1 347:1 910:1 1119:1 1162:1 1215:1 1218:1 1222:1 1224:1 1230:1 1242:2
1 347:1 508:1 910:1 1119:1 1162:1 1218:1 1222:1 1224:1 1230:1 1235:1 1242:2
1 508:1 911:1 1119:1 1162:1 1218:1 1222:1 1231:1 1235:1 1242:2
1 910:1 1119:1 1162:1 1218:1 1222:1 1230:1 1242:2
1 166:1 508:1 651:1 820:1 910:1 1117:1 1119:1 1162:1 1218:1 1220:1 1221:1 1222:1 1230:1 1232:1 1235:1 1236:1 1242:2
1 928:1 1240:1 1242:3
1 1242:3
1 166:1 508:1 651:1 820:1 910:1 1117:1 1119:1 1162:1 1218:1 1220:1 1221:1 1222:1 1230:1 1232:1 1235:1 1236:1 1242:2
1 166:1 508:1 651:1 820:1 910:1 1117:1 1119:1 1162:1 1218:1 1220:1 1221:1 1222:1 1230:1 1232:1 1235:1 1236:1 1242:2
1 347:1 910:1 1119:1 1162:1 1218:1 1222:1 1224:1 1230:1 1242:2
1 1162:1 1218:1 1242:6
1 508:1 1119:1 1162:1 1218:1 1222:1 1235:1 1242:3
1 508:1 1119:1 1162:1 1218:1 1222:1 1235:1 1242:2
1 910:1 1119:1 1162:1 1218:1 1222:1 1230:1 1242:2
1 1162:1 1218:1 1242:2
1 910:1 1119:1 1162:1 1218:1 1222:1 1230:1 1242:2
1 1119:1 1162:1 1218:1 1222:1 1242:1
1 178:1 508:1 1162:1 1215:1 1218:1 1235:1 1242:2
1 238:1 347:1 403:1 496:1 629:1 650:1 910:1 995:1 1080:1 1119:1 1162:1 1218:1 1219:1 1222:1 1223:1 1224:1 1227:1 1230:1 1234:1 1237:1 1239:1 1241:1 1242:3
1 910:1 911:1 1119:1 1162:1 1218:1 1222:1 1230:1 1231:1 1242:2
1 178:1 508:1 911:1 1119:1 1162:1 1215:1 1218:1 1222:1 1231:1 1235:1 1242:2
1 1162:1 1218:1 1242:3 1244:1
1 347:1 911:1 1119:1 1162:1 1218:1 1222:1 1224:1 1231:1 1242:2
1 347:1 508:1 910:1 1119:1 1162:1 1218:1 1222:1 1224:1 1230:1 1235:1 1242:3
1 166:1 508:1 651:1 820:1 910:1 1117:1 1119:1 1162:1 1218:1 1220:1 1221:1 1222:1 1230:1 1232:1 1235:1 1236:1 1242:2
1 1242:3
1 178:1 508:1 911:1 1119:1 1162:1 1215:1 1218:1 1222:1 1231:1 1235:1 1242:2
1 1119:1 1162:1 1218:1 1222:1 1242:2
1 166:1 508:1 651:1 820:1 910:1 1117:1 1119:1 1162:1 1218:1 1220:1 1221:1 1222:1 1230:1 1232:1 1235:1 1236:1 1242:2
1 1119:1 1162:1 1218:1 1222:1 1242:2
1 508:1 1119:1 1162:1 1218:1 1222:1 1235:1 1242:3
1 178:1 910:1 1119:1 1162:1 1215:1 1218:1 1222:1 1230:1 1242:1
1 166:1 508:1 651:1 820:1 910:1 1117:1 1119:1 1162:1 1218:1 1220:1 1221:1 1222:1 1230:1 1232:1 1235:1 1236:1 1242:2
1 508:1 910:1 1119:1 1162:1 1218:1 1222:1 1230:1 1235:1 1242:2
1 347:1 910:1 1119:1 1162:1 1218:1 1222:1 1224:1 1230:1 1242:2
1 347:1 508:1 911:1 1119:1 1162:1 1218:1 1222:1 1224:1 1231:1 1235:1 1242:3
1 1119:1 1162:1 1218:1 1222:1 1242:2
1 347:1 910:1 1119:1 1162:1 1218:1 1222:1 1224:1 1230:1 1242:2
1 910:1 911:1 1119:1 1162:1 1218:1 1222:1 1230:1 1231:1 1242:1
1 911:1 1119:1 1162:1 1218:1 1222:1 1231:1 1242:2
1 1119:1 1162:1 1218:1 1222:1 1242:2
1 508:1 1119:1 1162:1 1218:1 1222:1 1235:1 1242:1
1 178:1 347:1 1119:1 1162:1 1215:1 1218:1 1222:1 1224:1 1242:2
1 347:1 910:1 1119:1 1162:1 1218:1 1222:1 1224:1 1230:1 1242:2
1 178:1 508:1 1119:1 1162:1 1215:1 1218:1 1222:1 1235:1 1242:2
1 910:1 1119:1 1162:1 1218:1 1222:1 1230:1 1242:1
1 508:1 1162:1 1218:1 1235:1 1242:1
1 347:1 508:1 910:1 1119:1 1162:1 1218:1 1222:1 1224:1 1230:1 1235:1 1242:2
1 911:1 970:1 1119:1 1162:1 1218:1 1222:1 1225:1 1231:1 1242:2
1 508:1 1162:1 1218:1 1235:1 1242:2
1 178:1 1119:1 1162:1 1215:1 1218:1 1222:1 1242:2
1 508:1 910:1 1119:1 1162:1 1218:1 1222:1 1230:1 1235:1 1242:3
1 1119:1 1162:1 1218:1 1222:1 1242:2
1 1119:1 1162:1 1218:1 1222:1 1242:2
1 347:1 910:1 1119:1 1162:1 1218:1 1222:1 1224:1 1230:1 1242:2
1 1119:1 1162:1 1218:1 1222:1 1242:2
1 508:1 1119:1 1162:1 1218:1 1222:1 1235:1 1242:1
1 1119:1 1162:1 1218:1 1222:1 1242:2
1 508:1 1119:1 1162:1 1218:1 1222:1 1235:1 1242:2
1 166:1 508:1 651:1 820:1 910:1 1117:1 1119:1 1162:1 1218:1 1220:1 1221:1 1222:1 1230:1 1232:1 1235:1 1236:1 1242:2
1 508:1 910:1 1162:1 1218:1 1230:1 1235:1 1242:2
1 508:1 1119:1 1162:1 1218:1 1222:1 1235:1 1242:1
1 508:1 911:1 1119:1 1162:1 1218:1 1222:1 1231:1 1235:1 1242:2
1 1119:1 1162:1 1218:1 1222:1 1242:2
1 910:1 1162:1 1218:1 1230:1 1242:2
1 178:1 508:1 910:1 1119:1 1162:1 1215:1 1218:1 1222:1 1230:1 1235:1 1242:2
1 508:1 910:1 1119:1 1162:1 1218:1 1222:1 1230:1 1235:1 1242:2
1 1162:1 1218:1 1242:3 1244:1
1 1119:1 1162:1 1218:1 1222:1 1242:2
1 1119:1 1162:1 1218:1 1222:1 1242:2
1 910:1 1119:1 1162:1 1218:1 1222:1 1230:1 1242:2
1 1119:1 1162:1 1218:1 1222:1 1242:2
1 1162:1 1218:1 1242:3
1 508:1 910:1 1119:1 1162:1 1218:1 1222:1 1230:1 1235:1 1242:1
1 178:1 1119:1 1162:1 1215:1 1218:1 1222:1 1242:2
1 1119:1 1162:1 1218:1 1222:1 1242:2
1 1119:1 1162:1 1218:1 1222:1 1242:2
1 910:1 1162:1 1218:1 1230:1 1242:2
1 1119:1 1162:1 1218:1 1222:1 1242:2
1 1119:1 1162:1 1218:1 1222:1 1242:2
1 508:1 910:1 1119:1 1162:1 1218:1 1222:1 1230:1 1235:1 1242:3
1 508:1 1119:1 1162:1 1218:1 1222:1 1235:1 1242:1
1 1162:1 1218:1 1242:3 1244:1
1 1119:1 1162:1 1218:1 1222:1 1242:2
1 1119:1 1162:1 1218:1 1222:1 1242:1
1 910:1 1119:1 1162:1 1218:1 1222:1 1230:1 1242:2
1 178:1 508:1 1119:1 1162:1 1215:1 1218:1 1222:1 1235:1 1242:1
1 508:1 1162:1 1218:1 1235:1 1242:2
1 1119:1 1162:1 1218:1 1222:1 1242:2
1 1119:1 1162:1 1218:1 1222:1 1242:2
1 508:1 1119:1 1162:1 1218:1 1222:1 1235:1 1242:2
1 508:1 910:1 1119:1 1162:1 1218:1 1222:1 1230:1 1235:1 1242:3
1 347:1 910:1 1119:1 1162:1 1218:1 1222:1 1224:1 1230:1 1242:2
1 508:1 1119:1 1162:1 1218:1 1222:1 1235:1 1242:1
1 910:1 1119:1 1162:1 1218:1 1222:1 1230:1 1242:1
1 508:1 1119:1 1162:1 1218:1 1222:1 1235:1 1242:2
1 508:1 1119:1 1162:1 1218:1 1222:1 1235:1 1242:1
1 508:1 910:1 970:1 1119:1 1162:1 1218:1 1222:1 1225:1 1230:1 1235:1 1242:3
1 178:1 347:1 1119:1 1162:1 1215:1 1218:1 1222:1 1224:1 1242:2
1 178:1 347:1 508:1 910:1 911:1 1119:1 1162:1 1215:1 1218:1 1222:1 1224:1 1230:1 1231:1 1235:1 1242:3
1 178:1 347:1 508:1 910:1 911:1 1119:1 1162:1 1215:1 1218:1 1222:1 1224:1 1230:1 1231:1 1235:1 1242:2
1 1162:1 1218:1 1242:3 1244:1
1 178:1 347:1 1119:1 1162:1 1215:1 1218:1 1222:1 1224:1 1242:2
1 508:1 910:1 1119:1 1162:1 1218:1 1222:1 1230:1 1235:1 1242:3
1 508:1 911:1 1162:1 1218:1 1231:1 1235:1 1242:2
1 508:1 1162:1 1218:1 1235:1 1242:2
1 508:1 911:1 1119:1 1162:1 1218:1 1222:1 1231:1 1235:1 1242:2
1 508:1 910:1 1119:1 1162:1 1218:1 1222:1 1230:1 1235:1 1242:3
1 166:1 508:1 651:1 820:1 910:1 1117:1 1119:1 1162:1 1218:1 1220:1 1221:1 1222:1 1230:1 1232:1 1235:1 1236:1 1242:2
1 910:1 1119:1 1162:1 1218:1 1222:1 1230:1 1242:2
1 508:1 1119:1 1162:1 1218:1 1222:1 1235:1 1242:2
1 508:1 910:1 1119:1 1162:1 1218:1 1222:1 1230:1 1235:1 1242:2
1 1242:3
1 1119:1 1162:1 1218:1 1222:1 1242:2
1 508:1 911:1 1162:1 1218:1 1231:1 1235:1 1242:2
1 928:1 1240:1 1242:4
1 1119:1 1162:1 1218:1 1222:1 1242:2
1 178:1 347:1 910:1 1119:1 1162:1 1215:1 1218:1 1222:1 1224:1 1230:1 1242:2
1 508:1 910:1 911:1 1119:1 1162:1 1218:1 1222:1 1230:1 1231:1 1235:1 1242:2
1 347:1 508:1 1119:1 1162:1 1218:1 1222:1 1224:1 1235:1 1242:2
1 347:1 509:1 1162:1 1218:1 1224:1 1238:1 1242:1
1 910:1 911:1 1119:1 1162:1 1218:1 1222:1 1230:1 1231:1 1242:1
1 347:1 910:1 911:1 1119:1 1162:1 1218:1 1222:1 1224:1 1230:1 1231:1 1242:2
1 1119:1 1162:1 1218:1 1222:1 1242:2
1 928:1 1240:1 1242:3
1 508:1 1119:1 1162:1 1218:1 1222:1 1235:1 1242:1
1 178:1 347:1 508:1 910:1 911:1 1119:1 1162:1 1215:1 1218:1 1222:1 1224:1 1230:1 1231:1 1235:1 1242:2
1 508:1 1119:1 1162:1 1218:1 1222:1 1235:1 1242:2
1 910:1 1119:1 1162:1 1218:1 1222:1 1230:1 1242:3
1 1162:1 1218:1 1242:3
1 508:1 911:1 1119:1 1162:1 1218:1 1222:1 1231:1 1235:1 1242:2
1 178:1 508:1 910:1 911:1 1119:1 1162:1 1215:1 1218:1 1222:1 1230:1 1231:1 1235:1 1242:2
1 178:1 347:1 1119:1 1162:1 1215:1 1218:1 1222:1 1224:1 1242:2
1 1119:1 1162:1 1218:1 1222:1 1242:2
1 928:1 1240:1 1242:4
1 347:1 910:1 911:1 1119:1 1162:1 1218:1 1222:1 1224:1 1230:1 1231:1 1242:3
1 911:1 1119:1 1162:1 1218:1 1222:1 1231:1 1242:2
1 1162:1 1218:1 1242:3 1244:1
1 1119:1 1162:1 1218:1 1222:1 1242:2
1 508:1 1119:1 1162:1 1218:1 1222:1 1235:1 1242:2
1 1162:1 1218:1 1242:3
1 508:1 1162:1 1218:1 1235:1 1242:1
1 910:1 911:1 1119:1 1162:1 1218:1 1222:1 1230:1 1231:1 1242:2
1 1119:1 1162:1 1218:1 1222:1 1242:1
1 178:1 508:1 910:1 1119:1 1162:1 1215:1 1218:1 1222:1 1230:1 1235:1 1242:2
1 1119:1 1162:1 1218:1 1222:1 1242:2
1 508:1 1119:1 1162:1 1218:1 1222:1 1235:1 1242:2
1 1242:3
1 347:1 910:1 1119:1 1162:1 1218:1 1222:1 1224:1 1230:1 1242:2
1 178:1 347:1 508:1 910:1 911:1 1119:1 1162:1 1215:1 1218:1 1222:1 1224:1 1230:1 1231:1 1235:1 1242:2
1 178:1 347:1 508:1 910:1 911:1 1119:1 1162:1 1215:1 1218:1 1222:1 1224:1 1230:1 1231:1 1235:1 1242:1
1 347:1 508:1 1119:1 1162:1 1218:1 1222:1 1224:1 1235:1 1242:2
1 166:1 178:1 347:1 508:1 910:1 1119:1 1162:1 1215:1 1218:1 1222:1 1224:1 1230:1 1232:1 1235:1 1242:4
1 910:1 1119:1 1162:1 1218:1 1222:1 1230:1 1242:2
1 166:1 508:1 651:1 820:1 910:1 1117:1 1119:1 1162:1 1218:1 1220:1 1221:1 1222:1 1230:1 1232:1 1235:1 1236:1 1242:2
1 178:1 347:1 1119:1 1162:1 1215:1 1218:1 1222:1 1224:1 1242:2
1 910:1 911:1 1119:1 1162:1 1218:1 1222:1 1230:1 1231:1 1242:1
1 508:1 1119:1 1162:1 1218:1 1222:1 1235:1 1242:1
1 508:1 1119:1 1162:1 1218:1 1222:1 1235:1 1242:2
1 347:1 508:1 910:1 1119:1 1162:1 1218:1 1222:1 1224:1 1230:1 1235:1 1242:2
1 1119:1 1162:1 1218:1 1222:1 1242:2
1 508:1 1119:1 1162:1 1218:1 1222:1 1235:1 1242:1
1 1119:1 1162:1 1218:1 1222:1 1242:2
1 166:1 508:1 651:1 820:1 910:1 1117:1 1119:1 1162:1 1218:1 1220:1 1221:1 1222:1 1230:1 1232:1 1235:1 1236:1 1242:2
1 508:1 910:1 1119:1 1162:1 1218:1 1222:1 1230:1 1235:1 1242:1
1 347:1 508:1 910:1 1119:1 1162:1 1218:1 1222:1 1224:1 1230:1 1235:1 1242:3
1 508:1 1162:1 1218:1 1235:1 1242:2
1 178:1 347:1 910:1 1119:1 1162:1 1215:1 1218:1 1222:1 1224:1 1230:1 1242:2
1 508:1 910:1 911:1 1119:1 1162:1 1218:1 1222:1 1230:1 1231:1 1235:1 1242:2
1 910:1 1119:1 1162:1 1218:1 1222:1 1230:1 1242:2
1 508:1 910:1 911:1 1119:1 1162:1 1218:1 1222:1 1230:1 1231:1 1235:1 1242:1
1 166:1 508:1 651:1 820:1 910:1 1117:1 1119:1 1162:1 1218:1 1220:1 1221:1 1222:1 1230:1 1232:1 1235:1 1236:1 1242:2
1 910:1 1119:1 1162:1 1218:1 1222:1 1230:1 1242:2
1 347:1 508:1 910:1 911:1 1162:1 1218:1 1224:1 1230:1 1231:1 1235:1 1242:2
1 928:1 1240:1 1242:4
1 508:1 910:1 1119:1 1162:1 1218:1 1222:1 1230:1 1235:1 1242:3
1 347:1 508:1 910:1 1119:1 1162:1 1218:1 1222:1 1224:1 1230:1 1235:1 1242:2
1 1119:1 1162:1 1218:1 1222:1 1242:2
1 910:1 1119:1 1162:1 1218:1 1222:1 1230:1 1242:2
1 1119:1 1162:1 1218:1 1222:1 1242:2
1 910:1 1058:1 1162:1 1218:1 1228:1 1230:1 1242:2
1 1242:3
1 1119:1 1162:1 1218:1 1222:1 1242:2
1 910:1 911:1 1119:1 1162:1 1218:1 1222:1 1230:1 1231:1 1242:1
1 347:1 508:1 910:1 1119:1 1162:1 1218:1 1222:1 1224:1 1230:1 1235:1 1242:3
1 910:1 1119:1 1162:1 1218:1 1222:1 1230:1 1242:2
1 508:1 910:1 1119:1 1162:1 1218:1 1222:1 1230:1 1235:1 1242:3
1 508:1 910:1 1162:1 1218:1 1230:1 1235:1 1242:2
1 1242:3
1 1119:1 1162:1 1218:1 1222:1 1242:2
1 166:1 508:1 651:1 820:1 910:1 1117:1 1119:1 1162:1 1218:1 1220:1 1221:1 1222:1 1230:1 1232:1 1235:1 1236:1 1242:2
1 347:1 508:1 910:1 911:1 1162:1 1218:1 1224:1 1230:1 1231:1 1235:1 1242:1
1 508:1 910:1 911:1 1119:1 1162:1 1218:1 1222:1 1230:1 1231:1 1235:1 1242:4
1 508:1 910:1 1119:1 1162:1 1218:1 1222:1 1230:1 1235:1 1242:2
1 347:1 910:1 1119:1 1162:1 1218:1 1222:1 1224:1 1230:1 1242:2
1 508:1 1119:1 1162:1 1218:1 1222:1 1235:1 1242:2
1 1119:1 1162:1 1218:1 1222:1 1242:1
1 1119:1 1162:1 1218:1 1222:1 1242:2
1 178:1 347:1 508:1 910:1 1119:1 1162:1 1215:1 1218:1 1222:1 1224:1 1230:1 1235:1 1242:1
1 178:1 508:1 910:1 1162:1 1215:1 1218:1 1230:1 1235:1 1242:2
1 508:1 1162:1 1218:1 1235:1 1242:2
1 910:1 1119:1 1162:1 1218:1 1222:1 1230:1 1242:1
1 347:1 910:1 911:1 970:1 1119:1 1162:1 1218:1 1222:1 1224:1 1225:1 1230:1 1231:1 1242:3
1 508:1 910:1 1119:1 1162:1 1218:1 1222:1 1230:1 1235:1 1242:2
1 910:1 1119:1 1162:1 1218:1 1222:1 1230:1 1242:2
1 347:1 508:1 910:1 1119:1 1162:1 1218:1 1222:1 1224:1 1230:1 1235:1 1242:2
1 508:1 1119:1 1162:1 1218:1 1222:1 1235:1 1242:1
1 1119:1 1162:1 1218:1 1222:1 1242:2
1 1119:1 1162:1 1218:1 1222:1 1242:2
1 508:1 910:1 1119:1 1162:1 1218:1 1222:1 1230:1 1235:1 1242:2
1 928:1 1240:1 1242:5
1 911:1 1162:1 1218:1 1231:1 1242:2
1 508:1 1119:1 1162:1 1218:1 1222:1 1235:1 1242:4
1 1119:1 1162:1 1218:1 1222:1 1242:1
1 178:1 347:1 508:1 910:1 911:1 1119:1 1162:1 1215:1 1218:1 1222:1 1224:1 1230:1 1231:1 1235:1 1242:2
1 178:1 347:1 910:1 1119:1 1162:1 1215:1 1218:1 1222:1 1224:1 1230:1 1242:2
1 508:1 910:1 1162:1 1218:1 1230:1 1235:1 1242:2
1 1119:1 1162:1 1218:1 1222:1 1242:2
1 1119:1 1162:1 1218:1 1222:1 1242:2
1 178:1 508:1 910:1 911:1 1119:1 1162:1 1215:1 1218:1 1222:1 1230:1 1231:1 1235:1 1242:2
1 178:1 1119:1 1162:1 1215:1 1218:1 1222:1 1242:2
1 910:1 1162:1 1218:1 1230:1 1242:3
1 508:1 1119:1 1162:1 1218:1 1222:1 1235:1 1242:2
1 1119:1 1162:1 1218:1 1222:1 1242:2
1 508:1 911:1 1119:1 1162:1 1218:1 1222:1 1231:1 1235:1 1242:2
1 508:1 1119:1 1162:1 1218:1 1222:1 1235:1 1242:2
1 508:1 910:1 1162:1 1218:1 1230:1 1235:1 1242:2
1 178:1 508:1 1119:1 1162:1 1215:1 1218:1 1222:1 1235:1 1242:2
1 347:1 508:1 910:1 1119:1 1162:1 1218:1 1222:1 1224:1 1230:1 1235:1 1242:1
1 1119:1 1162:1 1218:1 1222:1 1242:1
1 1119:1 1162:1 1218:1 1222:1 1242:2
1 928:1 1240:1 1242:4
1 347:1 508:1 1119:1 1162:1 1218:1 1222:1 1224:1 1235:1 1242:3
1 1119:1 1162:1 1218:1 1222:1 1242:2
1 508:1 1119:1 1162:1 1218:1 1222:1 1235:1 1242:1
1 508:1 910:1 970:1 1119:1 1162:1 1218:1 1222:1 1225:1 1230:1 1235:1 1242:3
1 120:1 238:1 347:1 403:1 496:1 629:1 650:1 910:1 1080:1 1119:1 1162:1 1216:1 1218:1 1219:1 1222:1 1223:1 1224:1 1227:1 1230:1 1234:1 1237:1 1241:1 1242:3
1 347:1 508:1 1119:1 1162:1 1218:1 1222:1 1224:1 1235:1 1242:2
1 347:1 508:1 910:1 1119:1 1162:1 1218:1 1222:1 1224:1 1230:1 1235:1 1242:1
1 1119:1 1162:1 1218:1 1222:1 1242:2
1 910:1 1119:1 1162:1 1218:1 1222:1 1230:1 1242:2
1 1119:1 1162:1 1218:1 1222:1 1242:2
1 508:1 1119:1 1162:1 1218:1 1222:1 1235:1 1242:2
1 508:1 911:1 1119:1 1162:1 1218:1 1222:1 1231:1 1235:1 1242:2
1 347:1 910:1 1119:1 1162:1 1218:1 1222:1 1224:1 1230:1 1242:3
1 347:1 910:1 911:1 1119:1 1162:1 1218:1 1222:1 1224:1 1230:1 1231:1 1242:2
1 1162:1 1218:1 1242:1
1 508:1 1119:1 1162:1 1218:1 1222:1 1235:1 1242:1
1 166:1 508:1 651:1 820:1 910:1 1117:1 1119:1 1162:1 1218:1 1220:1 1221:1 1222:1 1230:1 1232:1 1235:1 1236:1 1242:2
1 178:1 508:1 1119:1 1162:1 1215:1 1218:1 1222:1 1235:1 1242:1
1 910:1 1119:1 1162:1 1218:1 1222:1 1230:1 1242:3
1 1119:1 1162:1 1218:1 1222:1 1242:2
1 347:1 508:1 910:1 1119:1 1162:1 1218:1 1222:1 1224:1 1230:1 1235:1 1242:2
1 1242:3
1 1119:1 1162:1 1218:1 1222:1 1242:2
1 1242:3
1 910:1 1119:1 1162:1 1218:1 1222:1 1230:1 1242:2
1 508:1 1119:1 1162:1 1218:1 1222:1 1235:1 1242:2
1 178:1 910:1 1119:1 1162:1 1215:1 1218:1 1222:1 1230:1 1242:1
1 1119:1 1162:1 1218:1 1222:1 1242:2
1 508:1 910:1 1119:1 1162:1 1218:1 1222:1 1230:1 1235:1 1242:3
1 166:1 508:1 651:1 820:1 910:1 1117:1 1119:1 1162:1 1218:1 1220:1 1221:1 1222:1 1230:1 1232:1 1235:1 1236:1 1242:2
1 910:1 911:1 1119:1 1162:1 1218:1 1222:1 1230:1 1231:1 1242:2
1 347:1 508:1 910:1 911:1 970:1 1119:1 1162:1 1218:1 1222:1 1224:1 1225:1 1230:1 1231:1 1235:1 1242:3
1 910:1 1119:1 1162:1 1218:1 1222:1 1230:1 1242:2
1 347:1 1119:1 1162:1 1218:1 1222:1 1224:1 1242:2
1 508:1 1119:1 1162:1 1218:1 1222:1 1235:1 1242:1
1 910:1 1119:1 1162:1 1218:1 1222:1 1230:1 1242:1
1 508:1 1119:1 1162:1 1218:1 1222:1 1235:1 1242:3
1 178:1 508:1 910:1 911:1 1119:1 1162:1 1215:1 1218:1 1222:1 1230:1 1231:1 1235:1 1242:2
1 1162:1 1218:1 1242:3
1 508:1 1119:1 1162:1 1218:1 1222:1 1235:1 1242:2
1 910:1 1119:1 1162:1 1218:1 1222:1 1230:1 1242:2
1 347:1 508:1 1119:1 1162:1 1218:1 1222:1 1224:1 1235:1 1242:3
1 1119:1 1162:1 1218:1 1222:1 1242:2
1 910:1 911:1 1119:1 1162:1 1218:1 1222:1 1230:1 1231:1 1242:2
1 1119:1 1162:1 1218:1 1222:1 1242:3
1 347:1 910:1 1119:1 1162:1 1218:1 1222:1 1224:1 1230:1 1242:2
1 1162:1 1218:1 1242:3
1 1162:1 1218:1 1242:3
1 1119:1 1162:1 1218:1 1222:1 1242:2
1 508:1 1162:1 1218:1 1235:1 1242:2
1 1119:1 1162:1 1218:1 1222:1 1242:2
1 166:1 508:1 651:1 820:1 910:1 1117:1 1119:1 1162:1 1218:1 1220:1 1221:1 1222:1 1230:1 1232:1 1235:1 1236:1 1242:2
1 508:1 1119:1 1162:1 1218:1 1222:1 1235:1 1242:2
1 166:1 508:1 651:1 820:1 910:1 1117:1 1119:1 1162:1 1218:1 1220:1 1221:1 1222:1 1230:1 1232:1 1235:1 1236:1 1242:2
1 1119:1 1162:1 1218:1 1222:1 1242:2
1 508:1 910:1 1119:1 1162:1 1218:1 1222:1 1230:1 1235:1 1242:1
1 1119:1 1162:1 1218:1 1222:1 1242:3
1 347:1 910:1 1119:1 1162:1 1218:1 1222:1 1224:1 1230:1 1242:2
1 508:1 910:1 1162:1 1218:1 1230:1 1235:1 1242:2
1 1119:1 1162:1 1218:1 1222:1 1242:2
1 508:1 1162:1 1218:1 1235:1 1242:2
1 1119:1 1162:1 1218:1 1222:1 1242:2
1 508:1 1119:1 1162:1 1218:1 1222:1 1235:1 1242:1
1 1242:3
1 910:1 1119:1 1162:1 1218:1 1222:1 1230:1 1242:3
1 508:1 1162:1 1218:1 1235:1 1242:2
1 928:1 1240:1 1242:3
1 238:1 347:1 403:1 496:1 629:1 650:1 910:1 995:1 1080:1 1162:1 1218:1 1219:1 1223:1 1224:1 1227:1 1230:1 1234:1 1237:1 1239:1 1241:1 1242:4
1 508:1 911:1 1119:1 1162:1 1218:1 1222:1 1231:1 1235:1 1242:2
1 910:1 1119:1 1162:1 1218:1 1222:1 1230:1 1242:2
1 1119:1 1162:1 1218:1 1222:1 1242:3
1 166:1 508:1 651:1 820:1 910:1 1117:1 1119:1 1162:1 1218:1 1220:1 1221:1 1222:1 1230:1 1232:1 1235:1 1236:1 1242:2
1 166:1 508:1 651:1 820:1 910:1 1117:1 1119:1 1162:1 1218:1 1220:1 1221:1 1222:1 1230:1 1232:1 1235:1 1236:1 1242:2
1 1119:1 1162:1 1218:1 1222:1 1242:2
1 928:1 1240:1 1242:4
1 910:1 1119:1 1162:1 1218:1 1222:1 1230:1 1242:2
1 1119:1 1162:1 1218:1 1222:1 1242:1
1 928:1 1240:1 1242:4
1 928:1 1240:1 1242:4
1 1119:1 1162:1 1218:1 1222:1 1242:2
1 347:1 508:1 910:1 1119:1 1162:1 1218:1 1222:1 1224:1 1230:1 1235:1 1242:2
1 910:1 1119:1 1162:1 1218:1 1222:1 1230:1 1242:2
1 970:1 1119:1 1162:1 1218:1 1222:1 1225:1 1242:2
1 178:1 508:1 910:1 1162:1 1215:1 1218:1 1230:1 1235:1 1242:2
1 178:1 347:1 910:1 1119:1 1162:1 1215:1 1218:1 1222:1 1224:1 1230:1 1242:2
1 166:1 508:1 651:1 820:1 910:1 1117:1 1119:1 1162:1 1218:1 1220:1 1221:1 1222:1 1230:1 1232:1 1235:1 1236:1 1242:2
1 1162:1 1218:1 1242:1
1 347:1 508:1 910:1 911:1 1162:1 1218:1 1224:1 1230:1 1231:1 1235:1 1242:2
1 1119:1 1162:1 1218:1 1222:1 1242:2
1 508:1 911:1 1119:1 1162:1 1218:1 1222:1 1231:1 1235:1 1242:1
1 347:1 910:1 1119:1 1162:1 1218:1 1222:1 1224:1 1230:1 1242:2
1 1119:1 1162:1 1218:1 1222:1 1242:3
1 508:1 910:1 1119:1 1162:1 1218:1 1222:1 1230:1 1235:1 1242:2
1 910:1 911:1 1119:1 1162:1 1218:1 1222:1 1230:1 1231:1 1242:2
1 910:1 1119:1 1162:1 1218:1 1222:1 1230:1 1242:2
1 166:1 508:1 651:1 820:1 910:1 1117:1 1119:1 1162:1 1218:1 1220:1 1221:1 1222:1 1230:1 1232:1 1235:1 1236:1 1242:2
1 1119:1 1162:1 1218:1 1222:1 1242:2
1 508:1 910:1 1162:1 1218:1 1230:1 1235:1 1242:2
1 508:1 910:1 1162:1 1218:1 1230:1 1235:1 1242:2
1 508:1 911:1 970:1 1119:1 1162:1 1218:1 1222:1 1225:1 1231:1 1235:1 1242:3
1 1119:1 1162:1 1218:1 1222:1 1242:2
1 508:1 910:1 911:1 1119:1 1162:1 1218:1 1222:1 1230:1 1231:1 1235:1 1242:2
1 508:1 1119:1 1162:1 1218:1 1222:1 1235:1 1242:1
1 347:1 508:1 910:1 1119:1 1162:1 1218:1 1222:1 1224:1 1230:1 1235:1 1242:2
1 508:1 1119:1 1162:1 1218:1 1222:1 1235:1 1242:1
1 1119:1 1162:1 1218:1 1222:1 1242:2
1 178:1 347:1 1119:1 1162:1 1215:1 1218:1 1222:1 1224:1 1242:2
1 928:1 1240:1 1242:4
1 1119:1 1162:1 1218:1 1222:1 1242:2
1 166:1 508:1 651:1 820:1 910:1 1117:1 1119:1 1162:1 1218:1 1220:1 1221:1 1222:1 1230:1 1232:1 1235:1 1236:1 1242:2
1 508:1 910:1 1119:1 1162:1 1218:1 1222:1 1230:1 1235:1 1242:1
1 508:1 910:1 1119:1 1162:1 1218:1 1222:1 1230:1 1235:1 1242:3
1 347:1 1119:1 1162:1 1218:1 1222:1 1224:1 1242:2
1 508:1 1119:1 1162:1 1218:1 1222:1 1235:1 1242:1
1 347:1 508:1 910:1 1119:1 1162:1 1218:1 1222:1 1224:1 1230:1 1235:1 1242:2
1 508:1 1119:1 1162:1 1218:1 1222:1 1235:1 1242:2
1 347:1 910:1 1119:1 1162:1 1218:1 1222:1 1224:1 1230:1 1242:2
1 166:1 508:1 651:1 820:1 910:1 1117:1 1119:1 1162:1 1218:1 1220:1 1221:1 1222:1 1230:1 1232:1 1235:1 1236:1 1242:4
1 178:1 347:1 1162:1 1215:1 1218:1 1224:1 1242:2
1 508:1 910:1 911:1 1119:1 1162:1 1218:1 1222:1 1230:1 1231:1 1235:1 1242:1
1 347:1 508:1 910:1 911:1 970:1 1119:1 1162:1 1218:1 1222:1 1224:1 1225:1 1230:1 1231:1 1235:1 1242:2
1 178:1 347:1 508:1 910:1 911:1 1119:1 1162:1 1215:1 1218:1 1222:1 1224:1 1230:1 1231:1 1235:1 1242:2
1 1119:1 1162:1 1218:1 1222:1 1242:2
1 347:1 910:1 1119:1 1162:1 1218:1 1222:1 1224:1 1230:1 1242:2
1 508:1 1162:1 1218:1 1235:1 1242:2
1 1119:1 1162:1 1218:1 1222:1 1242:2
1 508:1 1119:1 1162:1 1218:1 1222:1 1235:1 1242:2
1 508:1 1119:1 1162:1 1218:1 1222:1 1235:1 1242:2
1 910:1 1119:1 1162:1 1218:1 1222:1 1230:1 1242:2
1 1119:1 1162:1 1218:1 1222:1 1242:2
1 1119:1 1162:1 1218:1 1222:1 1242:2
1 508:1 910:1 1119:1 1162:1 1218:1 1222:1 1230:1 1235:1 1242:2
1 1119:1 1162:1 1218:1 1222:1 1242:2
1 178:1 508:1 1119:1 1162:1 1215:1 1218:1 1222:1 1235:1 1242:2
1 347:1 508:1 910:1 1119:1 1162:1 1218:1 1222:1 1224:1 1230:1 1235:1 1242:2
1 178:1 508:1 910:1 911:1 1119:1 1162:1 1215:1 1218:1 1222:1 1230:1 1231:1 1235:1 1242:2
1 178:1 508:1 911:1 1119:1 1162:1 1215:1 1218:1 1222:1 1231:1 1235:1 1242:2
1 1162:1 1218:1 1242:3
1 910:1 1119:1 1162:1 1218:1 1222:1 1230:1 1242:4
1 910:1 1162:1 1218:1 1230:1 1242:3 1244:1
1 178:1 347:1 508:1 910:1 1119:1 1162:1 1215:1 1218:1 1222:1 1224:1 1230:1 1235:1 1242:2
1 508:1 910:1 1119:1 1162:1 1218:1 1222:1 1230:1 1235:1 1242:1
1 508:1 910:1 1119:1 1162:1 1218:1 1222:1 1230:1 1235:1 1242:3
1 508:1 1119:1 1162:1 1218:1 1222:1 1235:1 1242:1
1 508:1 1119:1 1162:1 1218:1 1222:1 1235:1 1242:1
1 1119:1 1162:1 1218:1 1222:1 1242:1
1 166:1 508:1 651:1 820:1 910:1 1117:1 1119:1 1162:1 1218:1 1220:1 1221:1 1222:1 1230:1 1232:1 1235:1 1236:1 1242:2
1 347:1 508:1 910:1 1119:1 1162:1 1218:1 1222:1 1224:1 1230:1 1235:1 1242:3
1 1162:1 1218:1 1242:2
1 910:1 1119:1 1162:1 1218:1 1222:1 1230:1 1242:2
1 910:1 1119:1 1162:1 1218:1 1222:1 1230:1 1242:3
1 178:1 1119:1 1162:1 1215:1 1218:1 1222:1 1242:2
1 508:1 910:1 1119:1 1162:1 1218:1 1222:1 1230:1 1235:1 1242:2
1 910:1 1119:1 1162:1 1218:1 1222:1 1230:1 1242:1
1 1119:1 1162:1 1218:1 1222:1 1242:2
1 910:1 1119:1 1162:1 1218:1 1222:1 1230:1 1242:2
1 508:1 910:1 1119:1 1162:1 1218:1 1222:1 1230:1 1235:1 1242:1
1 347:1 508:1 910:1 1119:1 1162:1 1218:1 1222:1 1224:1 1230:1 1235:1 1242:1
1 910:1 1119:1 1162:1 1218:1 1222:1 1230:1 1242:2
1 1119:1 1162:1 1218:1 1222:1 1242:2
1 1119:1 1162:1 1218:1 1222:1 1242:3
1 1119:1 1162:1 1218:1 1222:1 1242:1
1 1119:1 1162:1 1218:1 1222:1 1242:2
1 1119:1 1162:1 1218:1 1222:1 1242:1
1 166:1 508:1 651:1 820:1 910:1 1117:1 1119:1 1162:1 1218:1 1220:1 1221:1 1222:1 1230:1 1232:1 1235:1 1236:1 1242:2
1 166:1 508:1 651:1 820:1 910:1 1117:1 1119:1 1162:1 1218:1 1220:1 1221:1 1222:1 1230:1 1232:1 1235:1 1236:1 1242:2
1 347:1 508:1 910:1 1119:1 1162:1 1218:1 1222:1 1224:1 1230:1 1235:1 1242:1
1 1119:1 1162:1 1218:1 1222:1 1242:2
1 508:1 1119:1 1162:1 1218:1 1222:1 1235:1 1242:4
1 910:1 1119:1 1162:1 1218:1 1222:1 1230:1 1242:2
1 166:1 508:1 651:1 820:1 910:1 1117:1 1119:1 1162:1 1218:1 1220:1 1221:1 1222:1 1230:1 1232:1 1235:1 1236:1 1242:2
1 1119:1 1162:1 1218:1 1222:1 1242:2
1 347:1 1119:1 1162:1 1218:1 1222:1 1224:1 1242:2
1 928:1 1240:1 1242:4
1 166:1 508:1 651:1 820:1 910:1 1117:1 1119:1 1162:1 1218:1 1220:1 1221:1 1222:1 1230:1 1232:1 1235:1 1236:1 1242:2
1 347:1 508:1 910:1 1119:1 1162:1 1218:1 1222:1 1224:1 1230:1 1235:1 1242:2
1 1162:1 1218:1 1242:3
1 166:1 508:1 651:1 820:1 910:1 1117:1 1119:1 1162:1 1218:1 1220:1 1221:1 1222:1 1230:1 1232:1 1235:1 1236:1 1242:2
1 347:1 910:1 1119:1 1162:1 1218:1 1222:1 1224:1 1230:1 1242:2
1 508:1 910:1 1119:1 1162:1 1218:1 1222:1 1230:1 1235:1 1242:3
1 347:1 508:1 1162:1 1218:1 1224:1 1235:1 1242:5 1244:1
1 178:1 347:1 508:1 910:1 911:1 1119:1 1162:1 1215:1 1218:1 1222:1 1224:1 1230:1 1231:1 1235:1 1242:2
1 910:1 1119:1 1162:1 1218:1 1222:1 1230:1 1242:2
1 166:1 508:1 651:1 820:1 910:1 1117:1 1119:1 1162:1 1218:1 1220:1 1221:1 1222:1 1230:1 1232:1 1235:1 1236:1 1242:2
1 508:1 910:1 1119:1 1162:1 1218:1 1222:1 1230:1 1235:1 1242:2
1
1 347:1 508:1 910:1 911:1 970:1 1119:1 1162:1 1218:1 1222:1 1224:1 1225:1 1230:1 1231:1 1235:1 1242:2
1 347:1 910:1 1119:1 1162:1 1218:1 1222:1 1224:1 1230:1 1242:3
1 178:1 347:1 508:1 910:1 1119:1 1162:1 1215:1 1218:1 1222:1 1224:1 1230:1 1235:1 1242:2
1 508:1 910:1 911:1 1119:1 1162:1 1218:1 1222:1 1230:1 1231:1 1235:1 1242:2
1 1119:1 1162:1 1218:1 1222:1 1242:2
1 178:1 508:1 1162:1 1215:1 1218:1 1235:1 1242:2
1 178:1 347:1 1119:1 1162:1 1215:1 1218:1 1222:1 1224:1 1242:2
1 508:1 1119:1 1162:1 1218:1 1222:1 1235:1 1242:1
1 1119:1 1162:1 1218:1 1222:1 1242:2
1 166:1 508:1 651:1 820:1 910:1 1117:1 1119:1 1162:1 1218:1 1220:1 1221:1 1222:1 1230:1 1232:1 1235:1 1236:1 1242:2
1 508:1 910:1 1119:1 1162:1 1218:1 1222:1 1230:1 1235:1 1242:2
1 508:1 1119:1 1162:1 1218:1 1222:1 1235:1 1242:2
1 928:1 1240:1 1242:4
1 508:1 1119:1 1162:1 1218:1 1222:1 1235:1 1242:3
1 928:1 1240:1 1242:3
1 178:1 347:1 1119:1 1162:1 1215:1 1218:1 1222:1 1224:1 1242:2
1 347:1 910:1 1119:1 1162:1 1218:1 1222:1 1224:1 1230:1 1242:2
1 1119:1 1162:1 1218:1 1222:1 1242:3
1 508:1 1119:1 1162:1 1218:1 1222:1 1235:1 1242:2
1 910:1 1119:1 1162:1 1218:1 1222:1 1230:1 1242:1
1 508:1 1119:1 1162:1 1218:1 1222:1 1235:1 1242:1
1 928:1 1240:1 1242:3
1 178:1 508:1 911:1 1119:1 1162:1 1215:1 1218:1 1222:1 1231:1 1235:1 1242:2
1 508:1 1162:1 1218:1 1235:1 1242:2
1 178:1 508:1 1119:1 1162:1 1215:1 1218:1 1222:1 1235:1 1242:1
1 508:1 1119:1 1162:1 1218:1 1222:1 1235:1 1242:2
1 910:1 1119:1 1162:1 1218:1 1222:1 1230:1 1242:2
1 347:1 508:1 910:1 911:1 1162:1 1218:1 1224:1 1230:1 1231:1 1235:1 1242:2
1 166:1 508:1 651:1 820:1 910:1 1117:1 1119:1 1162:1 1218:1 1220:1 1221:1 1222:1 1230:1 1232:1 1235:1 1236:1 1242:2
1 910:1 911:1 1119:1 1162:1 1218:1 1222:1 1230:1 1231:1 1242:1
1 166:1 508:1 651:1 820:1 910:1 1117:1 1119:1 1162:1 1218:1 1220:1 1221:1 1222:1 1230:1 1232:1 1235:1 1236:1 1242:2
1 910:1 1162:1 1218:1 1230:1 1242:2
1 178:1 508:1 910:1 1119:1 1162:1 1215:1 1218:1 1222:1 1230:1 1235:1 1242:2
1 166:1 508:1 651:1 820:1 910:1 1117:1 1119:1 1162:1 1218:1 1220:1 1221:1 1222:1 1230:1 1232:1 1235:1 1236:1 1242:2
1 347:1 508:1 1119:1 1162:1 1218:1 1222:1 1224:1 1235:1 1242:3
1 178:1 910:1 931:1 1162:1 1214:1 1215:1 1218:1 1230:1 1242:2
1 508:1 1119:1 1162:1 1218:1 1222:1 1235:1 1242:2
1 1119:1 1162:1 1218:1 1222:1 1242:2
1 178:1 347:1 508:1 911:1 1119:1 1162:1 1215:1 1218:1 1222:1 1224:1 1231:1 1235:1 1242:1
1 347:1 508:1 1119:1 1162:1 1218:1 1222:1 1224:1 1235:1 1242:3
1 911:1 1119:1 1162:1 1218:1 1222:1 1231:1 1242:2
1 178:1 347:1 910:1 1119:1 1162:1 1215:1 1218:1 1222:1 1224:1 1230:1 1242:2
1 508:1 910:1 911:1 1119:1 1162:1 1218:1 1222:1 1230:1 1231:1 1235:1 1242:3
1 508:1 910:1 1162:1 1218:1 1230:1 1235:1 1242:2
1 1242:3
1 347:1 508:1 910:1 1119:1 1162:1 1218:1 1222:1 1224:1 1230:1 1235:1 1242:1
1 508:1 910:1 1119:1 1162:1 1218:1 1222:1 1230:1 1235:1 1242:1
1 1162:1 1218:1 1242:2
1 1162:1 1218:1 1242:3 1244:1
1 178:1 347:1 508:1 911:1 1119:1 1162:1 1215:1 1218:1 1222:1 1224:1 1231:1 1235:1 1242:1
1 910:1 1162:1 1218:1 1230:1 1242:2
1 508:1 1119:1 1162:1 1218:1 1222:1 1235:1 1242:1
1 508:1 910:1 1119:1 1162:1 1218:1 1222:1 1230:1 1235:1 1242:2
1 910:1 1119:1 1162:1 1218:1 1222:1 1230:1 1242:1
1 508:1 910:1 1162:1 1218:1 1230:1 1235:1 1242:3
1 910:1 1119:1 1162:1 1218:1 1222:1 1230:1 1242:3
1 910:1 1162:1 1218:1 1230:1 1242:2
1 166:1 508:1 651:1 820:1 910:1 1117:1 1119:1 1162:1 1218:1 1220:1 1221:1 1222:1 1230:1 1232:1 1235:1 1236:1 1242:2
1 928:1 1240:1 1242:3
1 508:1 910:1 1119:1 1162:1 1218:1 1222:1 1230:1 1235:1 1242:1
1 178:1 508:1 910:1 1119:1 1162:1 1215:1 1218:1 1222:1 1230:1 1235:1 1242:2
1 508:1 911:1 1119:1 1162:1 1218:1 1222:1 1231:1 1235:1 1242:3
1 166:1 508:1 651:1 820:1 910:1 1117:1 1119:1 1162:1 1218:1 1220:1 1221:1 1222:1 1230:1 1232:1 1235:1 1236:1 1242:2
1 508:1 910:1 1119:1 1162:1 1218:1 1222:1 1230:1 1235:1 1242:2
1 178:1 347:1 508:1 910:1 1119:1 1162:1 1215:1 1218:1 1222:1 1224:1 1230:1 1235:1 1242:2
1 178:1 508:1 911:1 1119:1 1162:1 1215:1 1218:1 1222:1 1231:1 1235:1 1242:2
1 508:1 1162:1 1218:1 1235:1 1242:2
1 1162:1 1218:1 1242:2
1 1119:1 1162:1 1218:1 1222:1 1242:2
1 508:1 910:1 1119:1 1162:1 1218:1 1222:1 1230:1 1235:1 1242:2
1 1119:1 1162:1 1218:1 1222:1 1242:2
1 508:1 1119:1 1162:1 1218:1 1222:1 1235:1 1242:1
1 347:1 910:1 1119:1 1162:1 1218:1 1222:1 1224:1 1230:1 1242:2
1 1119:1 1162:1 1218:1 1222:1 1242:1
1 347:1 910:1 1119:1 1162:1 1218:1 1222:1 1224:1 1230:1 1242:2
1 347:1 910:1 1119:1 1162:1 1218:1 1222:1 1224:1 1230:1 1242:2
1 508:1 911:1 1162:1 1218:1 1231:1 1235:1 1242:1
1 508:1 910:1 1119:1 1162:1 1218:1 1222:1 1230:1 1235:1 1242:2
1 508:1 1162:1 1218:1 1235:1 1242:3
1 1119:1 1162:1 1218:1 1222:1 1242:2
1 166:1 508:1 651:1 820:1 910:1 1117:1 1119:1 1162:1 1218:1 1220:1 1221:1 1222:1 1230:1 1232:1 1235:1 1236:1 1242:2
1 166:1 508:1 651:1 820:1 910:1 1117:1 1119:1 1162:1 1218:1 1220:1 1221:1 1222:1 1230:1 1232:1 1235:1 1236:1 1242:2
1 508:1 1162:1 1218:1 1235:1 1242:2
1 508:1 910:1 1119:1 1162:1 1218:1 1222:1 1230:1 1235:1 1242:1
1 1119:1 1162:1 1218:1 1222:1 1242:2
1 1119:1 1162:1 1218:1 1222:1 1242:2
1 1119:1 1162:1 1218:1 1222:1 1242:2
1 910:1 1119:1 1162:1 1218:1 1222:1 1230:1 1242:2
1 1119:1 1162:1 1218:1 1222:1 1242:2
1 347:1 508:1 911:1 1119:1 1162:1 1218:1 1222:1 1224:1 1231:1 1235:1 1242:2
1 1119:1 1162:1 1218:1 1222:1 1242:3
1 508:1 1119:1 1162:1 1218:1 1222:1 1235:1 1242:2
1 910:1 1162:1 1218:1 1230:1 1242:2
1 1119:1 1162:1 1218:1 1222:1 1242:1
1 166:1 508:1 651:1 820:1 910:1 1117:1 1119:1 1162:1 1218:1 1220:1 1221:1 1222:1 1230:1 1232:1 1235:1 1236:1 1242:2
1 508:1 910:1 1119:1 1162:1 1218:1 1222:1 1230:1 1235:1 1242:2
1 178:1 347:1 508:1 910:1 911:1 1119:1 1162:1 1215:1 1218:1 1222:1 1224:1 1230:1 1231:1 1235:1 1242:2
1 508:1 1119:1 1162:1 1218:1 1222:1 1235:1 1242:1
1 508:1 1119:1 1162:1 1218:1 1222:1 1235:1 1242:2
1 508:1 1119:1 1162:1 1218:1 1222:1 1235:1 1242:1
1 1119:1 1162:1 1218:1 1222:1 1242:2
1 1162:1 1218:1 1242:3
1 178:1 508:1 1119:1 1162:1 1215:1 1218:1 1222:1 1235:1 1242:2
1 166:1 508:1 651:1 820:1 910:1 1117:1 1119:1 1162:1 1218:1 1220:1 1221:1 1222:1 1230:1 1232:1 1235:1 1236:1 1242:2
1 347:1 910:1 1119:1 1162:1 1218:1 1222:1 1224:1 1230:1 1242:2
1 508:1 910:1 1119:1 1162:1 1218:1 1222:1 1230:1 1235:1 1242:2
1 508:1 1119:1 1162:1 1218:1 1222:1 1235:1 1242:1
1 1162:1 1218:1 1242:3
1 1242:3
1 1119:1 1162:1 1218:1 1222:1 1242:2
1 508:1 1119:1 1162:1 1218:1 1222:1 1235:1 1242:2
1 508:1 1162:1 1218:1 1235:1 1242:1
1 166:1 508:1 651:1 820:1 910:1 1117:1 1119:1 1162:1 1218:1 1220:1 1221:1 1222:1 1230:1 1232:1 1235:1 1236:1 1242:2
1 1119:1 1162:1 1218:1 1222:1 1242:2
1 508:1 1119:1 1162:1 1218:1 1222:1 1235:1 1242:2
1 508:1 911:1 1162:1 1218:1 1231:1 1235:1 1242:2
1 1119:1 1162:1 1218:1 1222:1 1242:2
1 1119:1 1162:1 1218:1 1222:1 1242:2
1 910:1 1162:1 1218:1 1230:1 1242:3 1244:1
1 178:1 508:1 910:1 911:1 1119:1 1162:1 1215:1 1218:1 1222:1 1230:1 1231:1 1235:1 1242:1
1 1162:1 1218:1 1242:3
1 347:1 508:1 910:1 1119:1 1162:1 1218:1 1222:1 1224:1 1230:1 1235:1 1242:2
1 1119:1 1162:1 1218:1 1222:1 1242:2
1 508:1 1119:1 1162:1 1218:1 1222:1 1235:1 1242:2
1 1162:1 1218:1 1242:2
1 508:1 1119:1 1162:1 1218:1 1222:1 1235:1 1242:2
1 178:1 508:1 911:1 1119:1 1162:1 1215:1 1218:1 1222:1 1231:1 1235:1 1242:2
1 1119:1 1162:1 1218:1 1222:1 1242:2
1 178:1 347:1 910:1 1119:1 1162:1 1215:1 1218:1 1222:1 1224:1 1230:1 1242:2
1 1119:1 1162:1 1218:1 1222:1 1242:2
1 508:1 1162:1 1218:1 1235:1 1242:2
1 1242:3
1 1119:1 1162:1 1218:1 1222:1 1242:2
1 508:1 910:1 1119:1 1162:1 1218:1 1222:1 1230:1 1235:1 1242:3
1 928:1 1240:1 1242:3
1 508:1 910:1 1119:1 1162:1 1218:1 1222:1 1230:1 1235:1 1242:2
1 910:1 1119:1 1162:1 1218:1 1222:1 1230:1 1242:2
1 910:1 911:1 1119:1 1162:1 1218:1 1222:1 1230:1 1231:1 1242:2
1 347:1 508:1 910:1 1119:1 1162:1 1218:1 1222:1 1224:1 1230:1 1235:1 1242:2
1 178:1 1119:1 1162:1 1215:1 1218:1 1222:1 1242:2
1 347:1 508:1 910:1 1119:1 1162:1 1218:1 1222:1 1224:1 1230:1 1235:1 1242:2
1 508:1 910:1 1119:1 1162:1 1218:1 1222:1 1230:1 1235:1 1242:3
1 347:1 508:1 911:1 1119:1 1162:1 1218:1 1222:1 1224:1 1231:1 1235:1 1242:3
1 1119:1 1162:1 1218:1 1222:1 1242:2
1 508:1 1162:1 1218:1 1235:1 1242:1
1 166:1 508:1 651:1 820:1 910:1 1117:1 1119:1 1162:1 1218:1 1220:1 1221:1 1222:1 1230:1 1232:1 1235:1 1236:1 1242:2
1 508:1 1119:1 1162:1 1218:1 1222:1 1235:1 1242:2
1 166:1 508:1 651:1 820:1 910:1 1117:1 1119:1 1162:1 1218:1 1220:1 1221:1 1222:1 1230:1 1232:1 1235:1 1236:1 1242:2
1 1162:1 1218:1 1242:2
1 508:1 1162:1 1218:1 1235:1 1242:2
1 166:1 508:1 651:1 820:1 910:1 1117:1 1119:1 1162:1 1218:1 1220:1 1221:1 1222:1 1230:1 1232:1 1235:1 1236:1 1242:2
1 1119:1 1162:1 1218:1 1222:1 1242:2
1 1119:1 1162:1 1218:1 1222:1 1242:2
1 508:1 1119:1 1162:1 1218:1 1222:1 1235:1 1242:2
1 508:1 1119:1 1162:1 1218:1 1222:1 1235:1 1242:2
1 178:1 347:1 910:1 1119:1 1162:1 1215:1 1218:1 1222:1 1224:1 1230:1 1242:2
1 1119:1 1162:1 1218:1 1222:1 1242:2
1 347:1 910:1 1119:1 1162:1 1218:1 1222:1 1224:1 1230:1 1242:2
1 508:1 1119:1 1162:1 1218:1 1222:1 1235:1 1242:1
1 1119:1 1162:1 1218:1 1222:1 1242:2
1 1119:1 1162:1 1218:1 1222:1 1242:2
1 178:1 347:1 508:1 910:1 1119:1 1162:1 1215:1 1218:1 1222:1 1224:1 1230:1 1235:1 1242:1
1 347:1 910:1 911:1 970:1 1119:1 1162:1 1218:1 1222:1 1224:1 1225:1 1230:1 1231:1 1242:3
1 1119:1 1162:1 1218:1 1222:1 1242:2
1 1119:1 1162:1 1218:1 1222:1 1242:2
1 508:1 910:1 1119:1 1162:1 1218:1 1222:1 1230:1 1235:1 1242:2
1 1242:2
1 166:1 508:1 651:1 820:1 910:1 1117:1 1119:1 1162:1 1218:1 1220:1 1221:1 1222:1 1230:1 1232:1 1235:1 1236:1 1242:2
1 508:1 1119:1 1162:1 1218:1 1222:1 1235:1 1242:3
1 1119:1 1162:1 1218:1 1222:1 1242:2
1 178:1 508:1 1119:1 1162:1 1215:1 1218:1 1222:1 1235:1 1242:1
1 1119:1 1162:1 1218:1 1222:1 1242:2
1 508:1 910:1 911:1 1119:1 1162:1 1218:1 1222:1 1230:1 1231:1 1235:1 1242:2
1 178:1 508:1 1119:1 1162:1 1215:1 1218:1 1222:1 1235:1 1242:1
1 1119:1 1162:1 1218:1 1222:1 1242:2
1 347:1 508:1 910:1 1119:1 1162:1 1218:1 1222:1 1224:1 1230:1 1235:1 1242:1
1 1119:1 1162:1 1218:1 1222:1 1242:2
1 910:1 1119:1 1162:1 1218:1 1222:1 1230:1 1242:2
1 508:1 1119:1 1162:1 1218:1 1222:1 1235:1 1242:2
1 1119:1 1162:1 1218:1 1222:1 1242:2
1 347:1 508:1 911:1 1119:1 1162:1 1218:1 1222:1 1224:1 1231:1 1235:1 1242:3
1 347:1 508:1 910:1 1119:1 1162:1 1218:1 1222:1 1224:1 1230:1 1235:1 1242:2
1 508:1 1119:1 1162:1 1218:1 1222:1 1235:1 1242:1
1 508:1 910:1 1119:1 1162:1 1218:1 1222:1 1230:1 1235:1 1242:1
1 1119:1 1162:1 1218:1 1222:1 1242:2
1 1119:1 1162:1 1218:1 1222:1 1242:2
1 347:1 910:1 1119:1 1162:1 1218:1 1222:1 1224:1 1230:1 1242:2
1 910:1 1119:1 1162:1 1218:1 1222:1 1230:1 1242:1
1 347:1 910:1 1119:1 1162:1 1218:1 1222:1 1224:1 1230:1 1242:2
1 1162:1 1218:1 1242:3 1244:1
1 911:1 1119:1 1162:1 1218:1 1222:1 1231:1 1242:2
1 508:1 1162:1 1218:1 1235:1 1242:1
1 910:1 1119:1 1162:1 1218:1 1222:1 1230:1 1242:3
1 1162:1 1218:1 1242:2
1 1119:1 1162:1 1218:1 1222:1 1242:2
1 1119:1 1162:1 1218:1 1222:1 1242:2
1 1119:1 1162:1 1218:1 1222:1 1242:2
1 178:1 347:1 508:1 910:1 911:1 1119:1 1162:1 1215:1 1218:1 1222:1 1224:1 1230:1 1231:1 1235:1 1242:2
1 1162:1 1218:1 1242:3
1 1119:1 1162:1 1218:1 1222:1 1242:2
1 166:1 508:1 651:1 820:1 910:1 1117:1 1119:1 1162:1 1218:1 1220:1 1221:1 1222:1 1230:1 1232:1 1235:1 1236:1 1242:2
1 166:1 508:1 651:1 820:1 910:1 1117:1 1119:1 1162:1 1218:1 1220:1 1221:1 1222:1 1230:1 1232:1 1235:1 1236:1 1242:2
1 1119:1 1162:1 1218:1 1222:1 1242:2
1 1242:3
1 178:1 347:1 508:1 910:1 911:1 1119:1 1162:1 1215:1 1218:1 1222:1 1224:1 1230:1 1231:1 1235:1 1242:2
1 347:1 910:1 911:1 1119:1 1162:1 1218:1 1222:1 1224:1 1230:1 1231:1 1242:3
1 166:1 508:1 651:1 820:1 910:1 1117:1 1119:1 1162:1 1218:1 1220:1 1221:1 1222:1 1230:1 1232:1 1235:1 1236:1 1242:2
1 178:1 1119:1 1162:1 1215:1 1218:1 1222:1 1242:3
1 1242:3
1 508:1 1119:1 1162:1 1218:1 1222:1 1235:1 1242:1
1 1119:1 1162:1 1218:1 1222:1 1242:2
1 1119:1 1162:1 1218:1 1222:1 1242:2
1 508:1 1119:1 1162:1 1218:1 1222:1 1235:1 1242:2
1 347:1 911:1 1119:1 1162:1 1218:1 1222:1 1224:1 1231:1 1242:2
1 508:1 1119:1 1162:1 1218:1 1222:1 1235:1 1242:1
1 347:1 508:1 911:1 1119:1 1162:1 1218:1 1222:1 1224:1 1231:1 1235:1 1242:2
1 1119:1 1162:1 1218:1 1222:1 1242:2
1 1119:1 1162:1 1218:1 1222:1 1242:2
1 347:1 508:1 911:1 1119:1 1162:1 1218:1 1222:1 1224:1 1231:1 1235:1 1242:2
1 166:1 508:1 651:1 820:1 910:1 1117:1 1119:1 1162:1 1218:1 1220:1 1221:1 1222:1 1230:1 1232:1 1235:1 1236:1 1242:2
1 1119:1 1162:1 1218:1 1222:1 1242:2
1 910:1 1119:1 1162:1 1218:1 1222:1 1230:1 1242:2
1 508:1 910:1 1162:1 1218:1 1230:1 1235:1 1242:2
1 166:1 508:1 651:1 820:1 910:1 1117:1 1119:1 1162:1 1218:1 1220:1 1221:1 1222:1 1230:1 1232:1 1235:1 1236:1 1242:2
1 1162:1 1218:1 1242:1
1 1119:1 1162:1 1218:1 1222:1 1242:2
1 508:1 1119:1 1162:1 1218:1 1222:1 1235:1 1242:1
1 1162:1 1218:1 1242:3
1 508:1 1162:1 1218:1 1235:1 1242:4
1 166:1 508:1 651:1 820:1 910:1 1117:1 1119:1 1162:1 1218:1 1220:1 1221:1 1222:1 1230:1 1232:1 1235:1 1236:1 1242:2
1 910:1 1162:1 1218:1 1230:1 1242:2
1 508:1 1119:1 1162:1 1218:1 1222:1 1235:1 1242:1
1 1162:1 1218:1 1242:3
1 1119:1 1162:1 1218:1 1222:1 1242:2
1 508:1 910:1 1119:1 1162:1 1218:1 1222:1 1230:1 1235:1 1242:2
1 910:1 1162:1 1218:1 1230:1 1242:3 1244:1
1 910:1 1119:1 1162:1 1218:1 1222:1 1230:1 1242:1
1 910:1 911:1 1119:1 1162:1 1218:1 1222:1 1230:1 1231:1 1242:2
1 1162:1 1218:1 1242:2
1 178:1 347:1 508:1 910:1 911:1 1119:1 1162:1 1215:1 1218:1 1222:1 1224:1 1230:1 1231:1 1235:1 1242:2
1 910:1 1119:1 1162:1 1218:1 1222:1 1230:1 1242:2
1 1119:1 1162:1 1218:1 1222:1 1242:2
1 508:1 1119:1 1162:1 1218:1 1222:1 1235:1 1242:3
1 347:1 910:1 1119:1 1162:1 1218:1 1222:1 1224:1 1230:1 1242:2
1 166:1 508:1 651:1 820:1 910:1 1117:1 1119:1 1162:1 1218:1 1220:1 1221:1 1222:1 1230:1 1232:1 1235:1 1236:1 1242:2
1 347:1 508:1 910:1 1119:1 1162:1 1218:1 1222:1 1224:1 1230:1 1235:1 1242:2
1 910:1 1119:1 1162:1 1218:1 1222:1 1230:1 1242:2
1 238:1 347:1 403:1 496:1 629:1 650:1 910:1 995:1 1080:1 1119:1 1162:1 1218:1 1219:1 1222:1 1223:1 1224:1 1227:1 1230:1 1234:1 1237:1 1239:1 1241:1 1242:1 1244:1
1 1119:1 1162:1 1218:1 1222:1 1242:2
1 347:1 910:1 1119:1 1162:1 1218:1 1222:1 1224:1 1230:1 1242:3
1 508:1 1119:1 1162:1 1218:1 1222:1 1235:1 1242:1
1 508:1 1119:1 1162:1 1218:1 1222:1 1235:1 1242:2
1 1119:1 1162:1 1218:1 1222:1 1242:2
1 347:1 508:1 1119:1 1162:1 1218:1 1222:1 1224:1 1235:1 1242:3
1 347:1 508:1 910:1 911:1 1162:1 1218:1 1224:1 1230:1 1231:1 1235:1 1242:3
1 508:1 910:1 1119:1 1162:1 1218:1 1222:1 1230:1 1235:1 1242:2
1 1162:1 1218:1 1242:3 1244:1
1 508:1 1162:1 1218:1 1235:1 1242:2
1 508:1 911:1 1119:1 1162:1 1218:1 1222:1 1231:1 1235:1 1242:2
1 347:1 508:1 910:1 1119:1 1162:1 1218:1 1222:1 1224:1 1230:1 1235:1 1242:3
1 1119:1 1162:1 1218:1 1222:1 1242:3
1 347:1 910:1 1119:1 1162:1 1218:1 1222:1 1224:1 1230:1 1242:3
1 508:1 1119:1 1162:1 1218:1 1222:1 1235:1 1242:2
1 347:1 508:1 910:1 1119:1 1162:1 1218:1 1222:1 1224:1 1230:1 1235:1 1242:2
1 508:1 1162:1 1218:1 1235:1 1242:3
1 508:1 910:1 1119:1 1162:1 1218:1 1222:1 1230:1 1235:1 1242:1
1 508:1 1119:1 1162:1 1218:1 1222:1 1235:1 1242:2
1 910:1 1119:1 1162:1 1218:1 1222:1 1230:1 1242:2
1 928:1 1240:1 1242:3
1 1119:1 1162:1 1218:1 1222:1 1242:2
1 508:1 910:1 1119:1 1162:1 1218:1 1222:1 1230:1 1235:1 1242:1
1 1162:1 1218:1 1242:1
1 508:1 910:1 1119:1 1162:1 1218:1 1222:1 1230:1 1235:1 1242:2
1 347:1 508:1 910:1 1119:1 1162:1 1218:1 1222:1 1224:1 1230:1 1235:1 1242:2
1 1119:1 1162:1 1218:1 1222:1 1242:2
1 1119:1 1162:1 1218:1 1222:1 1242:2
1 166:1 508:1 651:1 820:1 910:1 1117:1 1119:1 1162:1 1218:1 1220:1 1221:1 1222:1 1230:1 1232:1 1235:1 1236:1 1242:2
1 1119:1 1162:1 1218:1 1222:1 1242:3
1 238:1 347:1 403:1 496:1 629:1 650:1 910:1 995:1 1080:1 1093:1 1119:1 1162:1 1217:1 1218:1 1219:1 1222:1 1223:1 1224:1 1227:1 1230:1 1234:1 1237:1 1239:1 1241:1 1242:3
1 508:1 1162:1 1218:1 1235:1 1242:2
1 178:1 508:1 910:1 1162:1 1215:1 1218:1 1230:1 1235:1 1242:2
1 347:1 910:1 1119:1 1162:1 1218:1 1222:1 1224:1 1230:1 1242:4 1244:1
1 178:1 347:1 433:1 508:1 578:1 820:1 910:1 1119:1 1124:1 1162:1 1215:1 1218:1 1220:1 1222:1 1224:1 1226:1 1229:1 1230:1 1233:1 1235:1 1242:3
1 1119:1 1162:1 1218:1 1222:1 1242:2
1 1119:1 1162:1 1218:1 1222:1 1242:2
1 508:1 910:1 1119:1 1162:1 1218:1 1222:1 1230:1 1235:1 1242:2
1 910:1 1119:1 1162:1 1218:1 1222:1 1230:1 1242:2
1 508:1 1119:1 1162:1 1218:1 1222:1 1235:1 1242:3
1 508:1 910:1 1119:1 1162:1 1218:1 1222:1 1230:1 1235:1 1242:1
1 1119:1 1162:1 1218:1 1222:1 1242:2
1 1119:1 1162:1 1218:1 1222:1 1242:2
1 910:1 911:1 1119:1 1162:1 1218:1 1222:1 1230:1 1231:1 1242:2
1 166:1 508:1 651:1 820:1 910:1 1117:1 1119:1 1162:1 1218:1 1220:1 1221:1 1222:1 1230:1 1232:1 1235:1 1236:1 1242:2
1 166:1 508:1 651:1 820:1 910:1 1117:1 1119:1 1162:1 1218:1 1220:1 1221:1 1222:1 1230:1 1232:1 1235:1 1236:1 1242:2
1 508:1 910:1 1119:1 1162:1 1218:1 1222:1 1230:1 1235:1 1242:2
1 508:1 910:1 1119:1 1162:1 1218:1 1222:1 1230:1 1235:1 1242:1
1 508:1 1119:1 1162:1 1218:1 1222:1 1235:1 1242:2
1 178:1 347:1 910:1 1119:1 1162:1 1215:1 1218:1 1222:1 1224:1 1230:1 1242:2
1 508:1 910:1 1119:1 1162:1 1218:1 1222:1 1230:1 1235:1 1242:2
1 347:1 508:1 1162:1 1218:1 1224:1 1235:1 1242:2
1 1162:1 1218:1 1242:3 1244:1
1 347:1 508:1 910:1 1119:1 1162:1 1218:1 1222:1 1224:1 1230:1 1235:1 1242:2
1 928:1 1240:1 1242:4
1 178:1 508:1 1162:1 1215:1 1218:1 1235:1 1242:2
1 1119:1 1162:1 1218:1 1222:1 1242:2
1 508:1 1119:1 1162:1 1218:1 1222:1 1235:1 1242:1
1 1119:1 1162:1 1218:1 1222:1 1242:3
1 508:1 1119:1 1162:1 1218:1 1222:1 1235:1 1242:2
1 508:1 1119:1 1162:1 1218:1 1222:1 1235:1 1242:1
1 166:1 508:1 651:1 820:1 910:1 1117:1 1119:1 1162:1 1218:1 1220:1 1221:1 1222:1 1230:1 1232:1 1235:1 1236:1 1242:2
1 1119:1 1162:1 1218:1 1222:1 1242:2
1 508:1 1119:1 1162:1 1218:1 1222:1 1235:1 1242:2
1 508:1 1119:1 1162:1 1218:1 1222:1 1235:1 1242:1
1 928:1 1240:1 1242:4
1 166:1 508:1 651:1 820:1 910:1 1117:1 1119:1 1162:1 1218:1 1220:1 1221:1 1222:1 1230:1 1232:1 1235:1 1236:1 1242:2
1 1119:1 1162:1 1218:1 1222:1 1242:2
1 508:1 1119:1 1162:1 1218:1 1222:1 1235:1 1242:1
1 166:1 508:1 651:1 820:1 910:1 1117:1 1119:1 1162:1 1218:1 1220:1 1221:1 1222:1 1230:1 1232:1 1235:1 1236:1 1242:2
1 347:1 508:1 910:1 1119:1 1162:1 1218:1 1222:1 1224:1 1230:1 1235:1 1242:2
1 508:1 1119:1 1162:1 1218:1 1222:1 1235:1 1242:3 1244:1
1 508:1 910:1 1119:1 1162:1 1218:1 1222:1 1230:1 1235:1 1242:2
1 347:1 508:1 910:1 1119:1 1162:1 1218:1 1222:1 1224:1 1230:1 1235:1 1242:2
1 1119:1 1162:1 1218:1 1222:1 1242:2
1 910:1 911:1 1119:1 1162:1 1218:1 1222:1 1230:1 1231:1 1242:2
1 178:1 347:1 910:1 1119:1 1162:1 1215:1 1218:1 1222:1 1224:1 1230:1 1242:2
1 1162:1 1218:1 1242:3 1244:1
1 508:1 1119:1 1162:1 1218:1 1222:1 1235:1 1242:3
1 1119:1 1162:1 1218:1 1222:1 1242:2
1 178:1 508:1 910:1 1119:1 1162:1 1215:1 1218:1 1222:1 1230:1 1235:1 1242:2
1 1119:1 1162:1 1218:1 1222:1 1242:2
1 1119:1 1162:1 1218:1 1222:1 1242:2
1 508:1 1119:1 1162:1 1218:1 1222:1 1235:1 1242:1
1 1119:1 1162:1 1218:1 1222:1 1242:2
1 910:1 911:1 1119:1 1162:1 1218:1 1222:1 1230:1 1231:1 1242:2
1 347:1 910:1 911:1 1119:1 1162:1 1218:1 1222:1 1224:1 1230:1 1231:1 1242:3
1 178:1 508:1 911:1 1119:1 1162:1 1215:1 1218:1 1222:1 1231:1 1235:1 1242:2
1 166:1 508:1 651:1 820:1 910:1 1117:1 1119:1 1162:1 1218:1 1220:1 1221:1 1222:1 1230:1 1232:1 1235:1 1236:1 1242:2
1 508:1 1119:1 1162:1 1218:1 1222:1 1235:1 1242:1
1 166:1 508:1 651:1 820:1 910:1 1117:1 1119:1 1162:1 1218:1 1220:1 1221:1 1222:1 1230:1 1232:1 1235:1 1236:1 1242:2
1 910:1 1119:1 1162:1 1218:1 1222:1 1230:1 1242:2
1 508:1 910:1 1119:1 1162:1 1218:1 1222:1 1230:1 1235:1 1242:1
1 1119:1 1162:1 1218:1 1222:1 1242:2
1 508:1 1119:1 1162:1 1218:1 1222:1 1235:1 1242:2
1 166:1 508:1 651:1 820:1 910:1 1117:1 1119:1 1162:1 1218:1 1220:1 1221:1 1222:1 1230:1 1232:1 1235:1 1236:1 1242:2
1 508:1 911:1 1119:1 1162:1 1218:1 1222:1 1231:1 1235:1 1242:1
1 910:1 911:1 1119:1 1162:1 1218:1 1222:1 1230:1 1231:1 1242:1
1 178:1 508:1 1162:1 1215:1 1218:1 1235:1 1242:2
1 508:1 1119:1 1162:1 1218:1 1222:1 1235:1 1242:1
1 178:1 347:1 508:1 910:1 911:1 1119:1 1162:1 1215:1 1218:1 1222:1 1224:1 1230:1 1231:1 1235:1 1242:2
1 1119:1 1162:1 1218:1 1222:1 1242:2
1 508:1 910:1 1162:1 1218:1 1230:1 1235:1 1242:2
1 508:1 910:1 1119:1 1162:1 1218:1 1222:1 1230:1 1235:1 1242:2
1 178:1 508:1 1119:1 1162:1 1215:1 1218:1 1222:1 1235:1 1242:1
1 508:1 1162:1 1218:1 1235:1 1242:2
1 508:1 911:1 1162:1 1218:1 1231:1 1235:1 1242:1
1 347:1 910:1 1119:1 1162:1 1218:1 1222:1 1224:1 1230:1 1242:2
1 1119:1 1162:1 1218:1 1222:1 1242:2
1 508:1 910:1 1119:1 1162:1 1218:1 1222:1 1230:1 1235:1 1242:3
1 1119:1 1162:1 1218:1 1222:1 1242:2
1 178:1 508:1 1119:1 1162:1 1215:1 1218:1 1222:1 1235:1 1242:2
1 178:1 347:1 508:1 910:1 1119:1 1162:1 1215:1 1218:1 1222:1 1224:1 1230:1 1235:1 1242:1
1 1119:1 1162:1 1218:1 1222:1 1242:2
1 508:1 910:1 1119:1 1162:1 1218:1 1222:1 1230:1 1235:1 1242:1
1 508:1 911:1 1119:1 1162:1 1218:1 1222:1 1231:1 1235:1 1242:2
1 1119:1 1162:1 1218:1 1222:1 1242:2
1 508:1 1119:1 1162:1 1218:1 1222:1 1235:1 1242:1
1 166:1 178:1 347:1 508:1 910:1 1119:1 1162:1 1215:1 1218:1 1222:1 1224:1 1230:1 1232:1 1235:1 1242:3
1 1162:1 1218:1 1242:3
1 508:1 1162:1 1218:1 1235:1 1242:2
1 178:1 347:1 508:1 910:1 1119:1 1162:1 1215:1 1218:1 1222:1 1224:1 1230:1 1235:1 1242:1
1 347:1 508:1 910:1 1119:1 1162:1 1218:1 1222:1 1224:1 1230:1 1235:1 1242:2
1 910:1 1119:1 1162:1 1218:1 1222:1 1230:1 1242:1
1 508:1 910:1 1119:1 1162:1 1218:1 1222:1 1230:1 1235:1 1242:1
1 1119:1 1162:1 1218:1 1222:1 1242:2
1 166:1 508:1 651:1 820:1 910:1 1117:1 1119:1 1162:1 1218:1 1220:1 1221:1 1222:1 1230:1 1232:1 1235:1 1236:1 1242:2
1 347:1 508:1 910:1 911:1 1162:1 1218:1 1224:1 1230:1 1231:1 1235:1 1242:1
1 166:1 508:1 651:1 820:1 910:1 1117:1 1119:1 1162:1 1218:1 1220:1 1221:1 1222:1 1230:1 1232:1 1235:1 1236:1 1242:2
1 508:1 1119:1 1162:1 1218:1 1222:1 1235:1 1242:2
1 1119:1 1162:1 1218:1 1222:1 1242:2
1 1162:1 1218:1 1242:1
1 508:1 910:1 1162:1 1218:1 1230:1 1235:1 1242:2
1 1162:1 1218:1 1242:1
1 178:1 1117:1 1162:1 1215:1 1218:1 1221:1 1242:4
1 910:1 911:1 1119:1 1162:1 1218:1 1222:1 1230:1 1231:1 1242:2
1 178:1 347:1 508:1 910:1 911:1 1119:1 1162:1 1215:1 1218:1 1222:1 1224:1 1230:1 1231:1 1235:1 1242:2
1 1119:1 1162:1 1218:1 1222:1 1242:2
1 347:1 910:1 1119:1 1162:1 1218:1 1222:1 1224:1 1230:1 1242:2
1 910:1 1162:1 1218:1 1230:1 1242:2
1 1242:3
1 178:1 347:1 1119:1 1162:1 1215:1 1218:1 1222:1 1224:1 1242:2
1 508:1 910:1 1119:1 1162:1 1218:1 1222:1 1230:1 1235:1 1242:3
1 1119:1 1162:1 1218:1 1222:1 1242:2
1 347:1 508:1 910:1 1119:1 1162:1 1218:1 1222:1 1224:1 1230:1 1235:1 1242:2
1 166:1 508:1 651:1 820:1 910:1 1117:1 1119:1 1162:1 1218:1 1220:1 1221:1 1222:1 1230:1 1232:1 1235:1 1236:1 1242:2
1 166:1 508:1 651:1 820:1 910:1 1117:1 1119:1 1162:1 1218:1 1220:1 1221:1 1222:1 1230:1 1232:1 1235:1 1236:1 1242:2
1 928:1 1240:1 1242:4
1 347:1 910:1 1119:1 1162:1 1218:1 1222:1 1224:1 1230:1 1242:2
1 910:1 1119:1 1162:1 1218:1 1222:1 1230:1 1242:2
1 508:1 910:1 1119:1 1162:1 1218:1 1222:1 1230:1 1235:1 1242:2
1 347:1 910:1 1119:1 1162:1 1218:1 1222:1 1224:1 1230:1 1242:2
1 1119:1 1162:1 1218:1 1222:1 1242:1
1 910:1 1058:1 1162:1 1218:1 1228:1 1230:1 1242:3
1 178:1 347:1 508:1 910:1 911:1 1119:1 1162:1 1215:1 1218:1 1222:1 1224:1 1230:1 1231:1 1235:1 1242:3
1 508:1 910:1 1119:1 1162:1 1218:1 1222:1 1230:1 1235:1 1242:2
1 910:1 1119:1 1162:1 1218:1 1222:1 1230:1 1242:2
1 1162:1 1218:1 1242:1
1 1162:1 1218:1 1242:3 1244:1
1 1119:1 1162:1 1218:1 1222:1 1242:2
1 166:1 508:1 651:1 820:1 910:1 1117:1 1119:1 1162:1 1218:1 1220:1 1221:1 1222:1 1230:1 1232:1 1235:1 1236:1 1242:2
1 508:1 1119:1 1162:1 1218:1 1222:1 1235:1 1242:1
1 166:1 508:1 651:1 820:1 910:1 1117:1 1119:1 1162:1 1218:1 1220:1 1221:1 1222:1 1230:1 1232:1 1235:1 1236:1 1242:2
1 347:1 508:1 910:1 1119:1 1162:1 1218:1 1222:1 1224:1 1230:1 1235:1 1242:2
1 910:1 1119:1 1162:1 1218:1 1222:1 1230:1 1242:2
1 166:1 508:1 651:1 820:1 910:1 1117:1 1119:1 1162:1 1218:1 1220:1 1221:1 1222:1 1230:1 1232:1 1235:1 1236:1 1242:2
1 166:1 508:1 651:1 820:1 910:1 1117:1 1119:1 1162:1 1218:1 1220:1 1221:1 1222:1 1230:1 1232:1 1235:1 1236:1 1242:2
1 1119:1 1162:1 1218:1 1222:1 1242:2
1 1162:1 1218:1 1242:3
1 166:1 508:1 651:1 820:1 910:1 1117:1 1119:1 1162:1 1218:1 1220:1 1221:1 1222:1 1230:1 1232:1 1235:1 1236:1 1242:2
1 508:1 910:1 1119:1 1162:1 1218:1 1222:1 1230:1 1235:1 1242:2
1 508:1 1162:1 1218:1 1235:1 1242:1
1 1162:1 1218:1 1242:3
1 1162:1 1218:1 1242:3
1 1119:1 1162:1 1218:1 1222:1 1242:1
1 1162:1 1218:1 1242:1
1 1119:1 1162:1 1218:1 1222:1 1242:2
1 508:1 1162:1 1218:1 1235:1 1242:2
1 347:1 910:1 1119:1 1162:1 1218:1 1222:1 1224:1 1230:1 1242:2
1 1119:1 1162:1 1218:1 1222:1 1242:1
1 508:1 910:1 1162:1 1218:1 1230:1 1235:1 1242:2
1 910:1 1162:1 1218:1 1230:1 1242:3 1244:1
1 347:1 508:1 1119:1 1162:1 1218:1 1222:1 1224:1 1235:1 1242:3
1 508:1 910:1 1119:1 1162:1 1218:1 1222:1 1230:1 1235:1 1242:3
1 910:1 911:1 1119:1 1162:1 1218:1 1222:1 1230:1 1231:1 1242:2
1 1119:1 1162:1 1218:1 1222:1 1242:2
1 178:1 1119:1 1162:1 1215:1 1218:1 1222:1 1242:2
1 166:1 508:1 651:1 820:1 910:1 1117:1 1119:1 1162:1 1218:1 1220:1 1221:1 1222:1 1230:1 1232:1 1235:1 1236:1 1242:2
1 508:1 910:1 1119:1 1162:1 1218:1 1222:1 1230:1 1235:1 1242:2
1 1162:1 1218:1 1242:1
1 508:1 910:1 1119:1 1162:1 1218:1 1222:1 1230:1 1235:1 1242:2
1 347:1 1119:1 1162:1 1218:1 1222:1 1224:1 1242:2
1 178:1 508:1 910:1 911:1 1119:1 1162:1 1215:1 1218:1 1222:1 1230:1 1231:1 1235:1 1242:2
1 1119:1 1162:1 1218:1 1222:1 1242:1
1 508:1 1119:1 1162:1 1218:1 1222:1 1235:1 1242:1
1 1119:1 1162:1 1218:1 1222:1 1242:2
1 1119:1 1162:1 1218:1 1222:1 1242:2
1 910:1 1119:1 1162:1 1218:1 1222:1 1230:1 1242:2
1 508:1 910:1 1119:1 1162:1 1218:1 1222:1 1230:1 1235:1 1242:3
1 910:1 1119:1 1162:1 1218:1 1222:1 1230:1 1242:1
1 1119:1 1162:1 1218:1 1222:1 1242:2
1 508:1 910:1 1119:1 1162:1 1218:1 1222:1 1230:1 1235:1 1242:2
1 166:1 508:1 651:1 820:1 910:1 1117:1 1119:1 1162:1 1218:1 1220:1 1221:1 1222:1 1230:1 1232:1 1235:1 1236:1 1242:2
1 347:1 508:1 910:1 1119:1 1162:1 1218:1 1222:1 1224:1 1230:1 1235:1 1242:3
1 1119:1 1162:1 1218:1 1222:1 1242:2
1 910:1 1162:1 1218:1 1230:1 1242:3
1 178:1 347:1 508:1 910:1 911:1 1119:1 1162:1 1215:1 1218:1 1222:1 1224:1 1230:1 1231:1 1235:1 1242:1
1 166:1 508:1 651:1 820:1 910:1 1117:1 1119:1 1162:1 1218:1 1220:1 1221:1 1222:1 1230:1 1232:1 1235:1 1236:1 1242:2
1 508:1 910:1 1162:1 1218:1 1230:1 1235:1 1242:2
1 1119:1 1162:1 1218:1 1222:1 1242:2
1 910:1 1119:1 1162:1 1218:1 1222:1 1230:1 1242:1
1 1119:1 1162:1 1218:1 1222:1 1242:2
1 1119:1 1162:1 1218:1 1222:1 1242:2
1 166:1 508:1 651:1 820:1 910:1 1117:1 1119:1 1162:1 1218:1 1220:1 1221:1 1222:1 1230:1 1232:1 1235:1 1236:1 1242:2
1 178:1 347:1 508:1 910:1 911:1 1119:1 1162:1 1215:1 1218:1 1222:1 1224:1 1230:1 1231:1 1235:1 1242:2
1 910:1 1119:1 1162:1 1218:1 1222:1 1230:1 1242:2
1 910:1 1119:1 1162:1 1218:1 1222:1 1230:1 1242:3
1 178:1 508:1 1119:1 1162:1 1215:1 1218:1 1222:1 1235:1 1242:3
1 1119:1 1162:1 1218:1 1222:1 1242:1
1 508:1 910:1 1119:1 1162:1 1218:1 1222:1 1230:1 1235:1 1242:2
1 910:1 911:1 1119:1 1162:1 1218:1 1222:1 1230:1 1231:1 1242:1
1 1119:1 1162:1 1218:1 1222:1 1242:2
1 1162:1 1218:1 1242:2
1 508:1 1119:1 1162:1 1218:1 1222:1 1235:1 1242:1
1 1119:1 1162:1 1218:1 1222:1 1242:2
1 178:1 508:1 911:1 1119:1 1162:1 1215:1 1218:1 1222:1 1231:1 1235:1 1242:2
1 910:1 1119:1 1162:1 1218:1 1222:1 1230:1 1242:2
1 508:1 1162:1 1218:1 1235:1 1242:2
1 910:1 1162:1 1218:1 1230:1 1242:3 1244:1
1 1119:1 1162:1 1218:1 1222:1 1242:2
1 1119:1 1162:1 1218:1 1222:1 1242:2
1 508:1 910:1 1119:1 1162:1 1218:1 1222:1 1230:1 1235:1 1242:2
1 347:1 508:1 910:1 1119:1 1162:1 1218:1 1222:1 1224:1 1230:1 1235:1 1242:2
1 1162:1 1218:1 1242:3
1 347:1 910:1 1119:1 1162:1 1218:1 1222:1 1224:1 1230:1 1242:2
1 1119:1 1162:1 1218:1 1222:1 1242:2
1 1119:1 1162:1 1218:1 1222:1 1242:2
1 508:1 1119:1 1162:1 1218:1 1222:1 1235:1 1242:1
1 508:1 911:1 1162:1 1218:1 1231:1 1235:1 1242:2
1 911:1 970:1 1119:1 1162:1 1218:1 1222:1 1225:1 1231:1 1242:2
1 178:1 347:1 910:1 1119:1 1162:1 1215:1 1218:1 1222:1 1224:1 1230:1 1242:2
1 1119:1 1162:1 1218:1 1222:1 1242:2
1 508:1 1119:1 1162:1 1218:1 1222:1 1235:1 1242:2
1 1119:1 1162:1 1218:1 1222:1 1242:2
1 1119:1 1162:1 1218:1 1222:1 1242:1
1 508:1 910:1 1119:1 1162:1 1218:1 1222:1 1230:1 1235:1 1242:2
1 347:1 910:1 911:1 1119:1 1162:1 1218:1 1222:1 1224:1 1230:1 1231:1 1242:2
1 166:1 508:1 651:1 820:1 910:1 1117:1 1119:1 1162:1 1218:1 1220:1 1221:1 1222:1 1230:1 1232:1 1235:1 1236:1 1242:2
1 178:1 508:1 910:1 1162:1 1215:1 1218:1 1230:1 1235:1 1242:2
1 1119:1 1162:1 1218:1 1222:1 1242:2
1 508:1 910:1 1119:1 1162:1 1218:1 1222:1 1230:1 1235:1 1242:2
1 347:1 508:1 910:1 1119:1 1162:1 1218:1 1222:1 1224:1 1230:1 1235:1 1242:3
1 508:1 911:1 1119:1 1162:1 1218:1 1222:1 1231:1 1235:1 1242:2
1 1119:1 1162:1 1218:1 1222:1 1242:2
1 1119:1 1162:1 1218:1 1222:1 1242:2
1 347:1 508:1 910:1 1119:1 1162:1 1218:1 1222:1 1224:1 1230:1 1235:1 1242:2
1 910:1 1119:1 1162:1 1218:1 1222:1 1230:1 1242:2
1 1119:1 1162:1 1218:1 1222:1 1242:2
1 178:1 508:1 911:1 1119:1 1162:1 1215:1 1218:1 1222:1 1231:1 1235:1 1242:2
1 910:1 1119:1 1162:1 1218:1 1222:1 1230:1 1242:2
1 508:1 911:1 1119:1 1162:1 1218:1 1222:1 1231:1 1235:1 1242:2
1 178:1 508:1 910:1 1119:1 1162:1 1215:1 1218:1 1222:1 1230:1 1235:1 1242:2
1 508:1 910:1 1119:1 1162:1 1218:1 1222:1 1230:1 1235:1 1242:2
1 508:1 910:1 1119:1 1162:1 1218:1 1222:1 1230:1 1235:1 1242:2
1 178:1 347:1 1119:1 1162:1 1215:1 1218:1 1222:1 1224:1 1242:2
1 166:1 508:1 651:1 820:1 910:1 1117:1 1119:1 1162:1 1218:1 1220:1 1221:1 1222:1 1230:1 1232:1 1235:1 1236:1 1242:2
1 928:1 1240:1 1242:4
1 910:1 1119:1 1162:1 1218:1 1222:1 1230:1 1242:2
1 178:1 508:1 1119:1 1162:1 1215:1 1218:1 1222:1 1235:1 1242:2
1 508:1 1162:1 1218:1 1235:1 1242:2
1 508:1 1119:1 1162:1 1218:1 1222:1 1235:1 1242:3
1 178:1 910:1 1119:1 1162:1 1215:1 1218:1 1222:1 1230:1 1242:2
1 347:1 910:1 1119:1 1162:1 1218:1 1222:1 1224:1 1230:1 1242:2
1 508:1 910:1 911:1 1119:1 1162:1 1218:1 1222:1 1230:1 1231:1 1235:1 1242:2
1 910:1 1119:1 1162:1 1218:1 1222:1 1230:1 1242:3
1 910:1 970:1 1119:1 1162:1 1218:1 1222:1 1225:1 1230:1 1242:1
1 508:1 910:1 911:1 1119:1 1162:1 1218:1 1222:1 1230:1 1231:1 1235:1 1242:2
1 1162:1 1218:1 1242:2
1 1119:1 1162:1 1218:1 1222:1 1242:2
1 508:1 910:1 1119:1 1162:1 1218:1 1222:1 1230:1 1235:1 1242:1
1 347:1 508:1 910:1 1119:1 1162:1 1218:1 1222:1 1224:1 1230:1 1235:1 1242:2
1 508:1 1119:1 1162:1 1218:1 1222:1 1235:1 1242:2
1 910:1 1119:1 1162:1 1218:1 1222:1 1230:1 1242:2
1 1119:1 1162:1 1218:1 1222:1 1242:2
1 178:1 910:1 1119:1 1162:1 1215:1 1218:1 1222:1 1230:1 1242:2
1 1119:1 1162:1 1218:1 1222:1 1242:2
1 1162:1 1218:1 1242:3
1 508:1 1162:1 1218:1 1235:1 1242:2
1 1162:1 1218:1 1242:3
1 910:1 1119:1 1162:1 1218:1 1222:1 1230:1 1242:2
1 910:1 911:1 1119:1 1162:1 1218:1 1222:1 1230:1 1231:1 1242:2
1 508:1 1119:1 1162:1 1218:1 1222:1 1235:1 1242:1
1 508:1 1162:1 1218:1 1235:1 1242:2
1 508:1 911:1 1119:1 1162:1 1218:1 1222:1 1231:1 1235:1 1242:2
1 166:1 508:1 651:1 820:1 910:1 1117:1 1119:1 1162:1 1218:1 1220:1 1221:1 1222:1 1230:1 1232:1 1235:1 1236:1 1242:2
1 347:1 910:1 1119:1 1162:1 1218:1 1222:1 1224:1 1230:1 1242:2
1 347:1 508:1 910:1 1119:1 1162:1 1218:1 1222:1 1224:1 1230:1 1235:1 1242:1
1 178:1 1119:1 1162:1 1215:1 1218:1 1222:1 1242:2
1 508:1 1119:1 1162:1 1218:1 1222:1 1235:1 1242:1
1 347:1 508:1 911:1 1119:1 1162:1 1218:1 1222:1 1224:1 1231:1 1235:1 1242:3
1 1119:1 1162:1 1218:1 1222:1 1242:2
1 508:1 910:1 1162:1 1218:1 1230:1 1235:1 1242:2
1 178:1 347:1 508:1 910:1 911:1 1119:1 1162:1 1215:1 1218:1 1222:1 1224:1 1230:1 1231:1 1235:1 1242:2
1 166:1 508:1 651:1 820:1 910:1 1117:1 1119:1 1162:1 1218:1 1220:1 1221:1 1222:1 1230:1 1232:1 1235:1 1236:1 1242:2
1 347:1 1119:1 1162:1 1218:1 1222:1 1224:1 1242:2
1 508:1 1162:1 1218:1 1235:1 1242:4
1 1162:1 1218:1 1242:3
1 1119:1 1162:1 1218:1 1222:1 1242:2
1 508:1 911:1 1119:1 1162:1 1218:1 1222:1 1231:1 1235:1 1242:2
1 347:1 910:1 1119:1 1162:1 1218:1 1222:1 1224:1 1230:1 1242:2
1 347:1 910:1 1119:1 1162:1 1218:1 1222:1 1224:1 1230:1 1242:2
1 347:1 508:1 910:1 1119:1 1162:1 1218:1 1222:1 1224:1 1230:1 1235:1 1242:2
1 347:1 508:1 910:1 1119:1 1162:1 1218:1 1222:1 1224:1 1230:1 1235:1 1242:2
1 508:1 1162:1 1218:1 1235:1 1242:2
1 910:1 1119:1 1162:1 1218:1 1222:1 1230:1 1242:2
1 1242:3
1 910:1 911:1 1119:1 1162:1 1218:1 1222:1 1230:1 1231:1 1242:2
1 508:1 910:1 911:1 1119:1 1162:1 1218:1 1222:1 1230:1 1231:1 1235:1 1242:2
1 1119:1 1162:1 1218:1 1222:1 1242:2
1 910:1 1162:1 1218:1 1230:1 1242:2
1 508:1 1119:1 1162:1 1218:1 1222:1 1235:1 1242:1
1 1242:3
1 1119:1 1162:1 1218:1 1222:1 1242:2
1 347:1 911:1 1119:1 1162:1 1218:1 1222:1 1224:1 1231:1 1242:2
1 508:1 910:1 1119:1 1162:1 1218:1 1222:1 1230:1 1235:1 1242:2
1 508:1 1119:1 1162:1 1218:1 1222:1 1235:1 1242:2
1 508:1 910:1 1119:1 1162:1 1218:1 1222:1 1230:1 1235:1 1242:1
1 1119:1 1162:1 1218:1 1222:1 1242:2
1 928:1 1240:1 1242:4
1 178:1 347:1 508:1 910:1 911:1 1119:1 1162:1 1215:1 1218:1 1222:1 1224:1 1230:1 1231:1 1235:1 1242:2
1 508:1 1119:1 1162:1 1218:1 1222:1 1235:1 1242:1
1 1119:1 1162:1 1218:1 1222:1 1242:3
1 1119:1 1162:1 1218:1 1222:1 1242:2
1 166:1 508:1 651:1 820:1 910:1 1117:1 1119:1 1162:1 1218:1 1220:1 1221:1 1222:1 1230:1 1232:1 1235:1 1236:1 1242:2
1 1119:1 1162:1 1218:1 1222:1 1242:2
1 1119:1 1162:1 1218:1 1222:1 1242:2
1 1119:1 1162:1 1218:1 1222:1 1242:2
1 347:1 910:1 1119:1 1162:1 1218:1 1222:1 1224:1 1230:1 1242:2
1 910:1 1162:1 1218:1 1230:1 1242:2
1 911:1 1119:1 1162:1 1218:1 1222:1 1231:1 1242:1
1 508:1 910:1 1119:1 1162:1 1218:1 1222:1 1230:1 1235:1 1242:2
1 1162:1 1218:1 1242:4
1 1119:1 1162:1 1218:1 1222:1 1242:2
1 1119:1 1162:1 1218:1 1222:1 1242:2
1 178:1 347:1 910:1 1119:1 1162:1 1215:1 1218:1 1222:1 1224:1 1230:1 1242:2
1 928:1 1240:1 1242:5
1 1162:1 1218:1 1242:3
1 508:1 1162:1 1218:1 1235:1 1242:2
1 910:1 1119:1 1162:1 1218:1 1222:1 1230:1 1242:2
1 508:1 911:1 1119:1 1162:1 1218:1 1222:1 1231:1 1235:1 1242:2
1 1119:1 1162:1 1218:1 1222:1 1242:2
1 1162:1 1218:1 1242:3
1 1162:1 1218:1 1242:1
1 508:1 1119:1 1162:1 1218:1 1222:1 1235:1 1242:1
1 347:1 910:1 1119:1 1162:1 1218:1 1222:1 1224:1 1230:1 1242:2
1 508:1 1119:1 1162:1 1218:1 1222:1 1235:1 1242:2
1 910:1 1119:1 1162:1 1218:1 1222:1 1230:1 1242:2
1 508:1 910:1 1119:1 1162:1 1218:1 1222:1 1230:1 1235:1 1242:2
1 347:1 508:1 910:1 1119:1 1162:1 1218:1 1222:1 1224:1 1230:1 1235:1 1242:1
1 910:1 1162:1 1218:1 1230:1 1242:3
1 166:1 508:1 651:1 820:1 910:1 1117:1 1119:1 1162:1 1218:1 1220:1 1221:1 1222:1 1230:1 1232:1 1235:1 1236:1 1242:2
1 166:1 508:1 651:1 820:1 910:1 1117:1 1119:1 1162:1 1218:1 1220:1 1221:1 1222:1 1230:1 1232:1 1235:1 1236:1 1242:2
1 928:1 1240:1 1242:4
1 910:1 1119:1 1162:1 1218:1 1222:1 1230:1 1242:1
1 508:1 910:1 1119:1 1162:1 1218:1 1222:1 1230:1 1235:1 1242:1
1 166:1 508:1 651:1 820:1 910:1 1117:1 1119:1 1162:1 1218:1 1220:1 1221:1 1222:1 1230:1 1232:1 1235:1 1236:1 1242:2
1 910:1 1162:1 1218:1 1230:1 1242:3 1244:1
1 1119:1 1162:1 1218:1 1222:1 1242:2
1 1119:1 1162:1 1218:1 1222:1 1242:1
1 508:1 1119:1 1162:1 1218:1 1222:1 1235:1 1242:1
1 508:1 1119:1 1162:1 1218:1 1222:1 1235:1 1242:1
1 178:1 508:1 910:1 1119:1 1162:1 1215:1 1218:1 1222:1 1230:1 1235:1 1242:1
1 910:1 1119:1 1162:1 1218:1 1222:1 1230:1 1242:2
1 508:1 1119:1 1162:1 1218:1 1222:1 1235:1 1242:1
1 1119:1 1162:1 1218:1 1222:1 1242:2
1 1162:1 1218:1 1242:1
1 347:1 508:1 910:1 1119:1 1162:1 1218:1 1222:1 1224:1 1230:1 1235:1 1242:2
1 1119:1 1162:1 1218:1 1222:1 1242:2
1 508:1 910:1 1119:1 1162:1 1218:1 1222:1 1230:1 1235:1 1242:3
1 910:1 1119:1 1162:1 1218:1 1222:1 1230:1 1242:2
1 508:1 1119:1 1162:1 1218:1 1222:1 1235:1 1242:1
1 1119:1 1162:1 1218:1 1222:1 1242:2
1 508:1 1119:1 1162:1 1218:1 1222:1 1235:1 1242:1
1 928:1 1240:1 1242:5
1 178:1 347:1 910:1 1119:1 1162:1 1215:1 1218:1 1222:1 1224:1 1230:1 1242:2
1 1162:1 1218:1 1242:3
1 508:1 1119:1 1162:1 1218:1 1222:1 1235:1 1242:1
1 347:1 508:1 910:1 1119:1 1162:1 1218:1 1222:1 1224:1 1230:1 1235:1 1242:1
1 1119:1 1162:1 1218:1 1222:1 1242:1
1 508:1 1162:1 1218:1 1235:1 1242:2
1 166:1 508:1 651:1 820:1 910:1 1117:1 1119:1 1162:1 1218:1 1220:1 1221:1 1222:1 1230:1 1232:1 1235:1 1236:1 1242:2
1 1119:1 1162:1 1218:1 1222:1 1242:2
1 1119:1 1162:1 1218:1 1222:1 1242:2
1 910:1 1119:1 1162:1 1218:1 1222:1 1230:1 1242:1
1 508:1 910:1 911:1 1119:1 1162:1 1218:1 1222:1 1230:1 1231:1 1235:1 1242:2
1 166:1 508:1 651:1 820:1 910:1 1117:1 1119:1 1162:1 1218:1 1220:1 1221:1 1222:1 1230:1 1232:1 1235:1 1236:1 1242:2
1 1242:3
1 1119:1 1162:1 1218:1 1222:1 1242:2
1 508:1 1119:1 1162:1 1218:1 1222:1 1235:1 1242:2
1 910:1 911:1 1119:1 1162:1 1218:1 1222:1 1230:1 1231:1 1242:2
1 166:1 508:1 651:1 820:1 910:1 1117:1 1119:1 1162:1 1218:1 1220:1 1221:1 1222:1 1230:1 1232:1 1235:1 1236:1 1242:2
1 166:1 508:1 651:1 820:1 910:1 1117:1 1119:1 1162:1 1218:1 1220:1 1221:1 1222:1 1230:1 1232:1 1235:1 1236:1 1242:2
1 910:1 1119:1 1162:1 1218:1 1222:1 1230:1 1242:1
1 508:1 1119:1 1162:1 1218:1 1222:1 1235:1 1242:1
1 347:1 508:1 910:1 1162:1 1218:1 1224:1 1230:1 1235:1 1242:2
1 910:1 1162:1 1218:1 1230:1 1242:2
1 910:1 1119:1 1162:1 1218:1 1222:1 1230:1 1242:2
1 1119:1 1162:1 1218:1 1222:1 1242:2
1 178:1 347:1 910:1 1119:1 1162:1 1215:1 1218:1 1222:1 1224:1 1230:1 1242:2
1 508:1 1162:1 1218:1 1235:1 1242:2
1 508:1 1162:1 1218:1 1235:1 1242:2
1 1242:3
1 508:1 910:1 1119:1 1162:1 1218:1 1222:1 1230:1 1235:1 1242:2
1 1162:1 1218:1 1242:2
1 1119:1 1162:1 1218:1 1222:1 1242:2
1 508:1 1119:1 1162:1 1218:1 1222:1 1235:1 1242:3
1 1119:1 1162:1 1218:1 1222:1 1242:3
1 508:1 1119:1 1162:1 1218:1 1222:1 1235:1 1242:2
1 1119:1 1162:1 1218:1 1222:1 1242:2
1 347:1 910:1 1119:1 1162:1 1218:1 1222:1 1224:1 1230:1 1242:1
1 178:1 347:1 508:1 910:1 911:1 1119:1 1162:1 1215:1 1218:1 1222:1 1224:1 1230:1 1231:1 1235:1 1242:2
1 910:1 1119:1 1162:1 1218:1 1222:1 1230:1 1242:2
1 508:1 1119:1 1162:1 1218:1 1222:1 1235:1 1242:2
1 508:1 910:1 911:1 1119:1 1162:1 1218:1 1222:1 1230:1 1231:1 1235:1 1242:2
1 347:1 508:1 910:1 1162:1 1218:1 1224:1 1230:1 1235:1 1242:2
1 166:1 508:1 651:1 820:1 910:1 1117:1 1119:1 1162:1 1218:1 1220:1 1221:1 1222:1 1230:1 1232:1 1235:1 1236:1 1242:2
1 508:1 910:1 911:1 1119:1 1162:1 1218:1 1222:1 1230:1 1231:1 1235:1 1242:1
1 508:1 910:1 1119:1 1162:1 1218:1 1222:1 1230:1 1235:1 1242:3
1 508:1 1119:1 1162:1 1218:1 1222:1 1235:1 1242:2
1 508:1 1162:1 1218:1 1235:1 1242:2
1 1242:3
1 508:1 910:1 1119:1 1162:1 1218:1 1222:1 1230:1 1235:1 1242:1
1 508:1 1119:1 1162:1 1218:1 1222:1 1235:1 1242:2
1 508:1 1119:1 1162:1 1218:1 1222:1 1235:1 1242:1
1 1119:1 1162:1 1218:1 1222:1 1242:2
1 1162:1 1218:1 1242:2
1 508:1 1119:1 1162:1 1218:1 1222:1 1235:1 1242:2
1 1162:1 1218:1 1242:1
1 910:1 1119:1 1162:1 1218:1 1222:1 1230:1 1242:3
1 910:1 1119:1 1162:1 1218:1 1222:1 1230:1 1242:1
1 508:1 1119:1 1162:1 1218:1 1222:1 1235:1 1242:2
1 166:1 508:1 651:1 820:1 910:1 1117:1 1119:1 1162:1 1218:1 1220:1 1221:1 1222:1 1230:1 1232:1 1235:1 1236:1 1242:2
1 1162:1 1218:1 1242:3
1 1119:1 1162:1 1218:1 1222:1 1242:2
1 508:1 911:1 1119:1 1162:1 1218:1 1222:1 1231:1 1235:1 1242:1
1 1119:1 1162:1 1218:1 1222:1 1242:2
1 1162:1 1218:1 1242:2
1 928:1 1240:1 1242:4
1 508:1 1119:1 1162:1 1218:1 1222:1 1235:1 1242:3
1 166:1 508:1 651:1 820:1 910:1 1117:1 1119:1 1162:1 1218:1 1220:1 1221:1 1222:1 1230:1 1232:1 1235:1 1236:1 1242:2
1 166:1 508:1 651:1 820:1 910:1 1117:1 1119:1 1162:1 1218:1 1220:1 1221:1 1222:1 1230:1 1232:1 1235:1 1236:1 1242:2
1 178:1 347:1 508:1 910:1 911:1 1119:1 1162:1 1215:1 1218:1 1222:1 1224:1 1230:1 1231:1 1235:1 1242:1
1 910:1 911:1 1119:1 1162:1 1218:1 1222:1 1230:1 1231:1 1242:2
1 178:1 508:1 1162:1 1215:1 1218:1 1235:1 1242:2
1 1119:1 1162:1 1218:1 1222:1 1242:2
1 508:1 911:1 1119:1 1162:1 1218:1 1222:1 1231:1 1235:1 1242:2
1 928:1 1240:1 1242:4
1 508:1 1162:1 1218:1 1235:1 1242:2
1 1119:1 1162:1 1218:1 1222:1 1242:1
1 910:1 1119:1 1162:1 1218:1 1222:1 1230:1 1242:1
1 1119:1 1162:1 1218:1 1222:1 1242:2
1 1119:1 1162:1 1218:1 1222:1 1242:2
1 928:1 1240:1 1242:3
1 1119:1 1162:1 1218:1 1222:1 1242:3
1 508:1 1119:1 1162:1 1218:1 1222:1 1235:1 1242:3
1 178:1 347:1 508:1 910:1 911:1 970:1 1119:1 1162:1 1215:1 1218:1 1222:1 1224:1 1225:1 1230:1 1231:1 1235:1 1242:2
1 178:1 910:1 1119:1 1162:1 1215:1 1218:1 1222:1 1230:1 1242:2
1 928:1 1240:1 1242:3
1 910:1 1119:1 1162:1 1218:1 1222:1 1230:1 1242:2
1 508:1 910:1 1119:1 1162:1 1218:1 1222:1 1230:1 1235:1 1242:3
1 178:1 508:1 911:1 1119:1 1162:1 1215:1 1218:1 1222:1 1231:1 1235:1 1242:2
1 347:1 508:1 910:1 1162:1 1218:1 1224:1 1230:1 1235:1 1242:2
1 1119:1 1162:1 1218:1 1222:1 1242:3
1 1119:1 1162:1 1218:1 1222:1 1242:2
1 508:1 1162:1 1218:1 1235:1 1242:2
1 928:1 1240:1 1242:4
1 508:1 910:1 1119:1 1162:1 1218:1 1222:1 1230:1 1235:1 1242:2
1 1242:3
1 1162:1 1218:1 1242:1
1 347:1 910:1 1119:1 1162:1 1218:1 1222:1 1224:1 1230:1 1242:2
1 166:1 508:1 651:1 820:1 910:1 1117:1 1119:1 1162:1 1218:1 1220:1 1221:1 1222:1 1230:1 1232:1 1235:1 1236:1 1242:2
1 970:1 1119:1 1162:1 1218:1 1222:1 1225:1 1242:2
1 508:1 1162:1 1218:1 1235:1 1242:2
1 166:1 508:1 651:1 820:1 910:1 1117:1 1119:1 1162:1 1218:1 1220:1 1221:1 1222:1 1230:1 1232:1 1235:1 1236:1 1242:2
1 508:1 910:1 1119:1 1162:1 1218:1 1222:1 1230:1 1235:1 1242:1
1 508:1 1119:1 1162:1 1218:1 1222:1 1235:1 1242:3
1 347:1 910:1 1119:1 1162:1 1218:1 1222:1 1224:1 1230:1 1242:2
1 1119:1 1162:1 1218:1 1222:1 1242:2
1 347:1 910:1 1119:1 1162:1 1218:1 1222:1 1224:1 1230:1 1242:2
1 1119:1 1162:1 1218:1 1222:1 1242:2
1 910:1 1119:1 1162:1 1218:1 1222:1 1230:1 1242:1
1 508:1 910:1 1119:1 1162:1 1218:1 1222:1 1230:1 1235:1 1242:2
1 1119:1 1162:1 1218:1 1222:1 1242:2
1 178:1 508:1 910:1 1119:1 1162:1 1215:1 1218:1 1222:1 1230:1 1235:1 1242:2
1 910:1 1119:1 1162:1 1218:1 1222:1 1230:1 1242:2
1 1119:1 1162:1 1218:1 1222:1 1242:2
1 178:1 347:1 910:1 1119:1 1162:1 1215:1 1218:1 1222:1 1224:1 1230:1 1242:2
1 347:1 910:1 1119:1 1162:1 1218:1 1222:1 1224:1 1230:1 1242:2
1 508:1 1119:1 1162:1 1218:1 1222:1 1235:1 1242:2
1 910:1 1119:1 1162:1 1218:1 1222:1 1230:1 1242:2
1 347:1 508:1 1119:1 1162:1 1218:1 1222:1 1224:1 1235:1 1242:2
1 1119:1 1162:1 1218:1 1222:1 1242:2
1 508:1 1119:1 1162:1 1218:1 1222:1 1235:1 1242:2
1 910:1 1119:1 1162:1 1218:1 1222:1 1230:1 1242:2
1 508:1 1119:1 1162:1 1218:1 1222:1 1235:1 1242:2
1 508:1 1162:1 1218:1 1235:1 1242:1
1 178:1 347:1 508:1 910:1 911:1 970:1 1119:1 1162:1 1215:1 1218:1 1222:1 1224:1 1225:1 1230:1 1231:1 1235:1 1242:2
1 508:1 910:1 1119:1 1162:1 1218:1 1222:1 1230:1 1235:1 1242:2
1 178:1 1119:1 1162:1 1215:1 1218:1 1222:1 1242:2
1 508:1 911:1 1119:1 1162:1 1218:1 1222:1 1231:1 1235:1 1242:2
1 178:1 347:1 508:1 910:1 1119:1 1162:1 1215:1 1218:1 1222:1 1224:1 1230:1 1235:1 1242:1
1 1119:1 1162:1 1218:1 1222:1 1242:2
1 508:1 910:1 911:1 1119:1 1162:1 1218:1 1222:1 1230:1 1231:1 1235:1 1242:2
1 911:1 1119:1 1162:1 1218:1 1222:1 1231:1 1242:3
1 347:1 910:1 911:1 1119:1 1162:1 1218:1 1222:1 1224:1 1230:1 1231:1 1242:2
1 508:1 1119:1 1162:1 1218:1 1222:1 1235:1 1242:3
1 1162:1 1218:1 1242:3
1 910:1 1119:1 1162:1 1218:1 1222:1 1230:1 1242:2
1 347:1 508:1 910:1 1119:1 1162:1 1218:1 1222:1 1224:1 1230:1 1235:1 1242:2
1 910:1 911:1 1119:1 1162:1 1218:1 1222:1 1230:1 1231:1 1242:1
1 508:1 1162:1 1218:1 1235:1 1242:1
1 178:1 347:1 1119:1 1162:1 1215:1 1218:1 1222:1 1224:1 1242:2
1 1162:1 1218:1 1242:3
1 178:1 347:1 910:1 1119:1 1162:1 1215:1 1218:1 1222:1 1224:1 1230:1 1242:2
1 911:1 1119:1 1162:1 1218:1 1222:1 1231:1 1242:1
1 1119:1 1162:1 1218:1 1222:1 1242:2
1 347:1 508:1 1162:1 1218:1 1224:1 1235:1 1242:5 1244:1
1 910:1 1119:1 1162:1 1218:1 1222:1 1230:1 1242:2
1 508:1 911:1 1119:1 1162:1 1218:1 1222:1 1231:1 1235:1 1242:2
1 1119:1 1162:1 1218:1 1222:1 1242:2
1 1119:1 1162:1 1218:1 1222:1 1242:2
1 508:1 1119:1 1162:1 1218:1 1222:1 1235:1 1242:1
1 508:1 910:1 1119:1 1162:1 1218:1 1222:1 1230:1 1235:1 1242:2
1 1162:1 1218:1 1242:3
1 1162:1 1218:1 1242:3
1 508:1 910:1 1162:1 1218:1 1230:1 1235:1 1242:2
1 508:1 1119:1 1162:1 1218:1 1222:1 1235:1 1242:2
1 347:1 508:1 910:1 1119:1 1162:1 1218:1 1222:1 1224:1 1230:1 1235:1 1242:2
1 1162:1 1218:1 1242:2
1 508:1 910:1 1119:1 1162:1 1218:1 1222:1 1230:1 1235:1 1242:2
1 508:1 910:1 911:1 1119:1 1162:1 1218:1 1222:1 1230:1 1231:1 1235:1 1242:2
1 1119:1 1162:1 1218:1 1222:1 1242:2
1 166:1 508:1 651:1 820:1 910:1 1117:1 1119:1 1162:1 1218:1 1220:1 1221:1 1222:1 1230:1 1232:1 1235:1 1236:1 1242:2
1 1119:1 1162:1 1218:1 1222:1 1242:2
1 1119:1 1162:1 1218:1 1222:1 1242:2
1 508:1 910:1 911:1 1119:1 1162:1 1218:1 1222:1 1230:1 1231:1 1235:1 1242:2
1 1119:1 1162:1 1218:1 1222:1 1242:2
1 928:1 1240:1 1242:4
1 238:1 347:1 403:1 496:1 629:1 650:1 910:1 995:1 1080:1 1119:1 1162:1 1218:1 1219:1 1222:1 1223:1 1224:1 1227:1 1230:1 1234:1 1237:1 1239:1 1241:1 1242:1 1244:1
1 1119:1 1162:1 1218:1 1222:1 1242:2
1 1162:1 1218:1 1242:3 1244:1
1 508:1 1162:1 1218:1 1235:1 1242:2
1 508:1 1119:1 1162:1 1218:1 1222:1 1235:1 1242:1
1 508:1 1162:1 1218:1 1235:1 1242:2
1 178:1 347:1 910:1 1119:1 1162:1 1215:1 1218:1 1222:1 1224:1 1230:1 1242:2
1 1119:1 1162:1 1218:1 1222:1 1242:1
1 910:1 1119:1 1162:1 1218:1 1222:1 1230:1 1242:2
1 508:1 1119:1 1162:1 1218:1 1222:1 1235:1 1242:2
1 928:1 1240:1 1242:4
1 178:1 347:1 508:1 910:1 911:1 1119:1 1162:1 1215:1 1218:1 1222:1 1224:1 1230:1 1231:1 1235:1 1242:2
1 347:1 508:1 910:1 1119:1 1162:1 1218:1 1222:1 1224:1 1230:1 1235:1 1242:2
1 166:1 508:1 651:1 820:1 910:1 1117:1 1119:1 1162:1 1218:1 1220:1 1221:1 1222:1 1230:1 1232:1 1235:1 1236:1 1242:2
1 1162:1 1218:1 1242:1
1 1119:1 1162:1 1218:1 1222:1 1242:1
1 1119:1 1162:1 1218:1 1222:1 1242:1
1 1119:1 1162:1 1218:1 1222:1 1242:2
1 1119:1 1162:1 1218:1 1222:1 1242:2
1 508:1 910:1 1119:1 1162:1 1218:1 1222:1 1230:1 1235:1 1242:2
1 1162:1 1218:1 1242:1
1 1119:1 1162:1 1218:1 1222:1 1242:2
1 928:1 1240:1 1242:3
1 910:1 1119:1 1162:1 1218:1 1222:1 1230:1 1242:2
1 347:1 508:1 910:1 1119:1 1162:1 1218:1 1222:1 1224:1 1230:1 1235:1 1242:1
1 1162:1 1218:1 1242:1
1 508:1 1162:1 1218:1 1235:1 1242:2
1 508:1 910:1 1162:1 1218:1 1230:1 1235:1 1242:2
1 910:1 1119:1 1162:1 1218:1 1222:1 1230:1 1242:3
1 910:1 1162:1 1218:1 1230:1 1242:2
1 910:1 1119:1 1162:1 1218:1 1222:1 1230:1 1242:2
1 1119:1 1162:1 1218:1 1222:1 1242:1
1 508:1 910:1 1119:1 1162:1 1218:1 1222:1 1230:1 1235:1 1242:2
1 166:1 508:1 651:1 820:1 910:1 1117:1 1119:1 1162:1 1218:1 1220:1 1221:1 1222:1 1230:1 1232:1 1235:1 1236:1 1242:2
1 1119:1 1162:1 1218:1 1222:1 1242:2
1 347:1 910:1 1119:1 1162:1 1218:1 1222:1 1224:1 1230:1 1242:2
1 347:1 911:1 1119:1 1162:1 1218:1 1222:1 1224:1 1231:1 1242:2
1 1119:1 1162:1 1218:1 1222:1 1242:2
1 508:1 910:1 1119:1 1162:1 1218:1 1222:1 1230:1 1235:1 1242:2
1 508:1 910:1 1119:1 1162:1 1218:1 1222:1 1230:1 1235:1 1242:1
1 508:1 910:1 1162:1 1218:1 1230:1 1235:1 1242:2
1 910:1 1119:1 1162:1 1218:1 1222:1 1230:1 1242:2
1 166:1 508:1 651:1 820:1 910:1 1117:1 1119:1 1162:1 1218:1 1220:1 1221:1 1222:1 1230:1 1232:1 1235:1 1236:1 1242:2
1 347:1 508:1 910:1 1119:1 1162:1 1218:1 1222:1 1224:1 1230:1 1235:1 1242:2
1 1119:1 1162:1 1218:1 1222:1 1242:2
1 1119:1 1162:1 1218:1 1222:1 1242:2
1 347:1 910:1 1119:1 1162:1 1218:1 1222:1 1224:1 1230:1 1242:2
1 508:1 910:1 1119:1 1162:1 1218:1 1222:1 1230:1 1235:1 1242:2
1 508:1 911:1 1119:1 1162:1 1218:1 1222:1 1231:1 1235:1 1242:2
1 178:1 347:1 1119:1 1162:1 1215:1 1218:1 1222:1 1224:1 1242:2
1 178:1 347:1 508:1 910:1 1119:1 1162:1 1215:1 1218:1 1222:1 1224:1 1230:1 1235:1 1242:2
1 928:1 1240:1 1242:4
1 508:1 910:1 1119:1 1162:1 1218:1 1222:1 1230:1 1235:1 1242:1
1 178:1 347:1 910:1 1119:1 1162:1 1215:1 1218:1 1222:1 1224:1 1230:1 1242:2
1 1162:1 1218:1 1242:3
1 1119:1 1162:1 1218:1 1222:1 1242:3
1 1162:1 1218:1 1242:2
1 178:1 508:1 1119:1 1162:1 1215:1 1218:1 1222:1 1235:1 1242:1
1 178:1 347:1 1119:1 1162:1 1215:1 1218:1 1222:1 1224:1 1242:2
1 910:1 1119:1 1162:1 1218:1 1222:1 1230:1 1242:2
1 178:1 347:1 508:1 910:1 911:1 1119:1 1162:1 1215:1 1218:1 1222:1 1224:1 1230:1 1231:1 1235:1 1242:1
1 166:1 508:1 651:1 820:1 910:1 1117:1 1119:1 1162:1 1218:1 1220:1 1221:1 1222:1 1230:1 1232:1 1235:1 1236:1 1242:2
1 1162:1 1218:1 1242:2
1 166:1 508:1 651:1 820:1 910:1 1117:1 1119:1 1162:1 1218:1 1220:1 1221:1 1222:1 1230:1 1232:1 1235:1 1236:1 1242:2
1 178:1 347:1 1119:1 1162:1 1215:1 1218:1 1222:1 1224:1 1242:2
1 508:1 1119:1 1162:1 1218:1 1222:1 1235:1 1242:2
1 508:1 1119:1 1162:1 1218:1 1222:1 1235:1 1242:2
1 508:1 910:1 911:1 1119:1 1162:1 1218:1 1222:1 1230:1 1231:1 1235:1 1242:2
1 1242:3
1 928:1 1240:1 1242:4
1 347:1 910:1 911:1 1119:1 1162:1 1218:1 1222:1 1224:1 1230:1 1231:1 1242:2
1 508:1 1119:1 1162:1 1218:1 1222:1 1235:1 1242:1
1 1119:1 1162:1 1218:1 1222:1 1242:2
1 1119:1 1162:1 1218:1 1222:1 1242:2
1 1242:3
1 1119:1 1162:1 1218:1 1222:1 1242:2
1 508:1 1119:1 1162:1 1218:1 1222:1 1235:1 1242:1
1 508:1 911:1 1119:1 1162:1 1218:1 1222:1 1231:1 1235:1 1242:2
1 347:1 910:1 1119:1 1162:1 1218:1 1222:1 1224:1 1230:1 1242:2
1 508:1 910:1 1119:1 1162:1 1218:1 1222:1 1230:1 1235:1 1242:2
1 508:1 1119:1 1162:1 1218:1 1222:1 1235:1 1242:3
1 910:1 1119:1 1162:1 1218:1 1222:1 1230:1 1242:2
1 166:1 508:1 651:1 820:1 910:1 1117:1 1119:1 1162:1 1218:1 1220:1 1221:1 1222:1 1230:1 1232:1 1235:1 1236:1 1242:2
1 1162:1 1218:1 1242:1
1 508:1 910:1 1162:1 1218:1 1230:1 1235:1 1242:2
1 910:1 1119:1 1162:1 1218:1 1222:1 1230:1 1242:2
1 178:1 508:1 910:1 1119:1 1162:1 1215:1 1218:1 1222:1 1230:1 1235:1 1242:2
1 508:1 910:1 1119:1 1162:1 1218:1 1222:1 1230:1 1235:1 1242:4
1 508:1 910:1 1119:1 1162:1 1218:1 1222:1 1230:1 1235:1 1242:2
1 508:1 1162:1 1218:1 1235:1 1242:2
1 508:1 910:1 1119:1 1162:1 1218:1 1222:1 1230:1 1235:1 1242:2
1 508:1 1162:1 1218:1 1235:1 1242:1
1 178:1 347:1 1119:1 1162:1 1215:1 1218:1 1222:1 1224:1 1242:2
1 508:1 910:1 1119:1 1162:1 1218:1 1222:1 1230:1 1235:1 1242:2
1 347:1 508:1 910:1 1119:1 1162:1 1218:1 1222:1 1224:1 1230:1 1235:1 1242:2
1 347:1 508:1 1119:1 1162:1 1218:1 1222:1 1224:1 1235:1 1242:3
1 166:1 508:1 651:1 820:1 910:1 1117:1 1119:1 1162:1 1218:1 1220:1 1221:1 1222:1 1230:1 1232:1 1235:1 1236:1 1242:2
1 508:1 910:1 1119:1 1162:1 1218:1 1222:1 1230:1 1235:1 1242:2
1 1119:1 1162:1 1218:1 1222:1 1242:2
1 1119:1 1162:1 1218:1 1222:1 1242:2
1 178:1 347:1 508:1 910:1 911:1 1119:1 1162:1 1215:1 1218:1 1222:1 1224:1 1230:1 1231:1 1235:1 1242:2
1 508:1 910:1 1119:1 1162:1 1218:1 1222:1 1230:1 1235:1 1242:1
1 166:1 508:1 651:1 820:1 910:1 1117:1 1119:1 1162:1 1218:1 1220:1 1221:1 1222:1 1230:1 1232:1 1235:1 1236:1 1242:2
1 508:1 1119:1 1162:1 1218:1 1222:1 1235:1 1242:1
1 347:1 508:1 910:1 1119:1 1162:1 1218:1 1222:1 1224:1 1230:1 1235:1 1242:2
1 166:1 508:1 651:1 820:1 910:1 1117:1 1119:1 1162:1 1218:1 1220:1 1221:1 1222:1 1230:1 1232:1 1235:1 1236:1 1242:2
1 1119:1 1162:1 1218:1 1222:1 1242:2
1 1119:1 1162:1 1218:1 1222:1 1242:3
1 508:1 1119:1 1162:1 1218:1 1222:1 1235:1 1242:2
1 910:1 1119:1 1162:1 1218:1 1222:1 1230:1 1242:2
1 1119:1 1162:1 1218:1 1222:1 1242:2
1 508:1 1162:1 1218:1 1235:1 1242:2
1 1119:1 1162:1 1218:1 1222:1 1242:2
1 1162:1 1218:1 1242:3
1 347:1 910:1 1119:1 1162:1 1218:1 1222:1 1224:1 1230:1 1242:2
1 508:1 911:1 1119:1 1162:1 1218:1 1222:1 1231:1 1235:1 1242:2
1 1119:1 1162:1 1218:1 1222:1 1242:2
1 910:1 1162:1 1218:1 1230:1 1242:3 1244:1
1 508:1 1119:1 1162:1 1218:1 1222:1 1235:1 1242:1
1 508:1 1119:1 1162:1 1218:1 1222:1 1235:1 1242:2
1 166:1 508:1 651:1 820:1 910:1 1117:1 1119:1 1162:1 1218:1 1220:1 1221:1 1222:1 1230:1 1232:1 1235:1 1236:1 1242:2
1 347:1 910:1 911:1 1119:1 1162:1 1218:1 1222:1 1224:1 1230:1 1231:1 1242:2
1 178:1 347:1 910:1 1119:1 1162:1 1215:1 1218:1 1222:1 1224:1 1230:1 1242:2
1 508:1 1119:1 1162:1 1218:1 1222:1 1235:1 1242:2
1 508:1 1119:1 1162:1 1218:1 1222:1 1235:1 1242:3
1 1162:1 1218:1 1242:1
1 910:1 911:1 1119:1 1162:1 1218:1 1222:1 1230:1 1231:1 1242:2
1 1119:1 1162:1 1218:1 1222:1 1242:2
1 166:1 508:1 651:1 820:1 910:1 1117:1 1119:1 1162:1 1218:1 1220:1 1221:1 1222:1 1230:1 1232:1 1235:1 1236:1 1242:2
1 1119:1 1162:1 1218:1 1222:1 1242:2
1 347:1 910:1 1119:1 1162:1 1218:1 1222:1 1224:1 1230:1 1242:2
1 166:1 508:1 651:1 820:1 910:1 1117:1 1119:1 1162:1 1218:1 1220:1 1221:1 1222:1 1230:1 1232:1 1235:1 1236:1 1242:2
1 178:1 910:1 1119:1 1162:1 1215:1 1218:1 1222:1 1230:1 1242:1
1 1119:1 1162:1 1218:1 1222:1 1242:3
1 1119:1 1162:1 1218:1 1222:1 1242:1
1 347:1 508:1 911:1 1119:1 1162:1 1218:1 1222:1 1224:1 1231:1 1235:1 1242:2
1 166:1 508:1 651:1 820:1 910:1 1117:1 1119:1 1162:1 1218:1 1220:1 1221:1 1222:1 1230:1 1232:1 1235:1 1236:1 1242:2
1 508:1 910:1 1119:1 1162:1 1218:1 1222:1 1230:1 1235:1 1242:2
1 508:1 1119:1 1162:1 1218:1 1222:1 1235:1 1242:2
1 910:1 1119:1 1162:1 1218:1 1222:1 1230:1 1242:2
1 1119:1 1162:1 1218:1 1222:1 1242:2
1 178:1 347:1 1119:1 1162:1 1215:1 1218:1 1222:1 1224:1 1242:2
1 1162:1 1218:1 1242:3 1244:1
1 347:1 910:1 1119:1 1162:1 1218:1 1222:1 1224:1 1230:1 1242:2
1 347:1 910:1 1119:1 1162:1 1218:1 1222:1 1224:1 1230:1 1242:2
1 508:1 910:1 1119:1 1162:1 1218:1 1222:1 1230:1 1235:1 1242:1
1 910:1 1119:1 1162:1 1218:1 1222:1 1230:1 1242:2
1 178:1 508:1 1119:1 1162:1 1215:1 1218:1 1222:1 1235:1 1242:1
1 508:1 1119:1 1162:1 1218:1 1222:1 1235:1 1242:1
1 1242:3
1 1162:1 1218:1 1242:3
1 508:1 910:1 911:1 1119:1 1162:1 1218:1 1222:1 1230:1 1231:1 1235:1 1242:2
1 1119:1 1162:1 1218:1 1222:1 1242:2
1 508:1 910:1 911:1 1119:1 1162:1 1218:1 1222:1 1230:1 1231:1 1235:1 1242:1
1 166:1 508:1 651:1 820:1 910:1 1117:1 1119:1 1162:1 1218:1 1220:1 1221:1 1222:1 1230:1 1232:1 1235:1 1236:1 1242:2
1 178:1 508:1 910:1 911:1 1119:1 1162:1 1215:1 1218:1 1222:1 1230:1 1231:1 1235:1 1242:1
1 1119:1 1162:1 1218:1 1222:1 1242:1
1 347:1 910:1 1119:1 1162:1 1218:1 1222:1 1224:1 1230:1 1242:2
1 178:1 508:1 910:1 1119:1 1162:1 1215:1 1218:1 1222:1 1230:1 1235:1 1242:1
1 508:1 910:1 1119:1 1162:1 1218:1 1222:1 1230:1 1235:1 1242:2
1 1162:1 1218:1 1242:3
1 928:1 1240:1 1242:4
1 347:1 508:1 910:1 1119:1 1162:1 1218:1 1222:1 1224:1 1230:1 1235:1 1242:3
1 910:1 1119:1 1162:1 1218:1 1222:1 1230:1 1242:2
1 508:1 910:1 1162:1 1218:1 1230:1 1235:1 1242:2
1 1119:1 1162:1 1218:1 1222:1 1242:1
1 1119:1 1162:1 1218:1 1222:1 1242:2
1 1119:1 1162:1 1218:1 1222:1 1242:2
1 347:1 910:1 911:1 1119:1 1162:1 1218:1 1222:1 1224:1 1230:1 1231:1 1242:2
1 508:1 910:1 911:1 1119:1 1162:1 1218:1 1222:1 1230:1 1231:1 1235:1 1242:2
1 928:1 1240:1 1242:4
1 166:1 508:1 651:1 820:1 910:1 1117:1 1119:1 1162:1 1218:1 1220:1 1221:1 1222:1 1230:1 1232:1 1235:1 1236:1 1242:2
1 166:1 178:1 347:1 508:1 910:1 1119:1 1162:1 1215:1 1218:1 1222:1 1224:1 1230:1 1232:1 1235:1 1242:3
1 508:1 910:1 1119:1 1162:1 1218:1 1222:1 1230:1 1235:1 1242:1
1 1162:1 1218:1 1242:2
1 508:1 910:1 1162:1 1218:1 1230:1 1235:1 1242:3
1 910:1 1119:1 1162:1 1218:1 1222:1 1230:1 1242:2
1 178:1 508:1 911:1 1119:1 1162:1 1215:1 1218:1 1222:1 1231:1 1235:1 1242:2
1 347:1 910:1 1119:1 1162:1 1218:1 1222:1 1224:1 1230:1 1242:2
1 508:1 1162:1 1218:1 1235:1 1242:1
1 910:1 1119:1 1162:1 1218:1 1222:1 1230:1 1242:2
1 1119:1 1162:1 1218:1 1222:1 1242:2
1 347:1 508:1 910:1 1119:1 1162:1 1218:1 1222:1 1224:1 1230:1 1235:1 1242:2
1 347:1 910:1 1119:1 1162:1 1218:1 1222:1 1224:1 1230:1 1242:1
1 508:1 1119:1 1162:1 1218:1 1222:1 1235:1 1242:2
1 166:1 508:1 651:1 820:1 910:1 1117:1 1119:1 1162:1 1218:1 1220:1 1221:1 1222:1 1230:1 1232:1 1235:1 1236:1 1242:2
1 910:1 1119:1 1162:1 1218:1 1222:1 1230:1 1242:2
1 166:1 508:1 651:1 820:1 910:1 1117:1 1119:1 1162:1 1218:1 1220:1 1221:1 1222:1 1230:1 1232:1 1235:1 1236:1 1242:2
1 928:1 1240:1 1242:4
1 178:1 347:1 508:1 910:1 911:1 970:1 1119:1 1162:1 1215:1 1218:1 1222:1 1224:1 1225:1 1230:1 1231:1 1235:1 1242:1
1 910:1 1119:1 1162:1 1218:1 1222:1 1230:1 1242:3
1 910:1 1119:1 1162:1 1218:1 1222:1 1230:1 1242:2
1 1119:1 1162:1 1218:1 1222:1 1242:1
1 911:1 1162:1 1218:1 1231:1 1242:2
1 508:1 1162:1 1218:1 1235:1 1242:1
1 1119:1 1162:1 1218:1 1222:1 1242:2
1 508:1 1119:1 1162:1 1218:1 1222:1 1235:1 1242:2
1 1119:1 1162:1 1218:1 1222:1 1242:2
1 347:1 508:1 1162:1 1218:1 1224:1 1235:1 1242:2
1 1242:3
1 910:1 1119:1 1162:1 1218:1 1222:1 1230:1 1242:2
1 347:1 508:1 910:1 1119:1 1162:1 1218:1 1222:1 1224:1 1230:1 1235:1 1242:2
1 910:1 1119:1 1162:1 1218:1 1222:1 1230:1 1242:3
1 911:1 1162:1 1218:1 1231:1 1242:2
1 1119:1 1162:1 1218:1 1222:1 1242:1
1 508:1 1119:1 1162:1 1218:1 1222:1 1235:1 1242:1
1 508:1 1119:1 1162:1 1218:1 1222:1 1235:1 1242:2
1 178:1 508:1 910:1 1119:1 1162:1 1215:1 1218:1 1222:1 1230:1 1235:1 1242:2
1 508:1 1162:1 1218:1 1235:1 1242:4
1 178:1 347:1 910:1 1119:1 1162:1 1215:1 1218:1 1222:1 1224:1 1230:1 1242:2
1 508:1 910:1 911:1 1119:1 1162:1 1218:1 1222:1 1230:1 1231:1 1235:1 1242:2
1 166:1 508:1 651:1 820:1 910:1 1117:1 1119:1 1162:1 1218:1 1220:1 1221:1 1222:1 1230:1 1232:1 1235:1 1236:1 1242:2
1 910:1 1119:1 1162:1 1218:1 1222:1 1230:1 1242:2
1 508:1 910:1 1119:1 1162:1 1218:1 1222:1 1230:1 1235:1 1242:1
1 1119:1 1162:1 1218:1 1222:1 1242:2
1 347:1 508:1 910:1 1119:1 1162:1 1218:1 1222:1 1224:1 1230:1 1235:1 1242:2
1 166:1 508:1 651:1 820:1 910:1 1117:1 1119:1 1162:1 1218:1 1220:1 1221:1 1222:1 1230:1 1232:1 1235:1 1236:1 1242:2
1 1119:1 1162:1 1218:1 1222:1 1242:1
1 238:1 347:1 403:1 496:1 629:1 650:1 910:1 995:1 1080:1 1119:1 1162:1 1218:1 1219:1 1222:1 1223:1 1224:1 1227:1 1230:1 1234:1 1237:1 1239:1 1241:1 1242:11 1244:5
1 166:1 508:1 651:1 820:1 910:1 1117:1 1119:1 1162:1 1218:1 1220:1 1221:1 1222:1 1230:1 1232:1 1235:1 1236:1 1242:2
1 178:1 347:1 508:1 910:1 911:1 970:1 1119:1 1162:1 1215:1 1218:1 1222:1 1224:1 1225:1 1230:1 1231:1 1235:1 1242:2
1 1119:1 1162:1 1218:1 1222:1 1242:2
1 347:1 910:1 1119:1 1162:1 1218:1 1222:1 1224:1 1230:1 1242:2
1 911:1 1162:1 1218:1 1231:1 1242:2
1 910:1 1119:1 1162:1 1218:1 1222:1 1230:1 1242:2
1 1162:1 1218:1 1242:3 1244:1
1 508:1 1119:1 1162:1 1218:1 1222:1 1235:1 1242:2
1 508:1 910:1 1119:1 1162:1 1218:1 1222:1 1230:1 1235:1 1242:2
1 508:1 1119:1 1162:1 1218:1 1222:1 1235:1 1242:1
1 1119:1 1162:1 1218:1 1222:1 1242:2
1 178:1 347:1 508:1 910:1 911:1 1119:1 1162:1 1215:1 1218:1 1222:1 1224:1 1230:1 1231:1 1235:1 1242:2
1 166:1 508:1 651:1 820:1 910:1 1117:1 1119:1 1162:1 1218:1 1220:1 1221:1 1222:1 1230:1 1232:1 1235:1 1236:1 1242:2
1 1119:1 1162:1 1218:1 1222:1 1242:2
1 1119:1 1162:1 1218:1 1222:1 1242:2
1 1119:1 1162:1 1218:1 1222:1 1242:2
1 178:1 347:1 910:1 1119:2 1162:2 1215:1 1218:2 1222:2 1224:1 1230:1 1242:6
1 1119:1 1162:1 1218:1 1222:1 1242:2
1 911:1 1119:1 1162:1 1218:1 1222:1 1231:1 1242:2
1 178:1 508:1 1119:1 1162:1 1215:1 1218:1 1222:1 1235:1 1242:2
1 347:1 910:1 1119:1 1162:1 1218:1 1222:1 1224:1 1230:1 1242:2
1 508:1 910:1 1119:1 1162:1 1218:1 1222:1 1230:1 1235:1 1242:2
1 166:1 508:1 651:1 820:1 910:1 1117:1 1119:1 1162:1 1218:1 1220:1 1221:1 1222:1 1230:1 1232:1 1235:1 1236:1 1242:2
1 1119:1 1162:1 1218:1 1222:1 1242:2
1 508:1 1119:1 1162:1 1218:1 1222:1 1235:1 1242:2
1 166:1 508:1 651:1 820:1 910:1 1117:1 1119:1 1162:1 1218:1 1220:1 1221:1 1222:1 1230:1 1232:1 1235:1 1236:1 1242:2
1 508:1 910:1 1119:1 1162:1 1218:1 1222:1 1230:1 1235:1 1242:1
1 166:1 508:1 651:1 820:1 910:1 1117:1 1119:1 1162:1 1218:1 1220:1 1221:1 1222:1 1230:1 1232:1 1235:1 1236:1 1242:2
1 178:1 508:1 1162:1 1215:1 1218:1 1235:1 1242:2
1 508:1 911:1 1119:1 1162:1 1218:1 1222:1 1231:1 1235:1 1242:2
1 910:1 1119:1 1162:1 1218:1 1222:1 1230:1 1242:2
1 508:1 1119:1 1162:1 1218:1 1222:1 1235:1 1242:1
1 508:1 911:1 1119:1 1162:1 1218:1 1222:1 1231:1 1235:1 1242:1
1 178:1 508:1 911:1 1119:1 1162:1 1215:1 1218:1 1222:1 1231:1 1235:1 1242:2
1 166:1 508:1 651:1 820:1 910:1 1117:1 1119:1 1162:1 1218:1 1220:1 1221:1 1222:1 1230:1 1232:1 1235:1 1236:1 1242:2
1 347:1 910:1 1119:1 1162:1 1218:1 1222:1 1224:1 1230:1 1242:2
1 508:1 1119:1 1162:1 1218:1 1222:1 1235:1 1242:2
1 166:1 508:1 651:1 820:1 910:1 1117:1 1119:1 1162:1 1218:1 1220:1 1221:1 1222:1 1230:1 1232:1 1235:1 1236:1 1242:2
1 910:1 1119:1 1162:1 1218:1 1222:1 1230:1 1242:2
1 1119:1 1162:1 1218:1 1222:1 1242:2
1 178:1 508:1 910:1 1119:1 1162:1 1215:1 1218:1 1222:1 1230:1 1235:1 1242:2
1 347:1 508:1 911:1 1119:1 1162:1 1218:1 1222:1 1224:1 1231:1 1235:1 1242:3
1 347:1 508:1 910:1 1119:1 1162:1 1218:1 1222:1 1224:1 1230:1 1235:1 1242:2
1 166:1 508:1 651:1 820:1 910:1 1117:1 1119:1 1162:1 1218:1 1220:1 1221:1 1222:1 1230:1 1232:1 1235:1 1236:1 1242:2
1 1119:1 1162:1 1218:1 1222:1 1242:2
1 347:1 508:1 910:1 911:1 970:1 1119:1 1162:1 1218:1 1222:1 1224:1 1225:1 1230:1 1231:1 1235:1 1242:2
1 508:1 910:1 1119:1 1162:1 1218:1 1222:1 1230:1 1235:1 1242:2
1 1119:1 1162:1 1218:1 1222:1 1242:2
1 508:1 1119:1 1162:1 1218:1 1222:1 1235:1 1242:2
1 910:1 1162:1 1218:1 1230:1 1242:3 1244:1
1 166:1 508:1 651:1 820:1 910:1 1117:1 1119:1 1162:1 1218:1 1220:1 1221:1 1222:1 1230:1 1232:1 1235:1 1236:1 1242:2
1 166:1 508:1 651:1 820:1 910:1 1117:1 1119:1 1162:1 1218:1 1220:1 1221:1 1222:1 1230:1 1232:1 1235:1 1236:1 1242:2
1 910:1 1119:1 1162:1 1218:1 1222:1 1230:1 1242:2
1 347:1 508:1 1119:1 1162:1 1218:1 1222:1 1224:1 1235:1 1242:3
1 347:1 508:1 1119:1 1162:1 1218:1 1222:1 1224:1 1235:1 1242:2
1 1162:1 1218:1 1242:1
1 347:1 910:1 1119:1 1162:1 1218:1 1222:1 1224:1 1230:1 1242:2
1 347:1 910:1 1119:1 1162:1 1218:1 1222:1 1224:1 1230:1 1242:2
1 166:1 508:1 651:1 820:1 910:1 1117:1 1119:1 1162:1 1218:1 1220:1 1221:1 1222:1 1230:1 1232:1 1235:1 1236:1 1242:2
1 347:1 508:1 910:1 1119:1 1162:1 1218:1 1222:1 1224:1 1230:1 1235:1 1242:2
1 166:1 508:1 651:1 820:1 910:1 1117:1 1119:1 1162:1 1218:1 1220:1 1221:1 1222:1 1230:1 1232:1 1235:1 1236:1 1242:2
1 1162:1 1218:1 1242:3
1 347:1 508:1 910:1 1119:1 1162:1 1218:1 1222:1 1224:1 1230:1 1235:1 1242:2
1 1119:1 1162:1 1218:1 1222:1 1242:2
1 508:1 1119:1 1162:1 1218:1 1222:1 1235:1 1242:1
1 178:1 508:1 1162:1 1215:1 1218:1 1235:1 1242:2
1 508:1 911:1 1162:1 1218:1 1231:1 1235:1 1242:2
1 178:1 508:1 910:1 911:1 1119:1 1162:1 1215:1 1218:1 1222:1 1230:1 1231:1 1235:1 1242:2
1 347:1 910:1 1119:1 1162:1 1218:1 1222:1 1224:1 1230:1 1242:2
1 910:1 1119:1 1162:1 1218:1 1222:1 1230:1 1242:2
1 347:1 508:1 1119:1 1162:1 1218:1 1222:1 1224:1 1235:1 1242:2
1 508:1 910:1 1119:1 1162:1 1218:1 1222:1 1230:1 1235:1 1242:1
1 910:1 1119:1 1162:1 1218:1 1222:1 1230:1 1242:2
1 910:1 1119:1 1162:1 1218:1 1222:1 1230:1 1242:3
1 178:1 508:1 910:1 1119:1 1162:1 1215:1 1218:1 1222:1 1230:1 1235:1 1242:2
1 347:1 508:1 1162:1 1218:1 1224:1 1235:1 1242:2
1 1119:1 1162:1 1218:1 1222:1 1242:2
1 1242:2
1 347:1 509:1 910:1 1119:1 1162:1 1218:1 1222:1 1224:1 1230:1 1238:1 1242:3
1 508:1 1119:1 1162:1 1218:1 1222:1 1235:1 1242:1
1 508:1 910:1 911:1 1119:1 1162:1 1218:1 1222:1 1230:1 1231:1 1235:1 1242:2
1 1119:1 1162:1 1218:1 1222:1 1242:3
1 1119:1 1162:1 1218:1 1222:1 1242:2
1 347:1 910:1 1119:1 1162:1 1218:1 1222:1 1224:1 1230:1 1242:2
1 347:1 910:1 1119:1 1162:1 1218:1 1222:1 1224:1 1230:1 1242:2
1 1119:1 1162:1 1218:1 1222:1 1242:2
1 347:1 508:1 910:1 911:1 970:1 1119:1 1162:1 1218:1 1222:1 1224:1 1225:1 1230:1 1231:1 1235:1 1242:2
1 178:1 347:1 508:1 910:1 1119:1 1162:1 1215:1 1218:1 1222:1 1224:1 1230:1 1235:1 1242:2
1 928:1 1240:1 1242:4
1 1162:1 1218:1 1242:4
1 1119:1 1162:1 1218:1 1222:1 1242:2
1 347:1 508:1 910:1 1162:1 1218:1 1224:1 1230:1 1235:1 1242:2
1 178:1 347:1 508:1 910:1 911:1 1119:1 1162:1 1215:1 1218:1 1222:1 1224:1 1230:1 1231:1 1235:1 1242:2
1 910:1 1119:1 1162:1 1218:1 1222:1 1230:1 1242:2
1 166:1 508:1 651:1 820:1 910:1 1117:1 1119:1 1162:1 1218:1 1220:1 1221:1 1222:1 1230:1 1232:1 1235:1 1236:1 1242:2
1 347:1 910:1 1119:1 1162:1 1218:1 1222:1 1224:1 1230:1 1242:2
1 508:1 1119:1 1162:1 1218:1 1222:1 1235:1 1242:3 1244:1
1 347:1 910:1 1119:1 1162:1 1218:1 1222:1 1224:1 1230:1 1242:2
1 508:1 910:1 1119:1 1162:1 1218:1 1222:1 1230:1 1235:1 1242:1
1 1119:1 1162:1 1218:1 1222:1 1242:2
1 1119:1 1162:1 1218:1 1222:1 1242:2
1 1119:1 1162:1 1218:1 1222:1 1242:2
1 508:1 911:1 1162:1 1218:1 1231:1 1235:1 1242:1
1 347:1 910:1 1119:1 1162:1 1218:1 1222:1 1224:1 1230:1 1242:2
1 911:1 1119:1 1162:1 1218:1 1222:1 1231:1 1242:2
1 508:1 910:1 1119:1 1162:1 1218:1 1222:1 1230:1 1235:1 1242:2
1 928:1 1240:1 1242:4
1 1119:1 1162:1 1218:1 1222:1 1242:2
1 166:1 508:1 651:1 820:1 910:1 1117:1 1119:1 1162:1 1218:1 1220:1 1221:1 1222:1 1230:1 1232:1 1235:1 1236:1 1242:2
1 1119:1 1162:1 1218:1 1222:1 1242:2
1 508:1 911:1 1119:1 1162:1 1218:1 1222:1 1231:1 1235:1 1242:2
1 166:1 508:1 651:1 820:1 910:1 1117:1 1119:1 1162:1 1218:1 1220:1 1221:1 1222:1 1230:1 1232:1 1235:1 1236:1 1242:2
1 166:1 508:1 651:1 820:1 910:1 1117:1 1119:1 1162:1 1218:1 1220:1 1221:1 1222:1 1230:1 1232:1 1235:1 1236:1 1242:2
1 178:1 347:1 1119:1 1162:1 1215:1 1218:1 1222:1 1224:1 1242:2
1 347:1 508:1 910:1 1119:1 1162:1 1218:1 1222:1 1224:1 1230:1 1235:1 1242:3
1 508:1 910:1 1119:1 1162:1 1218:1 1222:1 1230:1 1235:1 1242:2
1 910:1 1119:1 1162:1 1218:1 1222:1 1230:1 1242:2
1 508:1 911:1 1119:1 1162:1 1218:1 1222:1 1231:1 1235:1 1242:1
1 508:1 1119:1 1162:1 1218:1 1222:1 1235:1 1242:2
1 1119:1 1162:1 1218:1 1222:1 1242:2
1 508:1 910:1 1162:1 1218:1 1230:1 1235:1 1242:3
1 1119:1 1162:1 1218:1 1222:1 1242:1
1 910:1 1119:1 1162:1 1218:1 1222:1 1230:1 1242:2
1 508:1 910:1 911:1 1119:1 1162:1 1218:1 1222:1 1230:1 1231:1 1235:1 1242:2
1 1119:1 1162:1 1218:1 1222:1 1242:2
1 910:1 1119:1 1162:1 1218:1 1222:1 1230:1 1242:2
1 508:1 1119:1 1162:1 1218:1 1222:1 1235:1 1242:1
1 1119:1 1162:1 1218:1 1222:1 1242:2
1 910:1 1119:1 1162:1 1218:1 1222:1 1230:1 1242:2
1 347:1 508:1 1119:1 1162:1 1218:1 1222:1 1224:1 1235:1 1242:3
1 166:1 910:1 1119:1 1162:1 1218:1 1222:1 1230:1 1232:1 1242:5
1 166:1 508:1 651:1 820:1 910:1 1117:1 1119:1 1162:1 1218:1 1220:1 1221:1 1222:1 1230:1 1232:1 1235:1 1236:1 1242:2
1 1119:1 1162:1 1218:1 1222:1 1242:2
1 1119:1 1162:1 1218:1 1222:1 1242:2
1 347:1 508:1 910:1 1119:1 1162:1 1218:1 1222:1 1224:1 1230:1 1235:1 1242:2
1 1119:1 1162:1 1218:1 1222:1 1242:2
1 1119:1 1162:1 1218:1 1222:1 1242:3 1244:1
1 910:1 911:1 1119:1 1162:1 1218:1 1222:1 1230:1 1231:1 1242:2
1 347:1 910:1 1119:1 1162:1 1218:1 1222:1 1224:1 1230:1 1242:2
1 508:1 910:1 1162:1 1218:1 1230:1 1235:1 1242:2
1 508:1 1162:1 1218:1 1235:1 1242:2
1 1119:1 1162:1 1218:1 1222:1 1242:2
1 508:1 910:1 911:1 1119:1 1162:1 1218:1 1222:1 1230:1 1231:1 1235:1 1242:2
1 1119:1 1162:1 1218:1 1222:1 1242:2
1 1119:1 1162:1 1218:1 1222:1 1242:1
1 508:1 1119:1 1162:1 1218:1 1222:1 1235:1 1242:2
1 347:1 508:1 911:1 1119:1 1162:1 1218:1 1222:1 1224:1 1231:1 1235:1 1242:3
1 1119:1 1162:1 1218:1 1222:1 1242:2
1 178:1 910:1 1119:1 1162:1 1215:1 1218:1 1222:1 1230:1 1242:2
1 508:1 910:1 1119:1 1162:1 1218:1 1222:1 1230:1 1235:1 1242:3
1 508:1 1162:1 1218:1 1235:1 1242:2
1 347:1 508:1 910:1 1119:1 1162:1 1218:1 1222:1 1224:1 1230:1 1235:1 1242:2
1 508:1 910:1 911:1 1119:1 1162:1 1218:1 1222:1 1230:1 1231:1 1235:1 1242:3
1 508:1 910:1 1119:1 1162:1 1218:1 1222:1 1230:1 1235:1 1242:3
1 1119:1 1162:1 1218:1 1222:1 1242:2
1 910:1 911:1 1119:1 1162:1 1218:1 1222:1 1230:1 1231:1 1242:2
1 1119:1 1162:1 1218:1 1222:1 1242:2
1 347:1 508:1 910:1 1119:1 1162:1 1218:1 1222:1 1224:1 1230:1 1235:1 1242:2
1 347:1 508:1 910:1 1119:1 1162:1 1218:1 1222:1 1224:1 1230:1 1235:1 1242:2
1 1119:1 1162:1 1218:1 1222:1 1242:2
1 178:1 1119:1 1162:1 1215:1 1218:1 1222:1 1242:2
1 910:1 1162:1 1218:1 1230:1 1242:2
1 347:1 508:1 910:1 1119:1 1162:1 1218:1 1222:1 1224:1 1230:1 1235:1 1242:2
1 508:1 1119:1 1162:1 1218:1 1222:1 1235:1 1242:2
1 1162:1 1218:1 1242:3 1244:1
1 347:1 910:1 1119:1 1162:1 1218:1 1222:1 1224:1 1230:1 1242:2
1 910:1 1119:1 1162:1 1218:1 1222:1 1230:1 1242:2
1 508:1 1119:1 1162:1 1218:1 1222:1 1235:1 1242:2
1 1119:1 1162:1 1218:1 1222:1 1242:2
1 1119:1 1162:1 1218:1 1222:1 1242:2
1 508:1 911:1 1119:1 1162:1 1218:1 1222:1 1231:1 1235:1 1242:2
1 910:1 1119:1 1162:1 1218:1 1222:1 1230:1 1242:4
1 508:1 1119:1 1162:1 1218:1 1222:1 1235:1 1242:2
1 166:1 508:1 651:1 820:1 910:1 1117:1 1119:1 1162:1 1218:1 1220:1 1221:1 1222:1 1230:1 1232:1 1235:1 1236:1 1242:2
1 178:1 508:1 1119:1 1162:1 1215:1 1218:1 1222:1 1235:1 1242:2
1 347:1 910:1 1119:1 1162:1 1218:1 1222:1 1224:1 1230:1 1242:2
1 166:1 508:1 651:1 820:1 910:1 1117:1 1119:1 1162:1 1218:1 1220:1 1221:1 1222:1 1230:1 1232:1 1235:1 1236:1 1242:2
1 1119:1 1162:1 1218:1 1222:1 1242:2
1 1119:1 1162:1 1218:1 1222:1 1242:2
1 166:1 508:1 651:1 820:1 910:1 1117:1 1119:1 1162:1 1218:1 1220:1 1221:1 1222:1 1230:1 1232:1 1235:1 1236:1 1242:2
1 508:1 910:1 1119:1 1162:1 1218:1 1222:1 1230:1 1235:1 1242:1
1 508:1 911:1 1162:1 1218:1 1231:1 1235:1 1242:2
1 1119:1 1162:1 1218:1 1222:1 1242:3
1 1119:1 1162:1 1218:1 1222:1 1242:3
1 1119:1 1162:1 1218:1 1222:1 1242:2
1 1119:1 1162:1 1218:1 1222:1 1242:2
1 166:1 508:1 651:1 820:1 910:1 1117:1 1119:1 1162:1 1218:1 1220:1 1221:1 1222:1 1230:1 1232:1 1235:1 1236:1 1242:2
1 508:1 911:1 1119:1 1162:1 1218:1 1222:1 1231:1 1235:1 1242:2
1 508:1 910:1 1119:1 1162:1 1218:1 1222:1 1230:1 1235:1 1242:2
1 166:1 508:1 651:1 820:1 910:1 1117:1 1119:1 1162:1 1218:1 1220:1 1221:1 1222:1 1230:1 1232:1 1235:1 1236:1 1242:2
1 508:1 1119:1 1162:1 1218:1 1222:1 1235:1 1242:2
1 508:1 910:1 1119:1 1162:1 1218:1 1222:1 1230:1 1235:1 1242:1
1 508:1 1162:1 1218:1 1235:1 1242:2
1 508:1 1119:1 1162:1 1218:1 1222:1 1235:1 1242:1
1 166:1 508:1 651:1 820:1 910:1 1117:1 1119:1 1162:1 1218:1 1220:1 1221:1 1222:1 1230:1 1232:1 1235:1 1236:1 1242:2
1 178:1 910:1 1119:1 1162:1 1215:1 1218:1 1222:1 1230:1 1242:1
1 508:1 910:1 1119:1 1162:1 1218:1 1222:1 1230:1 1235:1 1242:1
1 508:1 910:1 911:1 1119:1 1162:1 1218:1 1222:1 1230:1 1231:1 1235:1 1242:4
1 178:1 1119:1 1162:1 1215:1 1218:1 1222:1 1242:2
1 347:1 911:1 1119:1 1162:1 1218:1 1222:1 1224:1 1231:1 1242:2
1 347:1 508:1 910:1 911:1 1162:1 1218:1 1224:1 1230:1 1231:1 1235:1 1242:3
1 910:1 1119:1 1162:1 1218:1 1222:1 1230:1 1242:2
1 508:1 910:1 911:1 1119:1 1162:1 1218:1 1222:1 1230:1 1231:1 1235:1 1242:2
1 508:1 1162:1 1218:1 1235:1 1242:2
1 178:1 347:1 910:1 1119:1 1162:1 1215:1 1218:1 1222:1 1224:1 1230:1 1242:2
1 910:1 1119:1 1162:1 1218:1 1222:1 1230:1 1242:1
1 910:1 1119:1 1162:1 1218:1 1222:1 1230:1 1242:2
1 166:1 178:1 347:1 508:1 910:1 1119:1 1162:1 1215:1 1218:1 1222:1 1224:1 1230:1 1232:1 1235:1 1242:3
1 508:1 910:1 1119:1 1162:1 1218:1 1222:1 1230:1 1235:1 1242:2
1 508:1 1119:1 1162:1 1218:1 1222:1 1235:1 1242:2
1 347:1 911:1 1119:1 1162:1 1218:1 1222:1 1224:1 1231:1 1242:2
1 910:1 1119:1 1162:1 1218:1 1222:1 1230:1 1242:2
1 178:1 508:1 911:1 1119:1 1162:1 1215:1 1218:1 1222:1 1231:1 1235:1 1242:2
1 347:1 910:1 1119:1 1162:1 1218:1 1222:1 1224:1 1230:1 1242:2
1 910:1 1119:1 1162:1 1218:1 1222:1 1230:1 1242:2
1 1119:1 1162:1 1218:1 1222:1 1242:2
1 1119:1 1162:1 1218:1 1222:1 1242:2
1 347:1 508:1 910:1 1119:1 1162:1 1218:1 1222:1 1224:1 1230:1 1235:1 1242:1
1 1119:1 1162:1 1218:1 1222:1 1242:2
1 910:1 1119:1 1162:1 1218:1 1222:1 1230:1 1242:2
1 508:1 910:1 1162:1 1218:1 1230:1 1235:1 1242:2
1 508:1 910:1 1119:1 1162:1 1218:1 1222:1 1230:1 1235:1 1242:1
1 1119:1 1162:1 1218:1 1222:1 1242:2
1 178:1 347:1 508:1 910:1 1119:1 1162:1 1215:1 1218:1 1222:1 1224:1 1230:1 1235:1 1242:2
1 178:1 910:1 1119:1 1162:1 1215:1 1218:1 1222:1 1230:1 1242:1
1 508:1 910:1 911:1 1119:1 1162:1 1218:1 1222:1 1230:1 1231:1 1235:1 1242:2
1 166:1 508:1 651:1 820:1 910:1 1117:1 1119:1 1162:1 1218:1 1220:1 1221:1 1222:1 1230:1 1232:1 1235:1 1236:1 1242:2
1 347:1 508:1 910:1 1119:1 1162:1 1218:1 1222:1 1224:1 1230:1 1235:1 1242:2
1 508:1 1119:1 1162:1 1218:1 1222:1 1235:1 1242:3
1 508:1 910:1 1119:1 1162:1 1218:1 1222:1 1230:1 1235:1 1242:2
1 1119:1 1162:1 1218:1 1222:1 1242:2
1 166:1 508:1 651:1 820:1 910:1 1117:1 1119:1 1162:1 1218:1 1220:1 1221:1 1222:1 1230:1 1232:1 1235:1 1236:1 1242:2
1 1119:1 1162:1 1218:1 1222:1 1242:2
1 347:1 508:1 910:1 911:1 1162:1 1218:1 1224:1 1230:1 1231:1 1235:1 1242:2
1 508:1 910:1 911:1 1119:1 1162:1 1218:1 1222:1 1230:1 1231:1 1235:1 1242:2
1 347:1 910:1 1119:1 1162:1 1218:1 1222:1 1224:1 1230:1 1242:2
1 166:1 508:1 651:1 820:1 910:1 1117:1 1119:1 1162:1 1218:1 1220:1 1221:1 1222:1 1230:1 1232:1 1235:1 1236:1 1242:2
1 508:1 1119:1 1162:1 1218:1 1222:1 1235:1 1242:1
1 508:1 1119:1 1162:1 1218:1 1222:1 1235:1 1242:1
1 928:1 1240:1 1242:2
1 910:1 1162:1 1218:1 1230:1 1242:2
1 1119:1 1162:1 1218:1 1222:1 1242:2
1 508:1 910:1 911:1 1119:1 1162:1 1218:1 1222:1 1230:1 1231:1 1235:1 1242:2
1 910:1 911:1 1119:1 1162:1 1218:1 1222:1 1230:1 1231:1 1242:1
1 508:1 1119:1 1162:1 1218:1 1222:1 1235:1 1242:1
1 178:1 508:1 1162:1 1215:1 1218:1 1235:1 1242:2
1 347:1 911:1 1119:1 1162:1 1218:1 1222:1 1224:1 1231:1 1242:2
1 910:1 1119:1 1162:1 1218:1 1222:1 1230:1 1242:1
1 910:1 1119:1 1162:1 1218:1 1222:1 1230:1 1242:1
1 178:1 347:1 1119:1 1162:1 1215:1 1218:1 1222:1 1224:1 1242:2
1 508:1 1119:1 1162:1 1218:1 1222:1 1235:1 1242:1
1 347:1 508:1 910:1 1119:1 1162:1 1218:1 1222:1 1224:1 1230:1 1235:1 1242:3
1 508:1 911:1 970:1 1119:1 1162:1 1218:1 1222:1 1225:1 1231:1 1235:1 1242:3
1 166:1 508:1 651:1 820:1 910:1 1117:1 1119:1 1162:1 1218:1 1220:1 1221:1 1222:1 1230:1 1232:1 1235:1 1236:1 1242:2
1 1119:1 1162:1 1218:1 1222:1 1242:2
1 508:1 1119:1 1162:1 1218:1 1222:1 1235:1 1242:2
1 166:1 508:1 651:1 820:1 910:1 1117:1 1119:1 1162:1 1218:1 1220:1 1221:1 1222:1 1230:1 1232:1 1235:1 1236:1 1242:2
1 508:1 910:1 911:1 1119:1 1162:1 1218:1 1222:1 1230:1 1231:1 1235:1 1242:2
1 347:1 508:1 910:1 911:1 1162:1 1218:1 1224:1 1230:1 1231:1 1235:1 1242:2
1 347:1 508:1 910:1 1119:1 1162:1 1218:1 1222:1 1224:1 1230:1 1235:1 1242:2
1 508:1 1119:1 1162:1 1218:1 1222:1 1235:1 1242:1
1 1119:1 1162:1 1218:1 1222:1 1242:2
1 1162:1 1218:1 1242:2
1 508:1 1119:1 1162:1 1218:1 1222:1 1235:1 1242:2
1 1119:1 1162:1 1218:1 1222:1 1242:2
1 1119:1 1162:1 1218:1 1222:1 1242:2
1 178:1 347:1 1119:1 1162:1 1215:1 1218:1 1222:1 1224:1 1242:2
1 166:1 508:1 651:1 820:1 910:1 1117:1 1119:1 1162:1 1218:1 1220:1 1221:1 1222:1 1230:1 1232:1 1235:1 1236:1 1242:2
1 508:1 1119:1 1162:1 1218:1 1222:1 1235:1 1242:2
1 1162:1 1218:1 1242:3
1 508:1 910:1 1119:1 1162:1 1218:1 1222:1 1230:1 1235:1 1242:2
1 347:1 910:1 1119:1 1162:1 1218:1 1222:1 1224:1 1230:1 1242:2
1 1119:1 1162:1 1218:1 1222:1 1242:2
1 508:1 1119:1 1162:1 1218:1 1222:1 1235:1 1242:1
1 508:1 1119:1 1162:1 1218:1 1222:1 1235:1 1242:1
1 178:1 508:1 910:1 1119:1 1162:1 1215:1 1218:1 1222:1 1230:1 1235:1 1242:2
1 508:1 1119:1 1162:1 1218:1 1222:1 1235:1 1242:2
1 1119:1 1162:1 1218:1 1222:1 1242:3
1 166:1 178:1 347:1 508:1 910:1 1119:1 1162:1 1215:1 1218:1 1222:1 1224:1 1230:1 1232:1 1235:1 1242:2
1 1119:1 1162:1 1218:1 1222:1 1242:2
1 970:1 1119:1 1162:1 1218:1 1222:1 1225:1 1242:2
1 1119:1 1162:1 1218:1 1222:1 1242:2
1 166:1 508:1 651:1 820:1 910:1 1117:1 1119:1 1162:1 1218:1 1220:1 1221:1 1222:1 1230:1 1232:1 1235:1 1236:1 1242:2
1 508:1 910:1 1119:1 1162:1 1218:1 1222:1 1230:1 1235:1 1242:2
1 166:1 508:1 651:1 820:1 910:1 1117:1 1119:1 1162:1 1218:1 1220:1 1221:1 1222:1 1230:1 1232:1 1235:1 1236:1 1242:2
1 166:1 508:1 651:1 820:1 910:1 1117:1 1119:1 1162:1 1218:1 1220:1 1221:1 1222:1 1230:1 1232:1 1235:1 1236:1 1242:2
1 347:1 508:1 910:1 1119:1 1162:1 1218:1 1222:1 1224:1 1230:1 1235:1 1242:1
1 347:1 910:1 1119:1 1162:1 1218:1 1222:1 1224:1 1230:1 1242:2
1 508:1 910:1 1162:1 1218:1 1230:1 1235:1 1242:2
1 1119:1 1162:1 1218:1 1222:1 1242:3
1 1119:1 1162:1 1218:1 1222:1 1242:2
1 1119:1 1162:1 1218:1 1222:1 1242:1
1 1119:1 1162:1 1218:1 1222:1 1242:2
1 508:1 1119:1 1162:1 1218:1 1222:1 1235:1 1242:1
1 508:1 1119:1 1162:1 1218:1 1222:1 1235:1 1242:3
1 508:1 1119:1 1162:1 1218:1 1222:1 1235:1 1242:2
1 1162:1 1218:1 1242:3
1 178:1 508:1 911:1 1119:1 1162:1 1215:1 1218:1 1222:1 1231:1 1235:1 1242:2
-1 1162:1 1166:1 1218:1 1242:1
-1 1162:1 1166:1 1218:1 1242:1
-1 1162:1 1166:1 1218:1 1242:1
-1 1162:1 1166:1 1218:1 1242:1
-1 1162:1 1166:1 1218:1 1242:1
-1 1162:1 1166:1 1218:1 1242:1
-1 1162:1 1166:1 1218:1 1242:1
-1 1162:1 1166:1 1218:1 1242:1
-1 1162:1 1166:1 1218:1 1242:1
-1 178:1 233:1 508:1 910:1 1073:1 1101:1 1117:1 1119:1 1162:1 1215:1 1218:1 1221:1 1222:1 1230:1 1235:1 1242:2
-1 1162:1 1166:1 1218:1 1242:1
-1 1162:1 1166:1 1218:1 1242:1
-1 1162:1 1166:1 1218:1 1242:1
-1 508:1 710:1 1119:1 1162:1 1166:1 1218:1 1222:1 1235:1 1242:1
-1 1162:1 1166:1 1218:1 1242:1
-1 1162:1 1166:1 1218:1 1242:1
-1 869:1 1162:1 1166:1 1218:1 1242:1
-1 1162:1 1166:1 1218:1 1242:1
-1 1162:1 1166:1 1218:1 1242:1
-1 1162:1 1166:1 1218:1 1242:1
-1 1162:1 1166:1 1218:1 1242:1
-1 1162:1 1166:1 1218:1 1242:1
-1 457:1 869:1 1162:1 1166:1 1218:1 1242:1
-1 457:1 869:1 1162:1 1166:1 1218:1 1242:1
-1 869:1 1162:1 1166:1 1218:1 1242:1
-1 1162:1 1166:1 1218:1 1242:1
-1 166:1 178:1 345:1 508:1 710:1 910:1 1081:1 1119:1 1128:1 1162:1 1215:1 1218:1 1222:1 1230:1 1232:1 1235:1 1242:2
-1 681:1 1162:1 1166:1 1218:1 1242:2
-1 331:1 421:1 466:1 472:1 645:1 710:1 881:1 1081:1 1162:1 1218:1 1242:1 1244:1
-1 178:1 347:1 910:1 1117:1 1119:1 1162:1 1215:1 1218:1 1221:1 1222:1 1224:1 1230:1 1242:3
-1 509:1 1119:1 1162:1 1218:1 1222:1 1238:1 1242:4
-1 509:1 910:1 1117:1 1119:1 1162:1 1218:1 1221:1 1222:1 1230:1 1238:1 1242:2
-1 166:1 178:1 347:1 440:1 508:1 509:1 578:1 910:1 1117:1 1119:1 1162:1 1215:1 1218:1 1221:1 1222:1 1224:1 1230:1 1232:1 1233:1 1235:1 1238:1 1242:3
-1 166:1 178:1 347:1 509:1 578:1 910:1 1117:1 1119:1 1162:1 1215:1 1218:1 1221:1 1222:1 1224:1 1230:1 1232:1 1233:1 1238:1 1242:4
-1 928:1 1240:1 1242:3
-1 928:1 1240:1 1242:3
-1 178:1 223:1 281:1 347:1 406:1 508:1 509:1 586:1 831:1 892:1 910:1 1087:1 1119:1 1162:1 1215:1 1218:1 1222:1 1224:1 1230:1 1235:1 1238:1 1242:1
-1 928:1 1240:1 1242:3
-1 508:1 578:1 592:1 677:1 820:1 910:1 1119:1 1162:1 1218:1 1220:1 1222:1 1230:1 1233:1 1235:1 1242:2
-1 166:1 178:1 347:1 440:1 508:1 509:1 578:1 592:1 910:1 1117:1 1119:1 1162:1 1215:1 1218:1 1221:1 1222:1 1224:1 1230:1 1232:1 1233:1 1235:1 1238:1 1242:1
-1 166:1 347:1 508:1 578:1 820:1 1098:1 1119:1 1162:1 1218:1 1220:1 1222:1 1224:1 1232:1 1233:1 1235:1 1242:2
-1 138:1 166:1 178:1 347:1 358:1 508:1 509:1 578:1 888:1 910:1 1119:1 1162:1 1215:1 1218:1 1222:1 1224:1 1230:1 1232:1 1233:1 1235:1 1238:1 1242:2
-1 1242:1
-1 192:1 348:1 352:1 426:1 449:1 464:1 516:1 540:1 551:1 740:1 750:1 822:1 848:1 893:1 999:1 1083:1 1109:1 1117:1 1163:1 1221:1 1242:1 1244:3
-1 1162:1 1218:1 1242:3
-1 166:1 421:1 508:1 509:2 578:1 910:2 1119:2 1162:4 1218:4 1222:2 1230:2 1232:1 1233:1 1235:1 1238:2 1242:6
-1 166:1 178:2 508:1 509:2 820:1 910:2 1119:2 1162:4 1215:2 1218:4 1220:1 1222:2 1230:2 1232:1 1235:1 1238:2 1242:6
-1 421:1 1117:2 1162:1 1218:1 1221:2 1242:2
-1 178:1 223:1 281:1 910:1 1119:1 1162:1 1215:1 1218:1 1222:1 1230:1 1242:1
-1 145:1 192:1 193:1 348:1 352:1 407:1 426:1 449:1 464:1 516:1 551:1 740:1 785:1 822:1 848:1 893:1 999:1 1021:1 1083:1 1090:1 1109:1 1117:1 1163:1 1221:1 1242:2
-1 281:1 423:1 1162:1 1218:1 1242:1
-1 928:1 1240:1 1242:2
-1 1117:1 1119:1 1147:1 1162:1 1218:1 1221:1 1222:1 1242:2
-1 178:1 233:1 508:1 910:1 1053:1 1117:2 1119:1 1162:1 1215:1 1218:1 1221:2 1222:1 1230:1 1235:1 1242:2
-1 928:1 1240:1 1242:2
-1 928:1 1240:1 1242:2
-1 928:1 1240:1 1242:2
-1 508:1 578:1 846:1 1117:1 1119:1 1162:1 1218:1 1221:1 1222:1 1233:1 1235:1 1242:2
-1 1117:1 1119:1 1162:1 1218:1 1221:1 1222:1 1242:5
-1 166:1 178:1 347:1 446:1 508:1 509:1 557:1 578:1 592:1 737:1 820:1 910:1 1119:1 1162:1 1215:1 1218:1 1220:1 1222:1 1224:1 1230:1 1232:1 1233:1 1235:1 1238:1 1242:1
-1 1117:1 1162:1 1218:1 1221:1 1242:2
-1 166:1 178:1 233:1 508:1 509:1 557:1 578:1 820:1 831:1 910:1 1119:1 1128:1 1162:1 1215:1 1218:1 1220:1 1222:1 1230:1 1232:1 1233:1 1235:1 1238:1 1242:1
-1 1058:1 1228:1 1242:1
-1 1117:1 1162:1 1218:1 1221:1 1242:4
-1 1117:1 1119:1 1162:1 1218:1 1221:1 1222:1 1242:4
-1 178:1 223:1 233:1 281:1 314:1 347:1 355:1 440:1 488:1 509:1 730:1 892:1 910:1 931:1 1119:1 1128:1 1162:1 1214:1 1215:1 1218:1 1222:1 1224:1 1230:1 1238:1 1242:1
-1 178:1 347:1 508:1 509:1 1101:1 1117:1 1119:1 1162:1 1215:1 1218:1 1221:1 1222:1 1224:1 1235:1 1238:1 1242:2
-1 928:1 1240:1 1242:3
-1 347:1 446:1 508:1 509:1 578:1 737:1 910:1 1119:1 1162:1 1218:1 1222:1 1224:1 1230:1 1233:1 1235:1 1238:1 1242:1
-1 166:1 509:1 910:2 1119:2 1162:2 1218:2 1222:2 1230:2 1232:1 1238:1 1242:7
-1 166:1 178:1 233:1 508:1 578:1 910:1 1117:2 1119:1 1162:1 1215:1 1218:1 1221:2 1222:1 1230:1 1232:1 1233:1 1235:1 1242:5
-1 928:1 1240:1 1242:3
-1 928:1 1240:1 1242:2
-1 178:1 314:1 347:1 508:1 509:1 820:1 910:1 1119:1 1162:1 1215:1 1218:1 1220:1 1222:1 1224:1 1230:1 1235:1 1238:1 1242:2
-1 178:1 319:1 347:1 446:1 509:1 587:1 820:1 910:1 1117:1 1162:1 1215:1 1218:1 1220:1 1221:1 1224:1 1230:1 1238:1 1242:1
-1 178:1 314:1 347:1 457:1 869:1 910:1 1119:1 1162:1 1215:1 1218:1 1222:1 1224:1 1230:1 1242:1
-1 928:1 1240:1 1242:4
-1 928:1 1240:1 1242:3
-1 166:1 178:1 347:1 508:1 509:1 578:1 910:1 1119:1 1162:1 1215:1 1218:1 1222:1 1224:1 1230:1 1232:1 1233:1 1235:1 1238:1 1242:1 1244:1
-1 1119:1 1128:1 1162:1 1218:1 1222:1 1242:1
-1 1058:1 1228:1 1242:1
-1 347:1 509:1 823:1 910:1 928:1 1117:1 1128:1 1162:1 1218:1 1221:1 1224:1 1230:1 1238:1 1240:1 1242:3 1244:4
-1 166:1 178:1 420:1 508:1 509:1 578:1 910:1 1119:1 1162:1 1215:1 1218:1 1222:1 1230:1 1232:1 1233:1 1235:1 1238:1 1242:11
-1 928:1 1240:1 1242:3
-1 928:1 1240:1 1242:2
-1 178:1 233:1 347:1 421:1 508:1 509:1 910:1 1068:1 1119:1 1162:1 1215:1 1218:1 1222:1 1224:1 1230:1 1235:1 1238:1 1242:2
-1 178:1 347:1 508:1 910:1 1119:1 1162:1 1215:1 1218:1 1222:1 1224:1 1230:1 1235:1 1242:2
-1 166:1 178:1 347:1 421:1 508:1 509:3 820:1 910:2 943:1 970:1 1117:1 1119:3 1162:4 1215:1 1218:4 1220:1 1221:1 1222:3 1224:1 1225:1 1230:2 1232:1 1235:1 1238:3 1242:5
-1 166:1 178:1 347:1 508:1 509:3 820:1 910:2 943:1 970:1 1117:1 1119:3 1162:4 1215:1 1218:4 1220:1 1221:1 1222:3 1224:1 1225:1 1230:2 1232:1 1235:1 1238:3 1242:5
-1 928:1 1240:1 1242:3
-1 928:1 1240:1 1242:3
-1 192:1 265:1 273:1 330:1 348:1 413:1 540:1 551:1 637:1 712:1 740:1 785:1 844:1 848:1 875:1 893:1 999:1 1021:1 1109:1 1117:1 1163:1 1221:1 1242:1
-1 138:1 166:1 178:1 347:1 508:1 509:1 578:1 910:1 931:1 1119:1 1128:1 1162:1 1214:1 1215:1 1218:1 1222:1 1224:1 1230:1 1232:1 1233:1 1235:1 1238:1 1242:2
-1 166:1 178:1 347:1 508:1 578:1 910:1 943:1 1066:1 1119:1 1162:1 1215:1 1218:1 1222:1 1224:1 1230:1 1232:1 1233:1 1235:1 1242:2
-1 928:1 1240:1 1242:3
-1 943:1 1117:1 1162:1 1218:1 1221:1 1242:6
-1 421:1 1162:1 1218:1 1242:2
-1 167:1 1101:1 1117:1 1119:1 1162:1 1218:1 1221:1 1222:1 1242:2
-1 421:1 656:1 1162:1 1184:1 1218:1 1242:3
-1 178:1 347:1 421:1 508:1 509:1 578:1 703:1 910:1 1119:1 1128:1 1162:1 1215:1 1218:1 1222:1 1224:1 1230:1 1233:1 1235:1 1238:1 1242:1
-1 231:1 388:1 423:1 487:1 681:1 710:1 746:1 773:1 950:1 997:1 1069:1 1081:1 1162:1 1218:1 1242:2
-1 138:1 166:1 178:1 347:1 421:1 508:1 509:1 578:1 820:1 910:1 931:1 1119:1 1128:1 1162:1 1214:1 1215:1 1218:1 1220:1 1222:1 1224:1 1230:1 1232:1 1233:1 1235:1 1238:1 1242:1
-1 1162:1 1218:1 1242:2
-1 1242:4
-1 910:1 1162:1 1218:1 1230:1 1242:3
-1 347:1 509:1 1119:1 1162:1 1218:1 1222:1 1224:1 1238:1 1242:3
-1 166:1 178:1 232:1 347:1 508:1 910:1 924:1 1119:1 1162:1 1215:1 1218:1 1222:1 1224:1 1230:1 1232:1 1235:1 1242:3
-1 163:1 192:1 265:1 348:1 352:1 407:1 426:1 449:1 464:1 516:1 551:1 740:1 822:1 848:1 893:1 999:1 1077:1 1109:1 1117:1 1163:1 1204:1 1221:1 1242:1
-1 192:1 265:1 348:1 526:1 551:1 608:1 623:1 740:1 823:1 844:1 848:1 893:1 1021:1 1109:1 1115:1 1117:1 1163:1 1221:1 1242:3
-1 183:1 192:1 265:1 348:1 352:1 426:1 484:1 526:1 551:1 557:1 612:1 623:1 643:1 740:1 755:1 823:1 841:1 844:1 848:1 893:1 1021:1 1050:1 1090:1 1109:1 1115:1 1117:1 1163:1 1221:1 1242:2
-1 823:1 910:1 1117:1 1162:1 1218:1 1221:1 1230:1 1242:1
-1 138:1 166:1 347:1 508:1 509:1 578:1 910:1 1119:1 1128:1 1162:1 1218:1 1222:1 1224:1 1230:1 1232:1 1233:1 1235:1 1238:1 1242:1
-1 136:1 509:1 910:1 928:1 1119:1 1162:1 1218:1 1222:1 1230:1 1238:1 1240:1 1242:1
-1 192:1 251:1 348:1 426:1 464:1 516:1 551:1 740:1 848:1 893:1 1083:1 1109:1 1117:1 1163:1 1221:1 1242:2
-1 178:1 325:1 343:1 347:1 421:1 439:1 492:1 508:1 509:1 645:1 820:1 910:1 931:1 970:1 1073:1 1119:1 1124:1 1128:1 1162:1 1214:1 1215:1 1218:1 1220:1 1222:1 1224:1 1225:1 1229:1 1230:1 1235:1 1238:1 1242:2 1244:919
-1 178:1 347:1 446:1 509:1 910:1 1117:1 1162:1 1215:1 1218:1 1221:1 1224:1 1230:1 1238:1 1242:1
-1 192:1 206:1 347:1 352:1 407:1 426:1 464:1 509:1 551:1 629:1 661:1 740:1 823:1 860:1 893:1 894:1 910:1 1109:1 1119:1 1162:1 1163:1 1218:1 1222:1 1223:1 1224:1 1230:1 1238:1 1242:2
-1 232:1 347:1 389:1 462:1 509:1 592:1 629:1 860:1 894:1 910:1 931:1 1016:1 1050:1 1119:1 1162:1 1214:1 1218:1 1222:1 1223:1 1224:1 1230:1 1238:1 1242:1
-1 347:1 910:1 1162:1 1218:1 1224:1 1230:1 1242:1
-1 347:1 629:1 860:1 894:1 910:1 1162:1 1218:1 1223:1 1224:1 1230:1 1242:1
-1 347:1 400:1 557:1 910:1 1050:1 1162:1 1218:1 1224:1 1230:1 1242:1
-1 629:1 831:1 860:1 894:1 910:1 1119:1 1162:1 1218:1 1222:1 1223:1 1230:1 1242:1
-1 178:1 347:1 557:1 629:1 860:1 894:1 910:1 1050:1 1119:1 1162:1 1215:1 1218:1 1222:1 1223:1 1224:1 1230:1 1242:1
-1 928:1 1240:1 1242:3
-1 166:1 178:1 509:1 557:1 651:1 820:1 910:1 1119:1 1128:1 1162:1 1215:1 1218:1 1220:1 1222:1 1230:1 1232:1 1236:1 1238:1 1242:1 1244:3
-1 1162:1 1218:1 1242:3
-1 166:1 509:1 910:2 1119:2 1162:2 1218:2 1222:2 1230:2 1232:1 1238:1 1242:7
-1 233:1 421:1 823:1 910:1 1162:1 1218:1 1230:1 1242:4
-1 178:1 910:1 1117:1 1119:1 1162:1 1215:1 1218:1 1221:1 1222:1 1230:1 1242:3
-1 178:1 910:1 1117:1 1119:1 1162:1 1215:1 1218:1 1221:1 1222:1 1230:1 1242:3
-1 166:1 178:2 347:2 421:1 508:1 509:3 578:1 820:1 910:2 918:1 943:1 1119:2 1162:5 1183:1 1215:2 1218:5 1220:1 1222:2 1224:2 1230:2 1232:1 1233:1 1235:1 1238:3 1242:6
-1 331:1 459:1 472:1 588:1 763:1 979:1 1117:2 1162:1 1218:1 1221:2 1242:3
-1 192:1 233:1 305:1 348:1 516:1 551:1 657:1 740:1 823:1 893:1 999:1 1073:1 1090:1 1109:1 1115:1 1117:1 1163:1 1221:1 1242:2
-1 1162:1 1218:1 1242:2
-1 166:1 347:1 508:1 509:1 910:2 1119:2 1162:3 1218:3 1222:2 1224:1 1230:2 1232:1 1235:1 1238:1 1242:6
-1 928:1 1240:1 1242:3
-1 928:1 1240:1 1242:3
-1 121:1 710:1 1081:1 1162:1 1218:1 1242:2
-1 1117:1 1119:1 1162:1 1218:1 1221:1 1222:1 1242:5
-1 347:1 492:1 724:1 820:1 910:1 1092:1 1119:1 1162:1 1218:1 1220:1 1222:1 1224:1 1230:1 1242:3
-1 238:1 403:1 496:1 591:1 595:1 629:1 650:1 852:1 855:1 1080:1 1093:1 1119:1 1127:1 1162:1 1172:1 1217:1 1218:1 1219:1 1222:1 1223:1 1227:1 1234:1 1237:1 1241:1 1242:3
-1 910:1 1117:2 1162:1 1218:1 1221:2 1230:1 1242:3
-1 520:1 578:1 981:1 1117:1 1119:1 1162:1 1218:1 1221:1 1222:1 1233:1 1242:2
-1 213:1 1117:1 1162:1 1218:1 1221:1 1242:2
-1 928:1 1240:1 1242:2
-1 928:1 1240:1 1242:2
-1 136:1 268:1 347:1 910:1 1162:1 1218:1 1224:1 1230:1 1242:1
-1 928:1 1240:1 1242:2
-1 136:1 233:1 268:1 347:1 413:1 910:1 928:1 1162:1 1218:1 1224:1 1230:1 1240:1 1242:1 1244:9
-1 136:1 268:1 910:1 1162:1 1218:1 1230:1 1242:3 1244:26
-1 1058:1 1228:1 1242:1
-1 192:1 426:1 449:1 540:1 551:1 740:1 750:1 822:1 848:1 893:1 1047:1 1083:1 1109:1 1117:1 1163:1 1221:1 1242:1
-1 928:1 1240:1 1242:4
-1 1162:1 1218:1 1242:1
-1 178:1 823:1 910:1 976:1 1117:1 1119:1 1128:1 1162:1 1215:1 1218:1 1221:1 1222:1 1230:1 1242:1
-1 192:1 206:1 419:1 450:1 551:1 740:1 823:1 893:1 910:1 1109:1 1117:1 1162:1 1163:1 1218:1 1221:1 1230:1 1242:1
-1 344:1 421:1 508:1 1119:1 1162:1 1218:1 1222:1 1235:1 1242:2
-1 1058:1 1228:1 1242:1
-1 138:1 166:1 178:1 347:1 508:1 509:1 569:1 578:1 910:1 1119:1 1162:1 1215:1 1218:1 1222:1 1224:1 1230:1 1232:1 1233:1 1235:1 1238:1 1242:2
-1 910:1 1117:1 1162:1 1218:1 1221:1 1230:1 1242:2
-1 192:1 348:1 551:1 740:1 823:1 866:1 893:1 1109:1 1117:1 1163:1 1221:1 1242:2
-1 508:1 903:1 1119:1 1162:1 1218:1 1222:1 1235:1 1242:3
-1 172:1 178:1 261:1 289:1 347:1 349:1 421:1 578:1 811:1 982:1 1022:1 1119:1 1128:1 1162:1 1215:1 1218:1 1222:1 1224:1 1233:1 1242:2 1244:3660
-1 166:1 509:1 910:3 1119:2 1162:4 1218:4 1222:2 1230:3 1232:1 1238:1 1242:5
-1 166:1 509:1 910:3 1119:2 1162:4 1218:4 1222:2 1230:3 1232:1 1238:1 1242:4
-1 388:1 423:1 457:1 681:1 710:1 746:1 773:1 869:1 950:1 1069:1 1081:1 1162:1 1218:1 1242:1
-1 198:1 347:1 421:1 764:1 910:1 942:1 1119:1 1162:1 1218:1 1222:1 1224:1 1230:1 1242:2
-1 198:1 347:1 421:1 508:1 910:1 1101:1 1117:1 1119:1 1162:1 1218:1 1221:1 1222:1 1224:1 1230:1 1235:1 1242:2
-1 166:1 509:1 910:2 1119:2 1162:2 1218:2 1222:2 1230:2 1232:1 1238:1 1242:7
-1 192:1 265:1 330:1 348:1 352:1 383:1 464:1 551:1 579:1 617:1 637:1 712:1 740:1 823:1 848:1 875:1 893:1 969:1 991:1 999:1 1021:1 1109:1 1115:1 1117:1 1163:1 1221:1 1242:2
-1 928:1 1240:1 1242:4
-1 166:1 178:1 347:1 508:1 820:1 910:1 1119:1 1162:1 1215:1 1218:1 1220:1 1222:1 1224:1 1230:1 1232:1 1235:1 1242:3
-1 166:1 178:1 347:1 508:1 820:1 910:1 1119:1 1162:1 1215:1 1218:1 1220:1 1222:1 1224:1 1230:1 1232:1 1235:1 1242:3
-1 162:1 192:1 265:1 348:1 383:1 412:1 419:1 426:1 509:1 551:1 617:1 639:1 643:1 686:1 740:1 795:1 823:1 828:1 844:1 848:1 893:1 999:1 1021:1 1090:1 1105:1 1109:1 1115:1 1117:1 1151:1 1163:1 1209:1 1221:1 1238:1 1242:3
-1 192:1 348:1 516:1 551:1 657:1 740:1 795:1 823:1 893:1 956:1 999:1 1011:1 1026:1 1090:1 1109:1 1115:1 1117:1 1151:1 1163:1 1177:1 1221:1 1242:1
-1 347:1 823:1 910:1 1117:1 1119:1 1162:1 1218:1 1221:1 1222:1 1224:1 1230:1 1242:2
-1 178:1 508:1 831:1 1117:2 1119:1 1128:1 1162:1 1215:1 1218:1 1221:2 1222:1 1235:1 1242:5
-1 162:1 192:1 265:1 307:1 352:1 383:1 426:1 449:1 464:1 551:1 617:1 740:1 785:1 823:1 848:1 893:1 905:1 999:1 1021:1 1043:1 1083:1 1090:1 1109:1 1115:1 1117:1 1163:1 1221:1 1242:2
-1 823:1 1242:1
-1 233:1 910:1 1117:1 1119:1 1162:1 1218:1 1221:1 1222:1 1230:1 1242:4
-1 823:1 1242:1
-1 1162:1 1218:1 1242:2
-1 823:1 1242:1
-1 166:1 178:1 347:1 421:1 508:1 509:1 578:1 820:1 910:1 943:1 1119:1 1162:1 1215:1 1218:1 1220:1 1222:1 1224:1 1230:1 1232:1 1233:1 1235:1 1238:1 1242:4
-1 178:1 314:1 347:1 462:1 508:1 931:1 1119:1 1124:1 1162:1 1214:1 1215:1 1218:1 1222:1 1224:1 1229:1 1235:1 1242:2 1244:2
-1 178:1 508:1 578:1 910:1 1119:1 1162:1 1215:1 1218:1 1222:1 1230:1 1233:1 1235:1 1242:1
-1 347:1 509:1 1101:1 1117:1 1119:1 1162:1 1218:1 1221:1 1222:1 1224:1 1238:1 1242:3
-1 928:1 1240:1 1242:2
-1 178:1 421:1 508:1 910:1 1119:1 1162:1 1215:1 1218:1 1222:1 1230:1 1235:1 1242:1
-1 166:1 178:1 314:1 347:1 508:1 509:1 578:1 820:1 910:1 911:1 1119:1 1128:1 1162:1 1215:1 1218:1 1220:1 1222:1 1224:1 1230:1 1231:1 1232:1 1233:1 1235:1 1238:1 1242:1
-1 928:1 1240:1 1242:3
-1 928:1 1240:1 1242:2
-1 166:1 508:1 578:1 903:1 1119:1 1162:1 1218:1 1222:1 1232:1 1233:1 1235:1 1242:3
-1 895:1 1007:1 1064:1 1134:1 1162:1 1218:1 1242:4
-1 928:1 1240:1 1242:3
-1 928:1 1240:1 1242:2
-1 281:1 331:1 472:1 1162:1 1218:1 1242:1
-1 166:1 178:1 508:1 509:2 910:2 1119:2 1162:4 1215:1 1218:4 1222:2 1230:2 1232:1 1235:1 1238:2 1242:6
-1 166:1 178:1 347:1 421:1 508:1 509:3 820:1 883:1 910:2 931:1 1119:2 1162:4 1214:1 1215:1 1218:4 1220:1 1222:2 1224:1 1230:2 1232:1 1235:1 1238:3 1242:6
-1 928:1 1240:1 1242:3
-1 1066:1 1162:1 1218:1 1242:2
-1 178:2 290:1 440:1 508:1 962:1 1119:1 1162:2 1215:2 1218:2 1222:1 1235:1 1242:4
-1 178:1 421:1 820:1 910:1 1119:1 1162:1 1215:1 1218:1 1220:1 1222:1 1230:1 1242:2
-1 178:1 421:1 820:1 910:1 1119:1 1162:1 1215:1 1218:1 1220:1 1222:1 1230:1 1242:2
-1 928:1 1240:1 1242:3
-1 331:1 459:1 472:1 979:1 1117:1 1162:1 1218:1 1221:1 1242:2
-1 178:1 509:1 1119:1 1162:1 1215:1 1218:1 1222:1 1238:1 1242:3
-1 1162:1 1218:1 1242:2
-1 166:1 178:1 238:1 241:1 262:1 347:1 403:1 421:1 496:1 508:1 509:1 545:1 591:1 595:1 629:1 650:1 820:1 831:1 855:1 888:1 910:1 927:1 970:1 1080:1 1093:1 1119:1 1127:1 1128:1 1162:1 1170:1 1191:1 1215:1 1217:1 1218:1 1219:1 1220:1 1222:1 1223:1 1224:1 1225:1 1227:1 1230:1 1232:1 1234:1 1235:1 1237:1 1238:1 1241:1 1242:2 1244:124
-1 161:1 166:1 178:1 179:1 232:1 233:1 238:1 241:1 252:1 262:1 288:1 304:1 314:1 347:1 403:1 421:1 439:1 496:1 508:1 509:1 545:1 557:1 565:1 576:1 591:1 595:1 629:1 650:1 820:1 823:1 826:1 827:1 829:1 831:1 852:1 855:1 888:1 910:1 911:1 931:1 964:1 970:1 1042:1 1080:1 1093:1 1097:1 1119:1 1128:1 1152:1 1162:1 1172:1 1191:1 1214:1 1215:1 1217:1 1218:1 1219:1 1220:1 1222:1 1223:1 1224:1 1225:1 1227:1 1230:1 1231:1 1232:1 1234:1 1235:1 1237:1 1238:1 1241:1 1242:4 1244:190
-1 238:1 403:1 496:1 629:1 823:1 855:1 1080:1 1162:1 1218:1 1219:1 1223:1 1227:1 1237:1 1241:1 1242:1
-1 166:1 178:1 233:1 314:1 347:1 508:1 509:1 703:1 823:1 910:1 1119:1 1128:1 1162:1 1215:1 1218:1 1222:1 1224:1 1230:1 1232:1 1235:1 1238:1 1242:1
-1 138:1 166:1 178:1 347:1 508:1 509:1 578:1 910:1 1119:1 1128:1 1162:1 1215:1 1218:1 1222:1 1224:1 1230:1 1232:1 1233:1 1235:1 1238:1 1242:3
-1 121:1 492:1 681:1 710:1 1081:1 1092:1 1162:1 1218:1 1242:2
-1 166:1 178:1 347:1 508:1 820:1 910:1 1119:1 1162:1 1215:1 1218:1 1220:1 1222:1 1224:1 1230:1 1232:1 1235:1 1242:4
-1 166:1 178:1 347:1 508:1 820:1 910:1 1119:1 1162:1 1215:1 1218:1 1220:1 1222:1 1224:1 1230:1 1232:1 1235:1 1242:4
-1 270:1 1101:1 1117:1 1162:1 1218:1 1221:1 1242:2
-1 166:1 509:1 910:2 1119:2 1162:2 1218:2 1222:2 1230:2 1232:1 1238:1 1242:7
-1 1117:2 1162:1 1218:1 1221:2 1242:2
-1 229:1 1162:1 1184:1 1218:1 1242:2
-1 166:1 178:1 347:1 508:1 820:1 910:1 1119:1 1162:1 1215:1 1218:1 1220:1 1222:1 1224:1 1230:1 1232:1 1235:1 1242:3
-1 1242:3
-1 1162:1 1218:1 1242:2
-1 178:1 192:1 314:1 319:1 426:1 551:1 740:1 893:1 1109:1 1117:1 1119:1 1162:1 1163:1 1215:1 1218:1 1221:1 1222:1 1242:2
-1 166:1 509:1 910:2 1119:2 1162:2 1218:2 1222:2 1230:2 1232:1 1238:1 1242:7
-1 421:1 1162:1 1218:1 1242:2
-1 178:1 508:1 710:1 808:1 919:1 998:1 1081:1 1117:1 1119:1 1162:1 1215:1 1218:1 1221:1 1222:1 1235:1 1242:2
-1 1117:2 1162:1 1218:1 1221:2 1242:2
-1 166:1 178:1 426:1 626:1 910:1 1117:1 1119:1 1162:1 1215:1 1218:1 1221:1 1222:1 1230:1 1232:1 1242:3 1244:39
-1 166:1 178:1 508:1 578:1 910:1 1068:1 1117:1 1119:1 1162:1 1215:1 1218:1 1221:1 1222:1 1230:1 1232:1 1233:1 1235:1 1242:4
-1 347:1 509:1 888:1 965:1 1119:1 1162:1 1218:1 1222:1 1224:1 1238:1 1242:2
-1 1058:1 1228:1 1242:2
-1 192:1 407:1 449:1 551:1 740:1 893:1 1109:1 1117:1 1163:1 1221:1 1242:2
-1 192:1 352:1 407:1 426:1 449:1 551:1 740:1 893:1 1083:1 1109:1 1117:1 1163:1 1221:1 1242:2
-1 928:1 1240:1 1242:4
-1 166:1 1117:1 1119:1 1162:1 1218:1 1221:1 1222:1 1232:1 1242:2
-1 166:1 178:1 347:1 421:1 508:1 509:1 578:1 820:1 888:1 910:1 970:1 1119:1 1162:1 1215:1 1218:1 1220:1 1222:1 1224:1 1225:1 1230:1 1232:1 1233:1 1235:1 1238:1 1242:5
-1 166:1 509:1 910:2 1119:2 1162:2 1218:2 1222:2 1230:2 1232:1 1238:1 1242:7
-1 166:1 509:1 910:2 1119:2 1162:2 1218:2 1222:2 1230:2 1232:1 1238:1 1242:7
-1 928:1 1240:1 1242:3
-1 189:1 336:1 384:1 508:1 703:1 729:1 1066:1 1119:1 1162:1 1218:1 1222:1 1235:1 1242:1
-1 166:1 223:1 281:1 453:1 508:1 782:1 1119:1 1162:1 1167:1 1199:1 1218:1 1222:1 1232:1 1235:1 1242:1
-1 166:1 347:1 421:1 508:1 509:1 910:2 1119:2 1162:3 1218:3 1222:2 1224:1 1230:2 1232:1 1235:1 1238:1 1242:6
-1 928:1 1240:1 1242:4
-1 166:1 509:1 910:2 1119:2 1162:2 1218:2 1222:2 1230:2 1232:1 1238:1 1242:7
-1 166:1 170:1 347:1 508:1 655:1 820:1 910:1 943:1 1045:1 1119:1 1121:1 1162:1 1218:1 1220:1 1222:1 1224:1 1230:1 1232:1 1235:1 1242:2
-1 138:1 166:1 178:1 232:1 233:1 314:1 319:1 347:1 508:1 509:1 557:1 578:1 737:1 820:1 831:1 910:1 911:1 931:1 1050:1 1073:1 1119:1 1128:1 1162:1 1214:1 1215:1 1218:1 1220:1 1222:1 1224:1 1230:1 1231:1 1232:1 1233:1 1235:1 1238:1 1242:1
-1 178:1 232:1 233:1 314:1 347:1 439:1 508:1 509:1 633:1 760:1 820:1 831:1 910:1 1042:1 1050:1 1068:1 1119:1 1124:1 1128:1 1162:1 1215:1 1218:1 1220:1 1222:1 1224:1 1229:1 1230:1 1235:1 1238:1 1242:1
-1 166:1 509:1 910:2 1119:2 1162:2 1218:2 1222:2 1230:2 1232:1 1238:1 1242:7
-1 1117:1 1221:1 1242:3
-1 166:1 178:1 279:1 347:1 421:1 508:1 578:1 910:1 943:1 1117:1 1119:1 1162:1 1215:1 1218:1 1221:1 1222:1 1224:1 1230:1 1232:1 1233:1 1235:1 1242:4
-1 156:1 178:1 184:1 192:1 193:1 212:1 254:1 265:1 314:1 348:1 352:1 401:1 407:1 414:1 416:1 426:1 439:1 449:1 454:1 464:1 484:1 503:1 508:1 516:1 551:1 599:1 637:1 727:1 740:1 780:1 785:1 822:1 823:1 836:1 837:1 844:1 848:1 853:1 854:1 875:1 893:1 995:1 1015:1 1083:1 1090:1 1109:1 1115:1 1117:1 1119:1 1163:1 1177:1 1204:1 1215:1 1221:1 1222:1 1235:1 1239:1 1242:2
-1 557:1 823:1 910:1 981:1 1117:1 1128:1 1162:1 1218:1 1221:1 1230:1 1242:2
-1 192:1 197:1 228:1 263:1 265:1 417:1 480:1 617:1 623:1 657:1 823:1 848:1 893:1 916:1 973:1 999:1 1082:1 1090:1 1109:1 1117:1 1197:1 1221:1 1242:2 1244:23
-1 166:1 347:1 508:1 509:1 687:1 910:1 1117:1 1119:1 1162:1 1218:1 1221:1 1222:1 1224:1 1230:1 1232:1 1235:1 1238:1 1242:2
-1 166:1 178:1 347:1 557:1 626:1 823:1 910:1 1008:1 1117:1 1119:1 1162:1 1215:1 1218:1 1221:1 1222:1 1224:1 1230:1 1232:1 1242:1 1244:39
-1 157:1 178:1 192:1 426:1 551:1 740:1 758:1 821:1 893:1 1109:1 1117:1 1162:1 1163:1 1215:1 1218:1 1221:1 1242:3
-1 178:1 232:1 426:1 509:1 557:1 910:1 1050:1 1117:1 1119:1 1162:1 1215:1 1218:1 1221:1 1222:1 1230:1 1238:1 1242:1
-1 178:1 347:1 407:1 449:1 527:1 626:1 910:1 994:1 1008:1 1117:1 1119:1 1128:1 1162:1 1215:1 1218:1 1221:1 1222:1 1224:1 1230:1 1242:3 1244:39
-1 178:1 1117:1 1138:1 1162:1 1215:1 1218:1 1221:1 1242:3
-1 178:1 233:1 347:1 508:1 703:1 737:1 831:1 910:1 911:1 931:1 943:1 1073:1 1119:1 1128:1 1162:1 1214:1 1215:1 1218:1 1222:1 1224:1 1230:1 1231:1 1235:1 1242:2
-1 166:1 509:1 910:2 1119:2 1162:2 1218:2 1222:2 1230:2 1232:1 1238:1 1242:7
-1 1058:1 1228:1 1242:1
-1 509:2 910:1 1117:1 1119:2 1162:4 1218:4 1221:1 1222:2 1230:1 1238:2 1242:5
-1 1162:1 1218:1 1242:2
-1 1162:1 1218:1 1242:2
-1 166:1 178:1 314:1 347:1 508:1 509:1 557:1 703:1 820:1 910:1 1119:1 1162:1 1215:1 1218:1 1220:1 1222:1 1224:1 1230:1 1232:1 1235:1 1238:1 1242:2
-1 1117:1 1221:1 1242:3
-1 138:1 166:1 178:1 347:1 358:1 508:1 509:1 578:1 710:1 910:1 1081:1 1119:1 1162:1 1215:1 1218:1 1222:1 1224:1 1230:1 1232:1 1233:1 1235:1 1238:1 1242:2
-1 178:1 557:1 823:1 910:1 981:1 1117:1 1128:1 1162:1 1215:1 1218:1 1221:1 1230:1 1242:2
-1 928:1 1240:1 1242:3
-1 166:1 178:1 305:1 347:1 421:1 508:1 509:1 578:1 703:1 820:1 888:1 910:1 943:1 970:1 976:1 1068:1 1119:1 1128:1 1162:1 1215:1 1218:1 1220:1 1222:1 1224:1 1225:1 1230:1 1232:1 1233:1 1235:1 1238:1 1242:1
-1 166:1 178:2 347:1 508:1 509:3 578:1 820:1 910:2 1119:2 1162:4 1215:2 1218:4 1220:1 1222:2 1224:1 1230:2 1232:1 1233:1 1235:1 1238:3 1242:6
-1 943:1 1117:2 1162:1 1218:1 1221:2 1242:3
-1 1162:1 1218:1 1242:2
-1 1162:1 1218:1 1242:2
-1 1162:1 1218:1 1242:3
-1 928:1 1240:1 1242:3
-1 1162:1 1218:1 1242:3
-1 1117:1 1162:1 1218:1 1221:1 1242:3
-1 178:1 347:1 508:1 943:1 1117:2 1119:1 1162:1 1215:1 1218:1 1221:2 1222:1 1224:1 1235:1 1242:2
-1 192:1 348:1 426:1 449:1 464:1 516:1 540:1 551:1 740:1 750:1 822:1 848:1 893:1 999:1 1047:1 1083:1 1109:1 1117:1 1163:1 1221:1 1242:1 1244:3
-1 1162:1 1218:1 1242:3
-1 192:1 407:1 426:1 449:1 527:1 551:1 740:1 804:1 823:1 893:1 910:1 933:1 985:1 1109:1 1117:1 1162:1 1163:1 1218:1 1221:1 1230:1 1242:1
-1 166:1 178:1 347:1 508:1 703:1 823:1 976:1 995:1 1117:1 1119:1 1128:1 1162:1 1215:1 1218:1 1221:1 1222:1 1224:1 1232:1 1235:1 1239:1 1242:2
-1 178:1 347:1 794:1 1117:1 1162:1 1215:1 1218:1 1221:1 1224:1 1242:3
-1 178:1 347:1 794:1 1117:1 1162:1 1215:1 1218:1 1221:1 1224:1 1242:3
-1 257:1 265:1 500:1 528:1 612:1 755:1 821:1 884:1 1021:1 1090:1 1115:1 1117:1 1163:1 1174:1 1177:1 1221:1 1242:2
-1 166:1 178:1 347:1 366:1 421:1 508:1 578:1 820:1 910:1 1119:1 1128:1 1162:1 1215:1 1218:1 1220:1 1222:1 1224:1 1230:1 1232:1 1233:1 1235:1 1242:2 1244:69
-1 423:1 710:1 1069:1 1081:1 1117:2 1162:1 1218:1 1221:2 1242:3
-1 166:1 178:1 347:1 508:1 509:1 557:1 820:1 910:1 1119:1 1162:1 1215:1 1218:1 1220:1 1222:1 1224:1 1230:1 1232:1 1235:1 1238:1 1242:3
-1 578:1 1117:2 1119:1 1162:1 1218:1 1221:2 1222:1 1233:1 1242:2
-1 928:1 1240:1 1242:3
-1 200:1 233:1 375:1 851:1 910:1 1162:1 1218:1 1230:1 1242:1
-1 200:1 233:1 375:1 851:1 910:1 1162:1 1218:1 1230:1 1242:1
-1 1058:1 1228:1 1242:1
-1 178:1 233:1 347:1 421:1 508:1 509:1 578:1 910:1 1068:1 1117:2 1119:1 1162:1 1215:1 1218:1 1221:2 1222:1 1224:1 1230:1 1233:1 1235:1 1238:1 1242:2
-1 233:1 423:1 710:1 792:1 1069:1 1081:1 1117:2 1119:1 1162:1 1218:1 1221:2 1222:1 1242:2
-1 204:1 508:1 751:1 1066:1 1119:1 1162:1 1218:1 1222:1 1235:1 1242:1 1244:5
-1 192:1 233:1 307:1 330:1 440:1 551:1 592:1 740:1 821:1 823:1 884:1 893:1 910:1 1109:1 1117:1 1119:1 1162:1 1163:1 1218:1 1221:1 1222:1 1230:1 1242:2
-1 192:1 206:1 265:1 307:1 348:1 464:1 501:1 516:1 551:1 617:1 740:1 823:1 848:1 893:1 1109:1 1112:1 1115:1 1117:1 1119:1 1163:1 1221:1 1222:1 1242:2
-1 823:1 910:1 1117:1 1162:1 1218:1 1221:1 1230:1 1242:1
-1 928:1 1240:1 1242:3
-1 178:1 233:1 1119:1 1162:1 1215:1 1218:1 1222:1 1242:2
-1 166:1 509:1 910:2 1119:2 1162:2 1218:2 1222:2 1230:2 1232:1 1238:1 1242:7
-1 928:1 1240:1 1242:2
-1 166:1 178:1 347:1 508:1 820:1 910:1 1119:1 1162:1 1215:1 1218:1 1220:1 1222:1 1224:1 1230:1 1232:1 1235:1 1242:2
-1 166:1 508:1 509:2 820:1 910:2 1119:2 1162:5 1218:5 1220:1 1222:2 1230:2 1232:1 1235:1 1238:2 1242:6
-1 347:1 910:1 1117:1 1162:1 1218:1 1221:1 1224:1 1230:1 1242:1
-1 158:1 178:1 233:1 347:1 421:1 508:1 509:1 710:1 820:1 910:1 911:1 1068:1 1073:1 1092:1 1097:1 1119:1 1128:1 1162:1 1215:1 1218:1 1220:1 1222:1 1224:1 1230:1 1231:1 1235:1 1238:1 1242:2 1244:59
-1 439:1 508:1 739:1 910:1 1117:1 1119:1 1162:1 1218:1 1221:1 1222:1 1230:1 1235:1 1242:1
-1 166:1 178:1 347:1 421:1 508:1 509:1 578:1 820:1 888:1 910:1 970:1 1119:1 1162:1 1215:1 1218:1 1220:1 1222:1 1224:1 1225:1 1230:1 1232:1 1233:1 1235:1 1238:1 1242:5
-1 166:1 178:1 508:1 509:1 578:1 820:1 910:1 1119:1 1162:1 1215:1 1218:1 1220:1 1222:1 1230:1 1232:1 1233:1 1235:1 1238:1 1242:5
-1 192:1 256:1 271:1 348:1 352:1 426:1 495:1 551:1 740:1 848:1 893:1 1090:1 1109:1 1115:1 1117:1 1163:1 1177:1 1221:1 1242:3
-1 928:1 1240:1 1242:4
-1 928:1 1240:1 1242:4
-1 1162:1 1218:1 1242:2
-1 190:1 910:1 1117:1 1162:1 1218:1 1221:1 1230:1 1242:3
-1 928:1 1240:1 1242:3
-1 928:1 1240:1 1242:3
-1 166:1 347:1 508:1 509:1 910:1 931:1 1119:1 1162:1 1214:1 1218:1 1222:1 1224:1 1230:1 1232:1 1235:1 1238:1 1242:1
-1 166:1 508:1 509:2 578:1 820:1 910:2 1119:2 1162:5 1218:5 1220:1 1222:2 1230:2 1232:1 1233:1 1235:1 1238:2 1242:7
-1 166:1 347:1 421:2 508:1 509:2 578:1 910:1 1119:2 1162:3 1218:3 1222:2 1224:1 1230:1 1232:1 1233:1 1235:1 1238:2 1242:6
-1 1162:1 1218:1 1242:2
-1 166:1 347:1 421:1 508:1 509:3 820:1 910:2 1119:2 1162:4 1218:4 1220:1 1222:2 1224:1 1230:2 1232:1 1235:1 1238:3 1242:6
-1 166:1 347:1 421:1 508:1 509:3 578:1 820:1 910:2 1119:2 1162:4 1218:4 1220:1 1222:2 1224:1 1230:2 1232:1 1233:1 1235:1 1238:3 1242:6
-1 192:1 265:1 348:1 352:1 383:1 426:1 464:1 509:1 516:1 551:1 557:1 623:1 740:1 823:1 844:1 848:1 875:1 883:1 893:1 999:1 1090:1 1109:1 1115:1 1117:1 1163:1 1177:1 1221:1 1238:1 1242:2
-1 320:1 1117:1 1162:1 1218:1 1221:1 1242:8
-1 682:1 783:1 1117:1 1162:1 1200:1 1218:1 1221:1 1242:6
-1 508:1 710:1 1117:2 1119:1 1162:1 1218:1 1221:2 1222:1 1235:1 1242:2
-1 166:1 178:2 347:1 508:1 509:2 578:1 910:2 1119:2 1162:3 1215:2 1218:3 1222:2 1224:1 1230:2 1232:1 1233:1 1235:1 1238:2 1242:6
-1 166:1 178:1 347:1 508:1 509:2 578:1 910:2 1119:2 1162:4 1215:1 1218:4 1222:2 1224:1 1230:2 1232:1 1233:1 1235:1 1238:2 1242:6
-1 682:1 783:1 1117:1 1162:1 1200:1 1218:1 1221:1 1242:6
-1 166:1 508:1 578:1 910:1 1119:1 1162:1 1218:1 1222:1 1230:1 1232:1 1233:1 1235:1 1242:1
-1 192:1 348:1 478:1 516:1 551:1 583:1 617:1 657:1 712:1 740:1 823:1 844:1 848:1 893:1 999:1 1090:1 1109:1 1115:1 1117:1 1151:1 1163:1 1177:1 1221:1 1242:2
-1 166:1 178:3 347:1 508:1 509:3 578:1 820:1 910:2 970:1 1119:2 1162:4 1215:3 1218:4 1220:1 1222:2 1224:1 1225:1 1230:2 1232:1 1233:1 1235:1 1238:3 1242:6
-1 178:1 407:1 449:1 551:1 893:1 910:1 1083:1 1117:1 1162:1 1163:1 1215:1 1218:1 1221:1 1230:1 1242:2
-1 928:1 1240:1 1242:3
-1 928:1 1240:1 1242:4
-1 928:1 1240:1 1242:3
-1 928:1 1240:1 1242:3
-1 928:1 1240:1 1242:3
-1 928:1 1240:1 1242:3
-1 928:1 1240:1 1242:3
-1 407:1 426:1 449:1 910:1 1008:1 1068:1 1083:1 1117:1 1119:1 1162:1 1218:1 1221:1 1222:1 1230:1 1242:3
-1 178:1 347:1 508:1 1119:1 1162:1 1215:1 1218:1 1222:1 1224:1 1235:1 1242:1
-1 178:1 314:1 347:1 462:1 508:1 931:1 1119:1 1124:1 1162:1 1214:1 1215:1 1218:1 1222:1 1224:1 1229:1 1235:1 1242:2 1244:2
-1 1058:1 1228:1 1242:1
-1 166:1 178:1 347:1 508:1 820:1 910:1 1119:1 1162:1 1215:1 1218:1 1220:1 1222:1 1224:1 1230:1 1232:1 1235:1 1242:3
-1 421:1 508:1 1117:1 1119:1 1162:1 1218:1 1221:1 1222:1 1235:1 1242:2
-1 1117:1 1162:1 1218:1 1221:1 1242:2
-1 166:1 178:1 347:1 508:1 578:1 910:1 943:1 1117:1 1119:1 1162:1 1215:1 1218:1 1221:1 1222:1 1224:1 1230:1 1232:1 1233:1 1235:1 1242:2
-1 508:1 1117:1 1119:1 1162:1 1218:1 1221:1 1222:1 1235:1 1242:2
-1 928:1 1240:1 1242:2
-1 145:1 162:1 192:1 193:1 206:1 265:1 352:1 383:1 551:1 617:1 637:1 740:1 785:1 822:1 844:1 848:1 893:1 1021:1 1090:1 1109:1 1117:1 1163:1 1221:1 1242:3
-1 150:1 167:1 178:1 509:1 598:1 1101:1 1117:1 1119:1 1162:1 1215:1 1218:1 1221:1 1222:1 1238:1 1242:2
-1 166:1 347:1 358:1 508:1 1101:1 1117:1 1119:1 1162:1 1218:1 1221:1 1222:1 1224:1 1232:1 1235:1 1242:3
-1 928:1 1240:1 1242:3
-1 178:1 910:1 1117:1 1119:1 1162:1 1215:1 1218:1 1221:1 1222:1 1230:1 1242:3
-1 1162:1 1218:1 1242:1
-1 166:1 178:1 233:1 508:1 1119:1 1162:1 1215:1 1218:1 1222:1 1232:1 1235:1 1242:2
-1 171:1 1117:2 1162:1 1200:1 1218:1 1221:2 1242:5
-1 943:1 1162:1 1218:1 1242:2
-1 171:1 178:1 701:1 1117:2 1162:1 1200:1 1215:1 1218:1 1221:2 1242:5
-1 166:1 178:1 421:1 508:1 910:1 1119:1 1162:1 1215:1 1218:1 1222:1 1230:1 1232:1 1235:1 1242:2
-1 1117:2 1162:1 1218:1 1221:2 1242:2
-1 166:1 232:1 314:1 319:1 347:1 508:1 509:1 536:1 557:1 592:1 703:1 910:1 1119:1 1128:1 1162:1 1218:1 1222:1 1224:1 1230:1 1232:1 1235:1 1238:1 1242:1
-1 1171:1 1242:3
-1 171:1 701:1 882:1 1117:2 1162:1 1200:1 1218:1 1221:2 1242:6
-1 281:1 1162:1 1218:1 1242:2
-1 928:1 1240:1 1242:4
-1 421:1 1162:1 1184:1 1218:1 1242:2
-1 166:1 509:1 910:2 1119:2 1162:2 1218:2 1222:2 1230:2 1232:1 1238:1 1242:7
-1 125:1 189:1 195:1 336:1 337:1 347:1 350:1 356:1 384:1 452:1 469:1 508:1 577:1 703:1 729:1 817:1 896:1 914:1 1009:1 1066:1 1096:1 1108:1 1119:1 1162:1 1218:1 1222:1 1224:1 1235:1 1242:1
-1 1162:1 1184:1 1218:1 1242:2
-1 1117:2 1131:1 1162:1 1218:1 1221:2 1242:2
-1 166:1 509:1 910:2 1119:2 1162:2 1218:2 1222:2 1230:2 1232:1 1238:1 1242:6
-1 166:1 178:3 347:1 421:1 508:1 509:3 578:1 820:1 910:2 970:1 1119:2 1162:7 1215:3 1218:7 1220:1 1222:2 1224:1 1225:1 1230:2 1232:1 1233:1 1235:1 1238:3 1242:6
-1 928:1 1240:1 1242:4
-1 421:1 910:1 1119:1 1162:1 1218:1 1222:1 1230:1 1242:3
-1 421:1 910:1 1119:1 1162:1 1218:1 1222:1 1230:1 1242:3
-1 138:1 166:1 178:1 347:1 508:1 509:1 578:1 820:1 888:1 910:1 1119:1 1128:1 1162:1 1215:1 1218:1 1220:1 1222:1 1224:1 1230:1 1232:1 1233:1 1235:1 1238:1 1242:1
-1 1058:1 1228:1 1242:1
-1 129:1 156:1 192:1 265:1 348:1 362:1 464:1 516:1 551:1 617:1 639:1 740:1 844:1 848:1 875:1 893:1 923:1 999:1 1109:1 1115:1 1117:1 1163:1 1204:1 1221:1 1242:2
-1 120:1 153:1 314:1 347:1 439:1 462:1 508:1 509:1 557:1 737:1 741:1 823:1 910:1 931:1 1016:1 1117:1 1119:1 1162:1 1214:1 1216:1 1218:1 1221:1 1222:1 1224:1 1230:1 1235:1 1238:1 1242:2
-1 120:1 153:1 166:1 178:1 179:1 314:1 347:1 439:1 462:1 508:1 509:1 557:1 592:1 651:1 737:1 806:1 820:1 823:1 910:1 1016:1 1117:1 1119:1 1162:1 1215:1 1216:1 1218:1 1220:1 1221:1 1222:1 1224:1 1230:1 1232:1 1235:1 1236:1 1238:1 1242:1
-1 166:1 178:1 508:1 910:1 1119:1 1162:1 1215:1 1218:1 1222:1 1230:1 1232:1 1235:1 1242:3
-1 1117:2 1162:1 1218:1 1221:2 1242:2
-1 928:1 1240:1 1242:3
-1 928:1 1240:1 1242:2
-1 1162:1 1218:1 1242:1
-1 573:1 1117:1 1119:1 1162:1 1218:1 1221:1 1222:1 1242:2
-1 192:1 206:1 407:1 426:1 551:1 740:1 893:1 910:1 1109:1 1117:1 1162:1 1163:1 1218:1 1221:1 1230:1 1242:3
-1 928:1 1240:1 1242:3
-1 166:1 192:1 258:1 347:1 426:1 508:1 551:1 740:1 893:1 910:1 1109:1 1117:1 1119:1 1162:1 1163:1 1218:1 1221:1 1222:1 1224:1 1230:1 1232:1 1235:1 1242:1
-1 1058:1 1228:1 1242:1
-1 928:1 1240:1 1242:3
-1 928:1 1240:1 1242:3
-1 192:1 225:1 233:1 551:1 657:1 675:1 712:1 740:1 823:1 848:1 893:1 1021:1 1109:1 1115:1 1117:1 1163:1 1177:1 1221:1 1242:2
-1 166:1 174:1 178:1 198:1 208:1 222:1 347:1 421:1 462:1 508:1 509:1 703:1 711:1 823:1 888:1 910:1 1117:1 1119:1 1128:1 1162:1 1215:1 1218:1 1221:1 1222:1 1224:1 1230:1 1232:1 1235:1 1238:1 1242:1
-1 573:1 823:1 1117:1 1119:1 1162:1 1218:1 1221:1 1222:1 1242:1
-1 265:1 823:1 1117:1 1119:1 1162:1 1218:1 1221:1 1222:1 1242:2
-1 928:1 1240:1 1242:3
-1 823:1 910:1 1117:1 1119:1 1162:1 1218:1 1221:1 1222:1 1230:1 1242:1
-1 192:1 234:1 348:1 394:1 551:1 823:1 866:1 893:1 1117:1 1221:1 1242:2
-1 394:1 823:1 866:1 910:1 1117:1 1119:1 1162:1 1218:1 1221:1 1222:1 1230:1 1242:2
-1 166:1 347:1 508:1 509:1 687:1 910:1 1117:1 1119:1 1162:1 1218:1 1221:1 1222:1 1224:1 1230:1 1232:1 1235:1 1238:1 1242:2
-1 1162:1 1218:1 1242:1
-1 233:1 820:1 823:1 1117:1 1119:1 1128:1 1162:1 1218:1 1220:1 1221:1 1222:1 1242:2
-1 178:1 421:1 820:1 831:1 910:1 911:1 1050:1 1055:1 1119:1 1162:1 1215:1 1218:1 1220:1 1222:1 1230:1 1231:1 1242:3 1244:2
-1 166:1 178:1 347:1 421:1 508:1 509:1 578:1 820:1 910:1 1000:1 1119:1 1162:1 1215:1 1218:1 1220:1 1222:1 1224:1 1230:1 1232:1 1233:1 1235:1 1238:1 1242:5
-1 928:1 1240:1 1242:3
-1 178:1 275:1 347:1 407:1 449:1 509:1 823:1 910:1 1047:1 1083:1 1117:1 1119:1 1162:1 1215:1 1218:1 1221:1 1222:1 1224:1 1230:1 1238:1 1242:1
-1 178:1 275:1 347:1 407:1 449:1 509:1 823:1 910:1 1047:1 1083:1 1117:1 1119:1 1162:1 1215:1 1218:1 1221:1 1222:1 1224:1 1230:1 1238:1 1242:1
-1 192:1 347:1 352:1 426:1 449:1 551:1 740:1 750:1 822:1 848:1 893:1 999:1 1047:1 1083:1 1109:1 1117:1 1162:1 1163:1 1218:1 1221:1 1224:1 1242:1 1244:3
-1 314:1 491:1 523:1 557:1 796:1 806:1 823:1 910:1 995:1 1117:1 1119:1 1162:1 1218:1 1221:1 1222:1 1230:1 1239:1 1242:3
-1 233:1 910:1 971:1 1117:1 1162:1 1218:1 1221:1 1230:1 1242:1
-1 682:1 783:1 1117:1 1162:1 1200:1 1218:1 1221:1 1242:6
-1 846:1 1117:1 1162:1 1205:1 1218:1 1221:1 1242:3
-1 166:1 269:1 508:1 578:1 820:1 1017:1 1020:1 1119:1 1162:1 1218:1 1220:1 1222:1 1232:1 1233:1 1235:1 1242:2 1244:2
-1 662:1 1117:1 1119:1 1162:1 1218:1 1221:1 1222:1 1242:2
-1 928:1 1240:1 1242:4
-1 138:1 166:1 178:1 347:1 508:1 509:3 578:1 820:1 910:2 1119:2 1162:5 1215:1 1218:5 1220:1 1222:2 1224:1 1230:2 1232:1 1233:1 1235:1 1238:3 1242:6
-1 166:1 178:2 347:1 508:1 509:3 820:1 910:2 1119:2 1162:5 1215:2 1218:5 1220:1 1222:2 1224:1 1230:2 1232:1 1235:1 1238:3 1242:6
-1 166:1 178:1 192:1 265:1 347:1 348:1 352:1 426:1 464:1 508:1 509:1 516:1 551:1 617:1 740:1 823:1 844:1 848:1 893:1 972:1 999:1 1109:1 1115:1 1117:1 1119:1 1128:1 1162:1 1163:1 1204:1 1215:1 1218:1 1221:1 1222:1 1224:1 1232:1 1235:1 1238:1 1242:2
-1 178:1 1101:1 1117:1 1119:1 1162:1 1215:1 1218:1 1221:1 1222:1 1242:3
-1 166:1 178:2 347:1 508:1 509:2 820:1 910:2 1119:2 1162:4 1215:2 1218:4 1220:1 1222:2 1224:1 1230:2 1232:1 1235:1 1238:2 1242:6
-1 928:1 1240:1 1242:3
-1 1117:1 1119:1 1162:1 1218:1 1221:1 1222:1 1242:2
-1 388:1 423:1 457:1 681:1 710:1 773:1 869:1 950:1 1081:1 1162:1 1218:1 1242:1
-1 233:1 820:1 823:1 910:1 1117:1 1119:1 1128:1 1162:1 1218:1 1220:1 1221:1 1222:1 1230:1 1242:2
-1 166:1 509:1 910:1 1119:1 1162:1 1218:1 1222:1 1230:1 1232:1 1238:1 1242:5
-1 120:1 162:1 192:1 263:1 265:1 314:1 332:1 348:1 351:1 352:1 376:1 407:1 414:1 426:1 435:1 449:1 464:1 484:1 509:1 516:1 551:1 557:1 617:1 623:1 697:1 740:1 785:1 822:1 823:1 844:1 848:1 875:1 893:1 995:1 999:1 1077:1 1090:1 1109:1 1115:1 1117:1 1163:1 1177:1 1204:1 1216:1 1221:1 1238:1 1239:1 1242:3
-1 166:1 178:1 347:1 421:1 508:1 578:1 910:1 1119:1 1162:1 1215:1 1218:1 1222:1 1224:1 1230:1 1232:1 1233:1 1235:1 1242:4
-1 166:1 178:1 347:1 508:1 820:1 910:1 1119:1 1162:1 1215:1 1218:1 1220:1 1222:1 1224:1 1230:1 1232:1 1235:1 1242:2
-1 178:1 910:1 1117:1 1119:1 1162:1 1215:1 1218:1 1221:1 1222:1 1230:1 1242:3
-1 192:1 193:1 251:1 265:1 348:1 352:1 407:1 426:1 449:1 464:1 516:1 551:1 740:1 785:1 822:1 848:1 893:1 1021:1 1083:1 1109:1 1117:1 1163:1 1221:1 1242:2
-1 192:1 426:1 449:1 551:1 617:1 740:1 823:1 893:1 910:1 976:1 1109:1 1115:1 1117:1 1119:1 1128:1 1162:1 1163:1 1218:1 1221:1 1222:1 1230:1 1242:2
-1 162:1 192:1 193:1 265:1 347:1 348:1 352:1 407:1 426:1 449:1 464:1 509:1 516:1 551:1 617:1 740:1 785:1 822:1 823:1 848:1 893:1 999:1 1008:1 1021:1 1083:1 1085:1 1109:1 1115:1 1117:1 1119:1 1128:1 1163:1 1221:1 1222:1 1224:1 1238:1 1242:3
-1 1117:1 1162:1 1218:1 1221:1 1242:2
-1 1117:2 1162:1 1218:1 1221:2 1242:2
-1 166:1 178:1 347:1 508:1 578:1 734:1 820:1 910:1 1117:1 1119:1 1129:1 1162:1 1215:1 1218:1 1220:1 1221:1 1222:1 1224:1 1230:1 1232:1 1233:1 1235:1 1242:1
-1 166:1 508:1 651:1 820:1 910:1 1117:1 1119:1 1162:1 1218:1 1220:1 1221:1 1222:1 1230:1 1232:1 1235:1 1236:1 1242:2
-1 128:1 139:1 156:1 162:1 192:1 265:1 348:1 516:1 540:1 551:1 617:1 623:1 643:1 657:1 712:1 740:1 766:1 823:1 844:1 848:1 875:1 893:1 999:1 1021:1 1077:1 1090:1 1109:1 1115:1 1117:1 1163:1 1204:1 1221:1 1242:2
-1 162:1 192:1 265:1 348:1 516:1 532:1 551:1 617:1 657:1 740:1 844:1 893:1 999:1 1021:1 1109:1 1115:1 1117:1 1163:1 1221:1 1242:3
-1 166:1 651:1 660:1 734:1 908:1 910:1 911:1 1117:1 1119:1 1162:1 1218:1 1221:1 1222:1 1230:1 1231:1 1232:1 1236:1 1242:2
-1 910:1 1117:2 1162:1 1218:1 1221:2 1230:1 1242:4
-1 546:1 1017:1 1044:1 1119:1 1162:1 1218:1 1222:1 1242:3 1244:2
-1 138:1 178:1 347:1 439:1 508:1 509:1 578:1 831:1 910:1 960:1 1119:1 1128:1 1162:1 1215:1 1218:1 1222:1 1224:1 1230:1 1233:1 1235:1 1238:1 1242:1
-1 166:1 178:1 809:1 1119:1 1162:1 1215:1 1218:1 1222:1 1232:1 1242:2
-1 138:1 166:1 347:1 358:1 439:1 508:1 509:1 578:1 910:1 1119:1 1162:1 1218:1 1222:1 1224:1 1230:1 1232:1 1233:1 1235:1 1238:1 1242:2
-1 928:1 1240:1 1242:3
-1 508:1 734:1 1117:1 1119:1 1162:1 1218:1 1221:1 1222:1 1235:1 1242:2
-1 166:1 178:1 347:1 508:1 820:1 910:1 1119:1 1162:1 1215:1 1218:1 1220:1 1222:1 1224:1 1230:1 1232:1 1235:1 1242:3
-1 178:1 347:1 734:1 820:1 910:1 1117:1 1119:1 1162:1 1215:1 1218:1 1220:1 1221:1 1222:1 1224:1 1230:1 1242:1
-1 1058:1 1228:1 1242:1
-1 166:1 171:1 178:1 701:1 705:1 882:1 1030:1 1036:1 1117:2 1119:1 1162:1 1200:1 1215:1 1218:1 1221:2 1222:1 1232:1 1242:5 1244:35
-1 166:1 178:1 347:1 421:1 440:1 508:1 509:1 578:1 787:1 820:1 910:1 1119:1 1162:1 1215:1 1218:1 1220:1 1222:1 1224:1 1230:1 1232:1 1233:1 1235:1 1238:1 1242:5
-1 166:1 704:1 820:1 823:1 910:1 1117:1 1119:1 1162:1 1218:1 1220:1 1221:1 1222:1 1230:1 1232:1 1242:2
-1 1117:2 1162:1 1218:1 1221:2 1242:3
-1 1117:2 1162:1 1218:1 1221:2 1242:2
-1 121:1 710:1 1081:1 1162:1 1218:1 1242:2
-1 303:1 508:1 710:1 1081:1 1117:2 1119:1 1162:1 1218:1 1221:2 1222:1 1235:1 1242:2
-1 922:1 1117:1 1162:1 1218:1 1221:1 1242:3
-1 1058:1 1228:1 1242:1
-1 1058:1 1228:1 1242:1
-1 928:1 1240:1 1242:3
-1 166:1 178:1 347:1 508:1 509:1 578:1 910:1 1001:31 1117:2 1119:1 1162:1 1215:1 1218:1 1221:2 1222:1 1224:1 1230:1 1232:1 1233:1 1235:1 1238:1 1242:2
-1 192:1 265:1 348:1 416:1 516:1 551:1 617:1 623:1 639:1 657:1 740:1 823:1 844:1 848:1 893:1 999:1 1090:1 1109:1 1115:1 1117:1 1151:1 1163:1 1221:1 1242:1
-1 928:1 1240:1 1242:3
-1 347:1 509:1 823:1 910:1 1117:1 1128:1 1162:1 1218:1 1221:1 1224:1 1230:1 1238:1 1242:1
-1 823:1 866:1 1117:1 1162:1 1218:1 1221:1 1242:2
-1 1101:1 1117:1 1119:1 1162:1 1218:1 1221:1 1222:1 1242:2
-1 178:1 426:1 823:1 1162:1 1215:1 1218:1 1242:1
-1 578:1 1119:1 1162:1 1218:1 1222:1 1233:1 1242:4
-1 166:1 167:1 178:1 347:1 508:1 509:1 578:1 820:1 883:1 910:1 1117:1 1119:1 1128:1 1162:1 1215:1 1218:1 1220:1 1221:1 1222:1 1224:1 1230:1 1232:1 1233:1 1235:1 1238:1 1242:2
-1 166:1 178:1 185:1 347:1 358:1 492:1 508:1 578:1 820:1 910:1 1119:1 1162:1 1215:1 1218:1 1220:1 1222:1 1224:1 1230:1 1232:1 1233:1 1235:1 1242:2
-1 192:1 508:1 551:1 740:1 893:1 1109:1 1117:1 1119:1 1128:1 1162:1 1163:1 1218:1 1221:1 1222:1 1235:1 1242:2
-1 192:1 426:1 509:1 551:1 740:1 893:1 1109:1 1117:1 1162:1 1163:1 1218:1 1221:1 1238:1 1242:2
-1 928:1 1240:1 1242:2
-1 1117:2 1162:1 1218:1 1221:2 1242:2
-1 1117:2 1162:1 1218:1 1221:2 1242:2
-1 166:1 509:1 910:3 1119:2 1162:4 1218:4 1222:2 1230:3 1232:1 1238:1 1242:4
-1 1162:1 1218:1 1242:2
-1 928:1 1240:1 1242:3
-1 928:1 1240:1 1242:2
-1 178:1 192:1 232:1 314:1 319:1 347:1 348:1 464:1 509:1 551:1 740:1 821:1 823:1 830:1 893:1 910:1 1050:1 1109:1 1117:1 1119:1 1128:1 1162:1 1163:1 1215:1 1218:1 1221:1 1222:1 1224:1 1230:1 1238:1 1242:1
-1 928:1 1240:1 1242:3
-1 1162:1 1218:1 1242:1
-1 192:1 348:1 352:1 540:1 551:1 617:1 740:1 823:1 893:1 1109:1 1117:1 1163:1 1221:1 1242:2
-1 166:1 178:1 347:1 508:1 910:1 1119:1 1162:1 1215:1 1218:1 1222:1 1224:1 1230:1 1232:1 1235:1 1242:2
-1 928:1 1240:1 1242:3
-1 928:1 1240:1 1242:3
-1 166:1 192:1 232:1 265:1 314:1 348:1 352:1 395:1 407:1 426:1 449:1 464:1 508:1 516:1 540:1 551:1 617:1 637:1 639:1 740:1 785:1 818:1 823:1 844:1 848:1 875:1 884:1 893:1 970:1 1021:1 1039:1 1050:1 1084:1 1090:1 1109:1 1115:1 1117:1 1119:1 1163:1 1177:1 1221:1 1222:1 1225:1 1232:1 1235:1 1242:3
-1 928:1 1240:1 1242:3
-1 1117:1 1162:1 1218:1 1221:1 1242:5
-1 928:1 1240:1 1242:2
-1 178:1 192:1 426:1 551:1 740:1 893:1 910:1 1109:1 1117:1 1119:1 1128:1 1162:1 1163:1 1215:1 1218:1 1221:1 1222:1 1230:1 1242:2
-1 928:1 1240:1 1242:4
-1 155:1 1117:1 1221:1 1242:1
-1 578:1 1117:1 1119:1 1162:1 1218:1 1221:1 1222:1 1233:1 1242:2
-1 347:1 1162:1 1218:1 1224:1 1242:2
-1 508:1 509:1 910:1 943:1 1119:1 1162:1 1218:1 1222:1 1230:1 1235:1 1238:1 1242:2
-1 166:1 178:1 347:1 508:1 509:1 820:1 910:1 970:1 1119:1 1162:1 1215:1 1218:1 1220:1 1222:1 1224:1 1225:1 1230:1 1232:1 1235:1 1238:1 1242:4
-1 166:1 178:1 198:1 347:1 421:1 508:1 578:1 910:1 931:1 1117:1 1119:1 1162:1 1214:1 1215:1 1218:1 1221:1 1222:1 1224:1 1230:1 1232:1 1233:1 1235:1 1242:2
-1 166:1 178:2 347:1 508:1 509:3 578:1 820:1 910:3 1119:2 1162:5 1215:2 1218:5 1220:1 1222:2 1224:1 1230:3 1232:1 1233:1 1235:1 1238:3 1242:6
-1 166:1 178:1 233:1 421:1 440:1 508:1 578:1 910:1 1119:1 1128:1 1162:1 1215:1 1218:1 1222:1 1230:1 1232:1 1233:1 1235:1 1242:2
-1 166:1 178:1 233:1 421:1 440:1 508:1 578:1 592:1 910:1 1119:1 1128:1 1162:1 1215:1 1218:1 1222:1 1230:1 1232:1 1233:1 1235:1 1242:2
-1 910:1 1117:1 1119:1 1162:1 1218:1 1221:1 1222:1 1230:1 1242:2
-1 508:1 578:1 820:1 910:1 1119:1 1162:1 1218:1 1220:1 1222:1 1230:1 1233:1 1235:1 1242:2
-1 336:1 508:1 703:1 1066:1 1119:1 1162:1 1218:1 1222:1 1235:1 1242:1
-1 1058:1 1228:1 1242:1
-1 166:1 178:1 347:1 492:1 508:1 509:1 557:1 578:1 663:1 703:1 820:1 902:1 910:1 931:1 1066:1 1119:1 1128:1 1162:1 1214:1 1215:1 1218:1 1220:1 1222:1 1224:1 1230:1 1232:1 1233:1 1235:1 1238:1 1242:1
-1 928:1 1240:1 1242:3
-1 178:1 508:1 910:1 1119:1 1162:1 1215:1 1218:1 1222:1 1230:1 1235:1 1242:2
-1 1162:1 1218:1 1242:1
-1 166:1 421:1 508:1 509:2 578:1 910:2 1119:2 1162:4 1218:4 1222:2 1230:2 1232:1 1233:1 1235:1 1238:2 1242:6
-1 1117:2 1162:1 1218:1 1221:2 1242:2
-1 167:1 198:1 347:1 421:1 508:1 598:1 910:1 943:1 1117:1 1119:1 1162:1 1218:1 1221:1 1222:1 1224:1 1230:1 1235:1 1242:3 1244:9
-1 1101:1 1117:1 1119:1 1162:1 1218:1 1221:1 1222:1 1242:2
-1 166:1 509:1 910:2 1119:2 1162:2 1218:2 1222:2 1230:2 1232:1 1238:1 1242:6
-1 178:1 347:1 421:1 508:1 509:1 820:1 910:1 1119:1 1128:1 1162:1 1215:1 1218:1 1220:1 1222:1 1224:1 1230:1 1235:1 1238:1 1242:2
-1 645:1 1119:1 1162:1 1218:1 1222:1 1242:2
-1 178:1 233:1 347:1 421:1 508:1 509:1 710:1 910:1 1068:1 1119:1 1162:1 1215:1 1218:1 1222:1 1224:1 1230:1 1235:1 1238:1 1242:2 1244:40
-1 166:1 178:1 238:1 241:1 288:1 403:1 496:1 508:1 545:1 629:1 650:1 827:1 855:1 910:1 931:1 1080:1 1093:1 1119:1 1128:1 1162:1 1191:1 1214:1 1215:1 1217:1 1218:1 1219:1 1222:1 1223:1 1227:1 1230:1 1232:1 1234:1 1235:1 1237:1 1241:1 1242:2
-1 928:1 1240:1 1242:3
-1 508:1 578:1 846:1 1117:1 1119:1 1162:1 1183:1 1218:1 1221:1 1222:1 1233:1 1235:1 1242:2
-1 508:1 578:1 846:1 1117:1 1119:1 1162:1 1218:1 1221:1 1222:1 1233:1 1235:1 1242:2
-1 508:1 578:1 846:1 1117:1 1119:1 1162:1 1218:1 1221:1 1222:1 1233:1 1235:1 1242:2
-1 1162:1 1218:1 1242:2
-1 166:1 178:1 347:1 508:1 820:1 910:1 1119:1 1162:1 1215:1 1218:1 1220:1 1222:1 1224:1 1230:1 1232:1 1235:1 1242:2
-1 1058:1 1228:1 1242:1
-1 166:1 178:1 347:1 440:1 508:1 509:1 578:1 820:1 910:2 1119:2 1162:3 1215:1 1218:3 1220:1 1222:2 1224:1 1230:2 1232:1 1233:1 1235:1 1238:1 1242:6
-1 1101:1 1117:1 1119:1 1162:1 1218:1 1221:1 1222:1 1242:3
-1 192:1 407:1 426:1 449:1 509:1 551:1 740:1 823:1 893:1 910:1 999:1 1083:1 1090:1 1109:1 1115:1 1117:1 1119:1 1128:1 1162:1 1163:1 1218:1 1221:1 1222:1 1230:1 1238:1 1242:3
-1 166:1 178:1 192:1 314:1 419:1 508:1 551:1 557:1 578:1 740:1 818:1 823:1 828:1 893:1 910:1 1109:1 1117:1 1119:1 1162:1 1163:1 1215:1 1218:1 1221:1 1222:1 1230:1 1232:1 1233:1 1235:1 1242:2
-1 166:1 178:1 189:1 336:1 384:1 508:1 578:1 703:1 910:1 944:1 1066:1 1119:1 1162:1 1215:1 1218:1 1222:1 1230:1 1232:1 1233:1 1235:1 1242:1
-1 136:1 347:1 509:1 831:1 910:1 1119:1 1128:1 1162:1 1218:1 1222:1 1224:1 1230:1 1238:1 1242:2
-1 347:1 509:1 820:1 910:1 1117:1 1119:1 1162:1 1218:1 1220:1 1221:1 1222:1 1224:1 1230:1 1238:1 1242:1 1244:1
-1 682:1 783:1 1117:1 1162:1 1200:1 1218:1 1221:1 1242:6
-1 928:1 1240:1 1242:5
-1 166:1 167:1 178:1 185:1 198:1 255:1 347:1 421:1 508:1 578:1 710:1 910:1 943:1 1081:1 1117:1 1119:1 1162:1 1215:1 1218:1 1221:1 1222:1 1224:1 1230:1 1232:1 1233:1 1235:1 1242:2 1244:61
-1 166:1 178:1 347:1 508:1 820:1 910:1 1119:1 1162:1 1215:1 1218:1 1220:1 1222:1 1224:1 1230:1 1232:1 1235:1 1242:3
-1 547:1 823:1 1242:2
-1 823:1 1162:1 1218:1 1242:1
-1 166:1 178:1 347:1 508:1 509:1 578:1 910:1 1117:1 1119:1 1162:1 1215:1 1218:1 1221:1 1222:1 1224:1 1230:1 1232:1 1233:1 1235:1 1238:1 1242:4
-1 818:1 1117:1 1162:1 1218:1 1221:1 1242:2
-1 508:1 578:1 910:1 1119:1 1162:1 1218:1 1222:1 1230:1 1233:1 1235:1 1242:1
-1 928:1 1240:1 1242:3
-1 166:1 192:1 333:1 347:1 426:1 439:1 508:1 509:1 551:1 740:1 823:1 888:1 893:1 910:1 976:1 1109:1 1117:1 1119:1 1162:1 1163:1 1218:1 1221:1 1222:1 1224:1 1230:1 1232:1 1235:1 1238:1 1242:1
-1 347:1 509:1 910:1 1117:1 1119:1 1162:1 1218:1 1221:1 1222:1 1224:1 1230:1 1238:1 1242:2
-1 122:1 1162:1 1218:1 1242:2
-1 1117:1 1119:1 1162:1 1218:1 1221:1 1222:1 1242:4
-1 233:1 943:1 1117:2 1162:1 1218:1 1221:2 1242:3
-1 347:1 1000:1 1119:1 1162:1 1218:1 1222:1 1224:1 1242:2
-1 347:1 1000:1 1119:1 1162:1 1218:1 1222:1 1224:1 1242:2
-1 331:1 459:1 472:1 618:1 1117:1 1119:1 1162:1 1218:1 1221:1 1222:1 1242:3
-1 564:1 710:1 1081:1 1117:1 1162:1 1218:1 1221:1 1242:2
-1 910:1 943:1 1162:1 1218:1 1230:1 1242:2
-1 136:1 910:1 1162:1 1218:1 1230:1 1242:1
-1 943:1 1117:2 1162:1 1218:1 1221:2 1242:3
-1 166:1 178:1 347:1 440:1 508:1 509:2 820:1 910:2 943:1 1119:2 1162:4 1215:1 1218:4 1220:1 1222:2 1224:1 1230:2 1232:1 1235:1 1238:2 1242:6
-1 166:1 508:1 509:2 578:1 820:1 910:2 943:1 1119:2 1162:4 1218:4 1220:1 1222:2 1230:2 1232:1 1233:1 1235:1 1238:2 1242:6
-1 166:1 178:1 233:1 314:1 319:1 347:1 421:1 462:1 508:1 509:1 557:1 703:1 820:1 831:1 883:1 910:1 931:1 970:1 1073:1 1097:1 1119:1 1128:1 1162:1 1214:1 1215:1 1218:1 1220:1 1222:1 1224:1 1225:1 1230:1 1232:1 1235:1 1238:1 1242:2
-1 928:1 1240:1 1242:3
-1 928:1 1240:1 1242:2
-1 423:1 509:2 910:1 1119:2 1147:1 1162:4 1218:4 1222:2 1230:1 1238:2 1242:5
-1 166:1 347:1 508:1 509:3 578:1 710:2 820:1 910:2 1081:1 1119:2 1162:4 1218:4 1220:1 1222:2 1224:1 1230:2 1232:1 1233:1 1235:1 1238:3 1242:6
-1 121:1 423:1 710:1 1013:1 1081:1 1162:1 1218:1 1242:4
-1 166:1 178:1 347:1 508:1 910:1 1119:1 1162:1 1215:1 1218:1 1222:1 1224:1 1230:1 1232:1 1235:1 1242:2
-1 192:1 193:1 265:1 293:1 348:1 352:1 383:1 551:1 557:1 740:1 848:1 893:1 999:1 1090:1 1109:1 1115:1 1117:1 1163:1 1177:1 1221:1 1242:2
-1 1117:1 1162:1 1218:1 1221:1 1242:5
-1 1117:2 1162:1 1218:1 1221:2 1242:3
-1 928:1 1240:1 1242:4
-1 1058:1 1228:1 1242:1
-1 145:1 146:1 192:1 193:1 251:1 256:1 265:1 271:1 282:1 311:1 333:1 348:1 352:1 362:1 407:1 416:1 426:1 449:1 464:1 484:1 516:1 551:1 599:1 608:1 740:1 785:1 801:1 822:1 823:1 836:1 844:1 848:1 893:1 966:1 1015:1 1021:1 1048:1 1083:1 1090:1 1109:1 1115:1 1117:1 1119:1 1126:1 1163:1 1221:1 1222:1 1242:3
-1 192:1 265:1 348:1 464:1 516:1 551:1 740:1 848:1 893:1 1021:1 1109:1 1117:1 1163:1 1221:1 1242:2
-1 928:1 1240:1 1242:2
-1 166:1 178:1 233:1 440:1 508:1 578:1 910:1 1119:1 1162:1 1215:1 1218:1 1222:1 1230:1 1232:1 1233:1 1235:1 1242:1
-1 1058:1 1228:1 1242:1
-1 166:1 509:1 910:2 1119:2 1162:2 1218:2 1222:2 1230:2 1232:1 1238:1 1242:7
-1 166:1 178:1 426:1 508:1 509:1 569:1 695:1 703:1 823:1 910:1 1117:1 1119:1 1162:1 1215:1 1218:1 1221:1 1222:1 1230:1 1232:1 1235:1 1238:1 1242:2
-1 166:1 178:1 347:1 508:1 820:1 910:1 1119:1 1162:1 1215:1 1218:1 1220:1 1222:1 1224:1 1230:1 1232:1 1235:1 1242:3
-1 1058:1 1228:1 1242:1
-1 1242:3
-1 823:1 1117:1 1119:1 1162:1 1218:1 1221:1 1222:1 1242:2
-1 166:1 178:1 232:1 233:1 347:1 421:1 508:1 578:1 910:1 976:1 981:1 1073:1 1117:1 1119:1 1128:1 1162:1 1215:1 1218:1 1221:1 1222:1 1224:1 1230:1 1232:1 1233:1 1235:1 1242:4
-1 928:1 1240:1 1242:3
-1 166:1 178:1 508:1 509:2 820:1 910:2 1119:2 1162:4 1215:1 1218:4 1220:1 1222:2 1230:2 1232:1 1235:1 1238:2 1242:6
-1 215:1 347:1 1117:1 1162:1 1218:1 1221:1 1224:1 1242:1
-1 347:1 509:1 625:1 1040:1 1224:1 1238:1 1242:2
-1 1117:2 1162:1 1218:1 1221:2 1242:5
-1 178:1 910:1 1119:1 1162:1 1215:1 1218:1 1222:1 1230:1 1242:3
-1 928:1 1240:1 1242:2
-1 192:1 265:1 294:1 348:1 383:1 426:1 516:1 551:1 617:1 623:1 643:1 657:1 661:1 728:1 740:1 785:1 823:1 844:1 848:1 893:1 1109:1 1115:1 1117:1 1163:1 1177:1 1209:1 1221:1 1242:3
-1 166:1 178:1 347:1 508:1 820:1 910:1 1119:1 1162:1 1215:1 1218:1 1220:1 1222:1 1224:1 1230:1 1232:1 1235:1 1242:3
-1 928:1 1240:1 1242:3
-1 166:1 178:1 347:2 440:1 508:1 509:3 578:1 710:3 820:1 910:2 970:1 1068:1 1119:2 1162:5 1215:1 1218:5 1220:1 1222:2 1224:2 1225:1 1230:2 1232:1 1233:1 1235:1 1238:3 1242:6
-1 928:1 1240:1 1242:3
-1 924:1 1162:1 1218:1 1242:3
-1 121:1 674:1 710:1 812:1 1081:1 1162:1 1218:1 1242:1
-1 121:1 710:1 812:1 1081:1 1162:1 1218:1 1242:1
-1 121:1 674:1 710:1 812:1 1081:1 1162:1 1218:1 1242:1
-1 182:1 223:1 281:1 646:1 1072:1 1119:1 1125:1 1162:1 1218:1 1222:1 1242:1
-1 1058:1 1228:1 1242:1
-1 1162:1 1218:1 1242:2
-1 331:1 357:1 459:1 472:1 876:1 877:1 979:1 1117:2 1162:1 1218:1 1221:2 1242:2
-1 178:1 508:1 578:1 910:1 1119:1 1162:1 1215:1 1218:1 1222:1 1230:1 1233:1 1235:1 1242:1
-1 1162:1 1184:1 1218:1 1242:3
-1 1162:1 1184:1 1218:1 1242:3
-1 1162:1 1184:1 1218:1 1242:3
-1 1162:1 1184:1 1218:1 1242:3
-1 508:1 711:1 753:1 910:1 955:1 1119:1 1162:1 1218:1 1222:1 1230:1 1235:1 1242:2
-1 166:1 178:2 347:1 508:1 509:2 578:1 705:1 820:1 910:2 943:1 1068:1 1119:3 1162:5 1215:2 1218:5 1220:1 1222:3 1224:1 1230:2 1232:1 1233:1 1235:1 1238:2 1242:6
-1 178:1 1117:1 1119:1 1128:1 1162:1 1215:1 1218:1 1221:1 1222:1 1242:6
-1 128:1 187:1 192:1 265:1 294:1 314:1 348:1 352:1 362:1 383:1 407:1 414:1 419:1 426:1 464:1 478:1 501:1 509:1 516:1 540:1 551:1 603:1 617:1 623:1 639:1 643:1 671:1 736:1 740:1 785:1 821:1 823:1 830:1 844:1 848:1 875:1 893:1 995:1 999:1 1015:1 1021:1 1090:1 1109:1 1115:1 1117:1 1163:1 1187:1 1204:1 1209:1 1212:1 1221:1 1238:1 1239:1 1242:2
-1 178:1 192:1 348:1 551:1 617:1 639:1 740:1 823:1 844:1 848:1 893:1 1090:1 1109:1 1117:1 1162:1 1163:1 1215:1 1218:1 1221:1 1242:2
-1 162:1 192:1 193:1 265:1 321:1 348:1 352:1 407:1 426:1 449:1 464:1 509:1 516:1 540:1 551:1 617:1 712:1 726:1 740:1 802:1 823:1 841:1 844:1 848:1 893:1 954:1 999:1 1021:1 1083:1 1090:1 1109:1 1115:1 1117:1 1151:1 1163:1 1204:1 1221:1 1238:1 1242:2
-1 192:1 426:1 740:1 872:1 893:1 910:1 1109:1 1117:1 1128:1 1162:1 1163:1 1218:1 1221:1 1230:1 1242:1
-1 192:1 551:1 740:1 893:1 1109:1 1117:1 1119:1 1162:1 1163:1 1218:1 1221:1 1222:1 1242:3
-1 1058:1 1228:1 1242:1
-1 166:1 178:1 347:1 508:1 820:1 910:1 1119:1 1162:1 1215:1 1218:1 1220:1 1222:1 1224:1 1230:1 1232:1 1235:1 1242:3
-1 928:1 1240:1 1242:3
-1 347:1 439:1 509:1 823:1 910:1 1117:1 1119:1 1162:1 1218:1 1221:1 1222:1 1224:1 1230:1 1238:1 1242:2
-1 1162:1 1218:1 1242:1
-1 166:1 178:1 426:1 508:1 509:1 728:1 823:1 910:1 1117:1 1119:1 1162:1 1215:1 1218:1 1221:1 1222:1 1230:1 1232:1 1235:1 1238:1 1242:1
-1 928:1 1240:1 1242:2
-1 910:1 1117:1 1162:1 1218:1 1221:1 1230:1 1242:3
-1 138:1 166:1 170:1 347:1 358:1 421:1 508:1 509:1 578:1 910:1 1119:1 1162:1 1218:1 1222:1 1224:1 1230:1 1232:1 1233:1 1235:1 1238:1 1242:2
-1 138:1 166:1 170:1 347:1 358:1 421:1 508:1 509:1 578:1 910:1 1119:1 1162:1 1218:1 1222:1 1224:1 1230:1 1232:1 1233:1 1235:1 1238:1 1242:2
-1 137:1 192:1 193:1 264:1 265:1 348:1 426:1 464:1 509:1 551:1 622:1 623:1 629:1 661:1 740:1 755:1 785:1 844:1 848:1 860:1 893:1 894:1 999:1 1048:1 1090:1 1109:1 1115:1 1163:1 1223:1 1238:1 1242:1
-1 178:1 508:1 910:1 957:1 1117:1 1119:1 1162:1 1215:1 1218:1 1221:1 1222:1 1230:1 1235:1 1242:2
-1 166:1 421:1 508:1 509:2 820:1 910:2 957:1 1119:2 1162:4 1218:4 1220:1 1222:2 1230:2 1232:1 1235:1 1238:2 1242:6
-1 166:1 167:1 178:1 508:1 910:1 1101:1 1117:1 1119:1 1162:1 1215:1 1218:1 1221:1 1222:1 1230:1 1232:1 1235:1 1242:2
-1 166:1 178:1 508:1 509:2 910:2 943:1 1119:2 1162:4 1215:1 1218:4 1222:2 1230:2 1232:1 1235:1 1238:2 1242:6
-1 1162:1 1218:1 1242:1
-1 1162:1 1218:1 1242:2
-1 928:1 1240:1 1242:3
-1 1171:1 1242:2
-1 166:1 178:1 347:1 508:1 578:1 910:1 943:1 1117:2 1119:1 1162:1 1215:1 1218:1 1221:2 1222:1 1224:1 1230:1 1232:1 1233:1 1235:1 1242:2
-1 1117:1 1162:1 1218:1 1221:1 1242:2
-1 166:1 178:1 347:1 508:1 509:1 557:1 578:1 651:1 820:1 910:1 972:1 1119:1 1128:1 1162:1 1215:1 1218:1 1220:1 1222:1 1224:1 1230:1 1232:1 1233:1 1235:1 1236:1 1238:1 1242:2
-1 166:1 178:1 347:1 508:1 509:1 578:1 820:1 910:1 1119:1 1162:1 1215:1 1218:1 1220:1 1222:1 1224:1 1230:1 1232:1 1233:1 1235:1 1238:1 1242:1
-1 426:1 557:1 820:1 910:1 1117:1 1119:1 1162:1 1218:1 1220:1 1221:1 1222:1 1230:1 1242:1
-1 192:1 265:1 348:1 464:1 516:1 551:1 617:1 623:1 629:1 657:1 661:1 740:1 823:1 844:1 848:1 867:1 894:1 1109:1 1163:1 1223:1 1242:2
-1 233:1 426:1 820:1 823:1 910:1 1117:1 1119:1 1162:1 1218:1 1220:1 1221:1 1222:1 1230:1 1242:1 1244:3
-1 192:1 263:1 265:1 314:1 348:1 352:1 407:1 426:1 501:1 551:1 557:1 617:1 623:1 740:1 823:1 844:1 848:1 893:1 1109:1 1117:1 1163:1 1221:1 1242:1
-1 166:1 178:1 347:1 508:1 509:1 578:1 910:1 1119:1 1162:1 1215:1 1218:1 1222:1 1224:1 1230:1 1232:1 1233:1 1235:1 1238:1 1242:1
-1 928:1 1240:1 1242:4
-1 257:1 463:1 509:1 531:1 691:1 823:1 932:1 952:1 1117:1 1174:1 1221:1 1238:1 1242:1
-1 197:1 217:1 244:1 267:1 474:1 480:1 493:1 509:1 553:1 558:1 562:1 567:1 594:1 742:1 823:1 845:1 848:1 893:1 961:1 999:1 1048:1 1086:1 1109:1 1117:1 1194:1 1221:1 1238:1 1242:1
-1 162:1 190:1 192:1 265:1 348:1 426:1 464:1 509:1 551:1 552:1 608:1 617:1 639:1 657:1 740:1 822:1 823:1 844:1 848:1 875:1 893:1 999:1 1109:1 1115:1 1117:1 1126:1 1157:1 1163:1 1177:1 1187:1 1209:1 1221:1 1238:1 1242:2
-1 928:1 1240:1 1242:3
-1 472:1 1117:1 1162:1 1218:1 1221:1 1242:2
-1 928:1 1240:1 1242:3
-1 162:1 166:1 187:1 192:1 193:1 251:1 348:1 352:1 401:1 407:1 426:1 449:1 464:1 508:1 516:1 551:1 617:1 654:1 740:1 785:1 823:1 848:1 893:1 910:1 976:1 994:1 1008:1 1068:1 1083:1 1084:1 1109:1 1115:1 1117:1 1119:1 1128:1 1162:1 1163:1 1218:1 1221:1 1222:1 1230:1 1232:1 1235:1 1242:3
-1 928:1 1240:1 1242:3
-1 928:1 1240:1 1242:3
-1 928:1 1240:1 1242:3
-1 166:1 910:1 1117:1 1119:1 1162:1 1218:1 1221:1 1222:1 1230:1 1232:1 1242:2
-1 1162:1 1218:1 1242:1
-1 166:1 178:1 185:1 255:1 347:1 421:1 492:1 508:1 578:1 910:1 1092:1 1119:1 1162:1 1215:1 1218:1 1222:1 1224:1 1230:1 1232:1 1233:1 1235:1 1242:2 1244:2
-1 178:1 910:1 1117:1 1119:1 1162:1 1215:1 1218:1 1221:1 1222:1 1230:1 1242:3
-1 166:1 509:1 910:3 1119:2 1162:4 1218:4 1222:2 1230:3 1232:1 1238:1 1242:4
-1 192:1 264:1 265:1 348:1 367:1 383:1 419:1 516:1 551:1 557:1 603:1 617:1 657:1 671:1 740:1 755:1 770:1 823:1 844:1 848:1 893:1 1021:1 1109:1 1115:1 1117:1 1163:1 1209:1 1221:1 1242:2
-1 846:1 1117:1 1162:1 1205:1 1218:1 1221:1 1242:3
-1 682:1 783:1 1117:1 1162:1 1200:1 1218:1 1221:1 1242:6
-1 682:1 783:1 1117:1 1162:1 1200:1 1218:1 1221:1 1242:6
-1 682:1 783:1 1117:1 1162:1 1200:1 1218:1 1221:1 1242:5
-1 682:1 783:1 1117:1 1162:1 1200:1 1218:1 1221:1 1242:5
-1 331:1 459:1 472:1 981:1 1117:2 1162:1 1218:1 1221:2 1242:2
-1 192:1 308:1 348:1 426:1 464:1 551:1 629:1 661:1 740:1 823:1 894:1 1109:1 1163:1 1223:1 1242:2
-1 192:1 308:1 348:1 426:1 464:1 551:1 629:1 661:1 740:1 823:1 894:1 1109:1 1163:1 1223:1 1242:2
-1 1117:1 1162:1 1218:1 1221:1 1242:6
-1 928:1 1240:1 1242:3
-1 120:1 129:1 162:1 192:1 265:1 314:1 348:1 352:1 407:1 426:1 449:1 464:1 509:1 516:1 551:1 617:1 622:1 726:1 740:1 841:1 844:1 848:1 893:1 954:1 1021:1 1090:1 1109:1 1115:1 1117:1 1163:1 1177:1 1216:1 1221:1 1238:1 1242:2
-1 162:1 192:1 203:1 265:1 352:1 426:1 460:1 509:1 516:1 540:1 551:1 617:1 639:1 726:1 740:1 797:1 844:1 848:1 893:1 954:1 999:1 1021:1 1109:1 1115:1 1117:1 1163:1 1221:1 1238:1 1242:2
-1 162:1 192:1 215:1 265:1 314:1 330:1 348:1 352:1 407:1 426:1 449:1 464:1 484:1 516:1 551:1 654:1 740:1 823:1 844:1 848:1 867:1 893:1 911:1 999:1 1021:1 1090:1 1109:1 1117:1 1163:1 1212:1 1221:1 1231:1 1242:2
-1 192:1 206:1 426:1 551:1 557:1 617:1 678:1 726:1 740:1 848:1 893:1 1008:1 1109:1 1115:1 1117:1 1119:1 1163:1 1221:1 1222:1 1242:2
-1 192:1 220:1 352:1 407:1 426:1 449:1 509:1 540:1 551:1 557:1 617:1 726:1 740:1 797:1 802:1 841:1 844:1 848:1 893:1 954:1 1109:1 1115:1 1117:1 1163:1 1221:1 1238:1 1242:2
-1 928:1 1240:1 1242:3
-1 928:1 1240:1 1242:2
-1 192:1 265:1 348:1 551:1 617:1 740:1 823:1 844:1 893:1 1073:1 1109:1 1115:1 1117:1 1163:1 1221:1 1242:2
-1 928:1 1240:1 1242:3
-1 200:1 783:1 910:1 917:1 989:1 1117:2 1141:1 1162:1 1200:1 1218:1 1221:2 1230:1 1242:4
-1 1119:1 1162:1 1218:1 1222:1 1242:2
-1 928:1 1240:1 1242:3
-1 928:1 1240:1 1242:3
-1 928:1 1240:1 1242:3
-1 823:1 866:1 1117:1 1162:1 1218:1 1221:1 1242:2
-1 166:1 178:1 509:1 557:1 651:1 820:1 910:1 1119:1 1128:1 1162:1 1215:1 1218:1 1220:1 1222:1 1230:1 1232:1 1236:1 1238:1 1242:1 1244:3
-1 166:1 508:1 820:1 910:1 1119:1 1162:1 1218:1 1220:1 1222:1 1230:1 1232:1 1235:1 1242:2
-1 166:1 347:1 508:1 509:1 883:1 910:1 1119:1 1128:1 1162:1 1218:1 1222:1 1224:1 1230:1 1232:1 1235:1 1238:1 1242:1
-1 928:1 1240:1 1242:3
-1 1162:1 1218:1 1242:1
-1 166:1 178:1 192:1 314:1 347:1 419:1 426:1 551:1 740:1 828:1 893:1 910:1 1008:1 1109:1 1117:1 1119:1 1162:1 1163:1 1215:1 1218:1 1221:1 1222:1 1224:1 1230:1 1232:1 1242:2
-1 178:1 192:1 347:1 426:1 551:1 740:1 893:1 1109:1 1117:1 1119:1 1128:1 1163:1 1215:1 1221:1 1222:1 1224:1 1242:3
-1 1117:1 1162:1 1218:1 1221:1 1242:2 1244:1
-1 1117:1 1162:1 1218:1 1221:1 1242:2 1244:1
-1 166:1 178:1 347:1 421:1 508:1 509:1 578:1 710:1 888:1 910:1 1081:1 1119:1 1128:1 1162:1 1215:1 1218:1 1222:1 1224:1 1230:1 1232:1 1233:1 1235:1 1238:1 1242:2
-1 166:1 178:1 347:1 421:1 508:1 509:1 578:1 710:1 888:1 910:1 1081:1 1119:1 1128:1 1162:1 1215:1 1218:1 1222:1 1224:1 1230:1 1232:1 1233:1 1235:1 1238:1 1242:3
-1 423:1 856:1 1117:1 1119:1 1162:1 1218:1 1221:1 1222:1 1242:3
-1 166:1 509:1 910:3 1119:2 1162:4 1218:4 1222:2 1230:3 1232:1 1238:1 1242:4
-1 192:1 233:1 253:1 419:1 426:1 440:1 509:1 551:1 740:1 820:1 823:1 884:1 893:1 1109:1 1115:1 1117:1 1119:1 1128:1 1162:1 1163:1 1186:1 1218:1 1220:1 1221:1 1222:1 1238:1 1242:2
-1 166:1 178:1 347:1 508:1 509:1 663:1 703:1 820:1 902:1 910:1 1066:1 1119:1 1128:1 1162:1 1215:1 1218:1 1220:1 1222:1 1224:1 1230:1 1232:1 1235:1 1238:1 1242:1
-1 166:1 178:1 233:1 508:1 578:1 703:1 910:1 1119:1 1162:1 1215:1 1218:1 1222:1 1230:1 1232:1 1233:1 1235:1 1242:1
-1 166:1 178:1 347:1 508:1 820:1 910:1 1119:1 1162:1 1215:1 1218:1 1220:1 1222:1 1224:1 1230:1 1232:1 1235:1 1242:2
-1 166:1 178:2 347:1 508:1 509:2 578:1 820:1 910:2 1119:2 1162:4 1215:2 1218:4 1220:1 1222:2 1224:1 1230:2 1232:1 1233:1 1235:1 1238:2 1242:6
-1 166:1 509:1 910:2 1119:2 1162:2 1218:2 1222:2 1230:2 1232:1 1238:1 1242:7
-1 928:1 1240:1 1242:3
-1 192:1 265:1 348:1 414:1 464:1 551:1 617:1 643:1 657:1 740:1 823:1 844:1 848:1 875:1 893:1 999:1 1021:1 1048:1 1090:1 1109:1 1117:1 1163:1 1204:1 1221:1 1242:2
-1 190:1 192:1 265:1 439:1 551:1 639:1 740:1 771:1 823:1 848:1 893:1 999:1 1090:1 1109:1 1117:1 1162:1 1163:1 1218:1 1221:1 1242:2
-1 928:1 1240:1 1242:3
-1 928:1 1240:1 1242:2
-1 166:1 509:2 910:3 1119:2 1162:4 1218:4 1222:2 1230:3 1232:1 1238:2 1242:6
-1 1058:1 1228:1 1242:3
-1 1058:1 1228:1 1242:2
-1 1058:1 1228:1 1242:2
-1 1058:1 1228:1 1242:2
-1 1058:1 1228:1 1242:2
-1 1058:1 1228:1 1242:2
-1 1058:1 1228:1 1242:1
-1 1058:1 1228:1 1242:1
-1 1058:1 1228:1 1242:2
-1 1058:1 1228:1 1242:1
-1 1058:1 1228:1 1242:1
-1 1058:1 1228:1 1242:1
-1 192:1 407:1 426:1 439:1 449:1 551:1 740:1 893:1 910:1 1109:1 1117:1 1119:1 1128:1 1162:1 1163:1 1218:1 1221:1 1222:1 1230:1 1242:3
-1 120:1 192:1 314:1 347:1 367:1 419:1 426:1 449:1 462:1 464:1 508:1 509:1 551:1 557:1 603:1 737:1 740:1 841:1 893:1 910:1 911:1 931:1 933:1 995:1 1050:1 1109:1 1117:1 1119:1 1162:1 1163:1 1214:1 1216:1 1218:1 1221:1 1222:1 1224:1 1230:1 1231:1 1235:1 1238:1 1239:1 1242:1
-1 192:1 352:1 551:1 740:1 797:1 848:1 893:1 1109:1 1117:1 1163:1 1221:1 1242:2
-1 138:1 166:1 347:1 508:1 509:1 578:1 910:1 1119:1 1128:1 1162:1 1218:1 1222:1 1224:1 1230:1 1232:1 1233:1 1235:1 1238:1 1242:1
-1 928:1 1240:1 1242:4
-1 928:1 1240:1 1242:3
-1 943:1 1117:2 1162:1 1218:1 1221:2 1242:3
-1 1117:2 1162:1 1218:1 1221:2 1242:2
-1 192:1 348:1 383:1 426:1 464:1 516:1 551:1 639:1 740:1 823:1 848:1 893:1 1109:1 1117:1 1163:1 1221:1 1242:1
-1 1037:1 1162:1 1184:1 1189:1 1218:1 1242:2
-1 166:1 509:1 910:2 1119:2 1162:2 1218:2 1222:2 1230:2 1232:1 1238:1 1242:7
-1 150:1 178:1 208:1 347:1 508:1 509:1 578:1 703:1 910:1 976:1 1024:1 1117:1 1119:1 1128:1 1147:1 1162:1 1215:1 1218:1 1221:1 1222:1 1224:1 1230:1 1233:1 1235:1 1238:1 1242:1 1244:43
-1 178:1 508:1 910:1 1119:1 1162:1 1215:1 1218:1 1222:1 1230:1 1235:1 1242:2
-1 910:1 1117:1 1162:1 1218:1 1221:1 1230:1 1242:2
-1 735:1 764:1 942:1 1057:1 1119:1 1162:1 1218:1 1222:1 1242:2
-1 166:1 178:1 347:1 508:1 509:1 557:1 820:1 883:1 888:1 910:1 931:1 1117:1 1119:1 1128:1 1162:1 1214:1 1215:1 1218:1 1220:1 1221:1 1222:1 1224:1 1230:1 1232:1 1235:1 1238:1 1242:3
-1 162:1 192:1 234:1 256:1 265:1 283:1 294:1 348:1 431:1 464:1 515:1 551:1 579:1 697:1 740:1 823:1 824:1 836:1 848:1 893:1 1021:1 1090:1 1109:1 1117:1 1163:1 1221:1 1242:2
-1 178:1 347:1 509:1 910:1 1117:1 1119:1 1162:1 1215:1 1218:1 1221:1 1222:1 1224:1 1230:1 1238:1 1242:2
-1 166:1 178:1 347:1 508:1 509:1 578:1 820:1 910:1 1119:1 1162:1 1215:1 1218:1 1220:1 1222:1 1224:1 1230:1 1232:1 1233:1 1235:1 1238:1 1242:2
-1 162:1 178:1 192:1 218:1 307:1 348:1 362:1 424:1 426:1 551:1 617:1 712:1 740:1 820:1 823:1 844:1 848:1 875:1 893:1 910:1 995:1 999:1 1021:1 1109:1 1117:1 1119:1 1162:1 1163:1 1215:1 1218:1 1220:1 1221:1 1222:1 1230:1 1239:1 1242:3
-1 166:1 508:1 820:1 910:1 1119:1 1162:1 1218:1 1220:1 1222:1 1230:1 1232:1 1235:1 1242:2
-1 166:1 508:1 820:1 910:1 1119:1 1162:1 1218:1 1220:1 1222:1 1230:1 1232:1 1235:1 1242:2
-1 166:1 178:1 347:1 509:1 578:1 910:1 1119:1 1162:1 1215:1 1218:1 1222:1 1224:1 1230:1 1232:1 1233:1 1238:1 1242:1
-1 928:1 1240:1 1242:3
-1 166:1 509:1 910:2 1119:2 1162:2 1218:2 1222:2 1230:2 1232:1 1238:1 1242:7
-1 178:1 215:1 314:1 319:1 347:1 401:1 508:1 509:1 554:1 557:1 703:1 823:1 910:1 1117:1 1119:1 1124:1 1128:1 1162:1 1215:1 1218:1 1221:1 1222:1 1224:1 1229:1 1230:1 1235:1 1238:1 1242:1
-1 178:1 910:1 1117:1 1119:1 1162:1 1215:1 1218:1 1221:1 1222:1 1230:1 1242:4
-1 404:1 1073:1 1162:1 1184:1 1218:1 1242:3
-1 498:1 1073:1 1162:1 1184:1 1218:1 1242:3
-1 166:1 508:1 509:2 820:1 910:2 1119:2 1162:5 1218:5 1220:1 1222:2 1230:2 1232:1 1235:1 1238:2 1242:6
-1 166:1 178:1 910:1 1119:1 1162:1 1215:1 1218:1 1222:1 1230:1 1232:1 1242:1
-1 1116:1 1162:1 1218:1 1242:1
-1 426:1 910:1 1117:1 1119:1 1162:1 1218:1 1221:1 1222:1 1230:1 1242:2
-1 233:1 314:1 404:1 415:1 508:1 910:1 1117:2 1119:1 1162:1 1218:1 1221:2 1222:1 1230:1 1235:1 1242:4 1244:5590
-1 166:1 509:1 910:2 1119:2 1162:2 1218:2 1222:2 1230:2 1232:1 1238:1 1242:7
-1 178:1 910:1 1117:1 1119:1 1162:1 1215:1 1218:1 1221:1 1222:1 1230:1 1242:4
-1 166:1 178:1 347:1 823:1 888:1 910:1 994:1 1008:1 1085:1 1117:1 1119:1 1162:1 1215:1 1218:1 1221:1 1222:1 1224:1 1230:1 1232:1 1242:2
-1 162:1 192:1 265:1 419:1 426:1 551:1 557:1 589:1 740:1 795:1 823:1 828:1 844:1 893:1 910:1 1078:1 1090:1 1109:1 1115:1 1117:1 1119:1 1162:1 1163:1 1218:1 1221:1 1222:1 1230:1 1242:3
-1 165:1 192:1 251:1 426:1 551:1 568:1 740:1 848:1 893:1 1109:1 1117:1 1163:1 1221:1 1242:2
-1 166:1 178:1 347:1 508:1 820:1 910:1 1119:1 1162:1 1215:1 1218:1 1220:1 1222:1 1224:1 1230:1 1232:1 1235:1 1242:3
-1 166:1 347:1 508:1 509:1 628:1 910:1 981:1 1066:1 1119:1 1128:1 1162:1 1218:1 1222:1 1224:1 1230:1 1232:1 1235:1 1238:1 1242:2
-1 281:1 334:1 563:1 1006:1 1162:1 1218:1 1242:2
-1 166:1 178:1 281:1 334:1 347:1 508:1 509:1 563:1 820:1 910:1 1006:1 1119:1 1128:1 1162:1 1215:1 1218:1 1220:1 1222:1 1224:1 1230:1 1232:1 1235:1 1238:1 1242:1
-1 928:1 1240:1 1242:4
-1 928:1 1240:1 1242:2
-1 928:1 1240:1 1242:3
-1 928:1 1240:1 1242:2
-1 928:1 1240:1 1242:3
-1 166:1 509:1 910:2 1119:2 1162:2 1218:2 1222:2 1230:2 1232:1 1238:1 1242:7
-1 928:1 1240:1 1242:3
-1 166:1 178:1 347:1 508:1 820:1 910:1 1119:1 1162:1 1215:1 1218:1 1220:1 1222:1 1224:1 1230:1 1232:1 1235:1 1242:3
-1 928:1 1240:1 1242:2
-1 928:1 1240:1 1242:2
-1 928:1 1240:1 1242:2
-1 928:1 1240:1 1242:2
-1 298:1 710:1 1010:1 1064:1 1162:1 1218:1 1242:3 1244:66
-1 374:1 645:1 710:1 1091:1 1162:1 1218:1 1242:1 1244:66
-1 928:1 1240:1 1242:2
-1 162:1 225:1 265:1 348:1 352:1 367:1 419:1 426:1 464:1 509:1 516:1 551:1 557:1 623:1 654:1 726:1 740:1 741:1 841:1 844:1 848:1 875:1 884:1 893:1 999:1 1090:1 1109:1 1115:1 1117:1 1163:1 1177:1 1221:1 1238:1 1242:2
-1 192:1 348:1 407:1 426:1 449:1 464:1 516:1 551:1 629:1 661:1 740:1 822:1 848:1 893:1 894:1 1021:1 1083:1 1109:1 1163:1 1223:1 1242:2
-1 178:1 508:1 509:1 578:1 910:1 931:1 1073:1 1119:1 1128:1 1162:1 1214:1 1215:1 1218:1 1222:1 1230:1 1233:1 1235:1 1238:1 1242:1
-1 166:1 509:1 910:3 1119:2 1162:4 1218:4 1222:2 1230:3 1232:1 1238:1 1242:5
-1 910:1 1119:1 1162:1 1218:1 1222:1 1230:1 1242:1
-1 166:1 178:1 508:1 910:1 1119:1 1162:1 1215:1 1218:1 1222:1 1230:1 1232:1 1235:1 1242:1
-1 166:1 178:1 508:1 910:1 1119:1 1162:1 1215:1 1218:1 1222:1 1230:1 1232:1 1235:1 1242:1
-1 178:1 910:1 1119:1 1162:1 1215:1 1218:1 1222:1 1230:1 1242:1
-1 178:1 910:1 1119:1 1162:1 1215:1 1218:1 1222:1 1230:1 1242:1
-1 138:1 178:1 185:1 319:1 347:1 439:1 440:1 508:1 509:1 569:1 578:1 787:1 820:1 910:1 1119:1 1128:1 1162:1 1215:1 1218:1 1220:1 1222:1 1224:1 1230:1 1233:1 1235:1 1238:1 1242:1
-1 138:1 178:1 185:1 319:1 347:1 439:1 440:1 508:1 509:1 569:1 578:1 787:1 820:1 910:1 1119:1 1128:1 1162:1 1215:1 1218:1 1220:1 1222:1 1224:1 1230:1 1233:1 1235:1 1238:1 1242:1
-1 121:1 710:1 1117:1 1162:1 1218:1 1221:1 1242:3
-1 508:1 578:1 910:1 1119:1 1162:1 1218:1 1222:1 1230:1 1233:1 1235:1 1242:1
-1 178:1 192:1 314:1 491:1 551:1 740:1 744:1 823:1 893:1 910:1 1109:1 1117:1 1162:1 1163:1 1215:1 1218:1 1221:1 1230:1 1242:2
-1 178:1 347:1 508:1 509:1 910:1 1119:1 1128:1 1162:1 1215:1 1218:1 1222:1 1224:1 1230:1 1235:1 1238:1 1242:1
-1 347:1 509:1 910:1 928:1 1117:1 1128:1 1162:1 1218:1 1221:1 1224:1 1230:1 1238:1 1240:1 1242:3
-1 166:1 178:1 314:1 347:1 508:1 509:1 823:1 910:1 976:1 1117:1 1119:1 1162:1 1215:1 1218:1 1221:1 1222:1 1224:1 1230:1 1232:1 1235:1 1238:1 1242:2 1244:1
-1 166:1 508:1 710:1 1081:1 1117:1 1119:1 1162:1 1218:1 1221:1 1222:1 1232:1 1235:1 1242:3
-1 1117:1 1119:1 1162:1 1218:1 1221:1 1222:1 1242:5
-1 138:1 166:1 347:1 358:1 508:1 509:1 578:1 910:1 1119:1 1162:1 1218:1 1222:1 1224:1 1230:1 1232:1 1233:1 1235:1 1238:1 1242:2
-1 166:1 178:1 903:1 1119:1 1162:1 1215:1 1218:1 1222:1 1232:1 1242:2
-1 178:1 508:1 910:1 943:1 1119:1 1162:1 1215:1 1218:1 1222:1 1230:1 1235:1 1242:2
-1 166:1 178:2 347:2 421:1 508:1 509:3 578:1 820:1 910:2 970:1 1068:1 1119:2 1162:6 1183:1 1215:2 1218:6 1220:1 1222:2 1224:2 1225:1 1230:2 1232:1 1233:1 1235:1 1238:3 1242:5
-1 823:1 910:1 946:1 1117:1 1162:1 1218:1 1221:1 1230:1 1242:2
-1 232:1 347:1 407:1 449:1 462:1 509:1 823:1 910:1 1117:1 1119:1 1162:1 1218:1 1221:1 1222:1 1224:1 1230:1 1238:1 1242:2
-1 928:1 1240:1 1242:3
-1 284:1 1117:2 1162:1 1218:1 1221:2 1242:2
-1 928:1 1240:1 1242:3
-1 928:1 1240:1 1242:3
-1 928:1 1240:1 1242:3
-1 138:1 166:1 178:1 347:1 358:1 508:1 509:1 578:1 910:1 931:1 1119:1 1162:1 1214:1 1215:1 1218:1 1222:1 1224:1 1230:1 1232:1 1233:1 1235:1 1238:1 1242:2
-1 1058:1 1228:1 1242:1
-1 166:1 178:1 233:1 347:1 421:1 508:1 509:1 703:1 820:1 900:1 910:1 963:1 1050:1 1073:1 1119:1 1128:1 1162:1 1215:1 1218:1 1220:1 1222:1 1224:1 1230:1 1232:1 1235:1 1238:1 1242:1 1244:4
-1 508:1 710:1 910:1 1081:1 1119:1 1162:1 1218:1 1222:1 1230:1 1235:1 1242:2
-1 1117:1 1162:1 1218:1 1221:1 1242:3
-1 166:1 178:1 347:1 421:1 508:1 509:3 578:1 820:1 910:2 943:1 1119:2 1162:4 1215:1 1218:4 1220:1 1222:2 1224:1 1230:2 1232:1 1233:1 1235:1 1238:3 1242:6
-1 166:1 178:1 347:1 508:1 509:1 557:1 787:1 820:1 910:1 1119:1 1162:1 1215:1 1218:1 1220:1 1222:1 1224:1 1230:1 1232:1 1235:1 1238:1 1242:1
-1 1171:1 1242:2
-1 166:1 178:1 508:1 509:1 578:1 820:1 910:1 943:1 1073:1 1119:1 1162:1 1215:1 1218:1 1220:1 1222:1 1230:1 1232:1 1233:1 1235:1 1238:1 1242:5
-1 166:1 178:1 347:1 508:1 509:1 910:1 1119:1 1128:1 1162:1 1215:1 1218:1 1222:1 1224:1 1230:1 1232:1 1235:1 1238:1 1242:1
-1 138:1 166:1 178:1 347:1 508:1 509:1 578:1 910:1 1119:1 1128:1 1162:1 1175:1 1215:1 1218:1 1222:1 1224:1 1230:1 1232:1 1233:1 1235:1 1238:1 1242:1
-1 178:1 347:1 508:1 509:1 910:1 1119:1 1128:1 1162:1 1175:1 1215:1 1218:1 1222:1 1224:1 1230:1 1235:1 1238:1 1242:1
-1 457:1 869:1 1162:1 1218:1 1242:1
-1 138:1 166:1 347:1 508:1 509:1 578:1 910:1 1119:1 1128:1 1162:1 1218:1 1222:1 1224:1 1230:1 1232:1 1233:1 1235:1 1238:1 1242:1
-1 178:1 910:1 1119:1 1162:1 1215:1 1218:1 1222:1 1230:1 1242:1
-1 130:1 138:1 178:1 347:1 508:1 509:1 578:1 705:1 910:1 1119:1 1128:1 1162:1 1215:1 1218:1 1222:1 1224:1 1230:1 1233:1 1235:1 1238:1 1242:1
-1 138:1 166:1 178:1 314:1 319:1 347:1 421:1 508:1 509:1 578:1 703:1 888:1 910:1 970:1 976:1 1068:1 1119:1 1128:1 1162:1 1215:1 1218:1 1222:1 1224:1 1225:1 1230:1 1232:1 1233:1 1235:1 1238:1 1242:1
-1 138:1 178:1 347:1 508:1 509:1 578:1 910:1 1119:1 1128:1 1162:1 1215:1 1218:1 1222:1 1224:1 1230:1 1233:1 1235:1 1238:1 1242:1
-1 138:1 166:1 178:1 233:1 347:1 421:1 439:1 508:1 509:1 557:1 578:1 888:1 910:1 1073:1 1119:1 1128:1 1162:1 1215:1 1218:1 1222:1 1224:1 1230:1 1232:1 1233:1 1235:1 1238:1 1242:1
-1 166:1 178:1 508:1 509:1 910:1 1119:1 1128:1 1162:1 1215:1 1218:1 1222:1 1230:1 1232:1 1235:1 1238:1 1242:1
-1 138:1 166:1 347:1 508:1 509:1 578:1 642:1 910:1 1119:1 1128:1 1162:1 1218:1 1222:1 1224:1 1230:1 1232:1 1233:1 1235:1 1238:1 1242:1
-1 166:1 509:1 910:2 1119:2 1162:2 1218:2 1222:2 1230:2 1232:1 1238:1 1242:7
-1 166:1 347:1 508:1 910:1 1117:1 1119:1 1162:1 1218:1 1221:1 1222:1 1224:1 1230:1 1232:1 1235:1 1242:2
-1 166:1 178:1 347:1 400:1 508:1 910:1 1119:1 1162:1 1215:1 1218:1 1222:1 1224:1 1230:1 1232:1 1235:1 1242:1 1244:14
-1 943:1 1162:1 1218:1 1242:2
-1 178:1 347:1 508:1 509:1 820:1 910:1 1101:1 1117:1 1119:1 1162:1 1215:1 1218:1 1220:1 1221:1 1222:1 1224:1 1230:1 1235:1 1238:1 1242:1
-1 166:1 820:1 910:1 1119:1 1162:1 1218:1 1220:1 1222:1 1230:1 1232:1 1242:2
-1 166:1 509:1 910:2 1119:2 1162:2 1218:2 1222:2 1230:2 1232:1 1238:1 1242:7
-1 943:1 1162:1 1218:1 1242:2
-1 128:1 156:1 192:1 348:1 352:1 464:1 516:1 536:1 551:1 623:1 637:1 643:1 657:1 740:1 844:1 848:1 875:1 893:1 1021:1 1105:1 1109:1 1115:1 1117:1 1163:1 1204:1 1221:1 1242:2
-1 943:1 1162:1 1218:1 1242:2
-1 943:1 1162:1 1218:1 1242:2
-1 943:1 1162:1 1218:1 1242:2
-1 943:1 1162:1 1218:1 1242:2
-1 232:1 508:1 509:1 910:1 1119:1 1128:1 1162:1 1218:1 1222:1 1230:1 1235:1 1238:1 1242:1
-1 178:1 910:1 1050:1 1119:1 1162:1 1215:1 1218:1 1222:1 1230:1 1242:1
-1 138:1 178:1 347:1 508:1 509:1 578:1 820:1 888:1 910:1 1068:1 1119:1 1128:1 1162:1 1215:1 1218:1 1220:1 1222:1 1224:1 1230:1 1233:1 1235:1 1238:1 1242:1
-1 166:1 178:1 275:1 347:1 508:1 509:1 578:1 872:1 910:1 1068:1 1117:1 1119:1 1162:1 1215:1 1218:1 1221:1 1222:1 1224:1 1230:1 1232:1 1233:1 1235:1 1238:1 1242:1
-1 281:1 347:1 508:1 509:1 578:1 910:1 1119:1 1162:1 1218:1 1222:1 1224:1 1230:1 1233:1 1235:1 1238:1 1242:1
-1 928:1 1240:1 1242:3
-1 928:1 1240:1 1242:3
-1 138:1 178:1 347:1 508:1 509:1 578:1 910:1 1119:1 1128:1 1162:1 1215:1 1218:1 1222:1 1224:1 1230:1 1233:1 1235:1 1238:1 1242:1
-1 192:1 233:1 307:1 419:1 440:1 551:1 740:1 821:1 823:1 884:1 893:1 910:1 1109:1 1117:1 1119:1 1162:1 1163:1 1186:1 1218:1 1221:1 1222:1 1230:1 1242:2
-1 178:1 1117:1 1119:1 1128:1 1162:1 1215:1 1218:1 1221:1 1222:1 1242:2
-1 1058:1 1228:1 1242:1
-1 166:1 872:1 910:1 1117:1 1119:1 1162:1 1218:1 1221:1 1222:1 1230:1 1232:1 1242:1
-1 928:1 1240:1 1242:3
-1 1119:1 1162:1 1218:1 1222:1 1242:2
-1 166:1 178:1 347:1 508:1 509:1 578:1 703:1 910:1 970:1 1119:1 1128:1 1162:1 1215:1 1218:1 1222:1 1224:1 1225:1 1230:1 1232:1 1233:1 1235:1 1238:1 1242:1
-1 170:1 347:1 508:1 711:1 1119:1 1162:1 1218:1 1222:1 1224:1 1235:1 1242:2
-1 170:1 347:1 508:1 711:1 1119:1 1162:1 1218:1 1222:1 1224:1 1235:1 1242:2
-1 170:1 347:1 508:1 711:1 1119:1 1162:1 1218:1 1222:1 1224:1 1235:1 1242:2
-1 170:1 347:1 508:1 711:1 1119:1 1162:1 1218:1 1222:1 1224:1 1235:1 1242:2
-1 121:1 710:1 1081:1 1162:1 1218:1 1242:3
-1 720:1 1162:1 1218:1 1242:2
-1 928:1 1240:1 1242:4
-1 166:1 178:1 347:1 508:1 820:1 910:1 1119:1 1162:1 1215:1 1218:1 1220:1 1222:1 1224:1 1230:1 1232:1 1235:1 1242:3
-1 928:1 1240:1 1242:4
-1 1058:1 1228:1 1242:1
-1 238:1 241:1 288:1 347:1 400:1 403:1 496:1 545:1 629:1 650:1 855:1 910:1 1080:1 1093:1 1162:1 1191:1 1210:1 1217:1 1218:1 1219:1 1223:1 1224:1 1227:1 1230:1 1234:1 1237:1 1241:1 1242:3 1244:8
-1 199:1 347:1 508:1 509:1 645:1 910:1 1119:1 1162:1 1210:1 1218:1 1222:1 1224:1 1230:1 1235:1 1238:1 1242:1 1244:4
-1 1058:1 1228:1 1242:1
-1 331:1 472:1 663:1 1066:1 1162:1 1218:1 1242:3
-1 1117:1 1162:1 1218:1 1221:1 1242:3
-1 166:1 178:2 347:1 421:1 508:1 509:3 578:1 820:1 910:2 1119:2 1162:4 1215:2 1218:4 1220:1 1222:2 1224:1 1230:2 1232:1 1233:1 1235:1 1238:3 1242:6
-1 166:1 167:1 178:1 347:1 508:1 820:1 910:1 1101:1 1117:1 1119:1 1162:1 1192:1 1215:1 1218:1 1220:1 1221:1 1222:1 1224:1 1230:1 1232:1 1235:1 1242:2
-1 557:1 651:1 823:1 910:1 1117:1 1119:1 1162:1 1218:1 1221:1 1222:1 1230:1 1236:1 1242:3
-1 509:1 910:2 1119:2 1162:2 1218:2 1222:2 1230:2 1238:1 1242:7
-1 146:1 156:1 176:1 178:1 187:1 192:1 193:1 251:1 265:1 308:1 314:1 330:1 348:1 352:1 383:1 401:1 407:1 416:1 426:1 449:1 464:1 500:1 501:1 508:1 509:1 510:1 516:1 522:1 551:1 554:1 557:1 612:1 617:1 623:1 639:1 684:1 697:1 713:1 740:1 741:1 785:1 823:1 837:1 844:1 848:1 875:1 884:1 893:1 905:1 975:1 976:1 978:1 980:1 983:1 999:1 1021:1 1025:1 1050:1 1083:1 1085:1 1090:1 1094:1 1106:1 1109:1 1115:1 1117:1 1119:1 1128:1 1151:1 1162:1 1163:1 1204:1 1209:1 1215:1 1218:1 1221:1 1222:1 1235:1 1238:1 1242:2
-1 121:1 421:1 508:1 710:1 910:1 1081:1 1119:1 1162:1 1218:1 1222:1 1230:1 1235:1 1242:2
-1 928:1 1240:1 1242:3
-1 928:1 1240:1 1242:2
-1 928:1 1240:1 1242:3
-1 928:1 1240:1 1242:4
-1 928:1 1240:1 1242:2
-1 178:1 347:1 781:1 910:1 1117:1 1119:1 1128:1 1162:1 1215:1 1218:1 1221:1 1222:1 1224:1 1230:1 1242:2
-1 166:1 192:1 551:1 651:1 740:1 1109:1 1117:1 1119:1 1162:1 1163:1 1218:1 1221:1 1222:1 1232:1 1236:1 1242:2
-1 185:1 421:1 1119:1 1162:1 1218:1 1222:1 1242:2
-1 178:1 282:1 347:1 508:1 509:1 599:1 781:1 883:1 910:1 947:1 975:1 1117:1 1119:1 1128:1 1162:1 1215:1 1218:1 1221:1 1222:1 1224:1 1230:1 1235:1 1238:1 1242:1
-1 233:1 1117:1 1119:1 1162:1 1218:1 1221:1 1222:1 1242:5 1244:7
-1 928:1 1240:1 1242:4
-1 903:1 1162:1 1218:1 1242:3
-1 1162:1 1218:1 1242:2
-1 200:1 303:1 508:1 681:1 710:1 1081:1 1117:1 1119:1 1162:1 1218:1 1221:1 1222:1 1235:1 1242:2
-1 928:1 1240:1 1242:3
-1 928:1 1240:1 1242:3
-1 1119:1 1162:1 1218:1 1222:1 1242:4
-1 233:1 1053:1 1117:2 1162:1 1218:1 1221:2 1242:2
-1 1117:2 1162:1 1218:1 1221:2 1242:2
-1 166:1 178:1 347:1 508:1 578:1 1117:1 1119:1 1128:1 1162:1 1215:1 1218:1 1221:1 1222:1 1224:1 1232:1 1233:1 1235:1 1242:2
-1 578:1 1117:1 1119:1 1162:1 1218:1 1221:1 1222:1 1233:1 1242:2
-1 578:1 1117:1 1119:1 1162:1 1218:1 1221:1 1222:1 1233:1 1242:2
-1 508:1 578:1 1117:1 1119:1 1162:1 1218:1 1221:1 1222:1 1233:1 1235:1 1242:2
-1 823:1 866:1 1117:1 1162:1 1218:1 1221:1 1242:2
-1 820:1 943:1 1117:2 1162:1 1218:1 1220:1 1221:2 1242:5
-1 928:1 1240:1 1242:3
-1 166:1 178:1 232:1 233:1 347:1 509:1 578:1 718:1 820:1 831:1 910:1 911:1 1041:1 1042:1 1050:1 1119:1 1128:1 1162:1 1215:1 1218:1 1220:1 1222:1 1224:1 1230:1 1231:1 1232:1 1233:1 1238:1 1242:2
-1 178:1 347:1 509:1 1117:1 1119:1 1162:1 1215:1 1218:1 1221:1 1222:1 1224:1 1238:1 1242:3
-1 943:1 1117:2 1162:1 1218:1 1221:2 1242:3
-1 1119:1 1162:1 1164:1 1218:1 1222:1 1242:3
-1 185:1 255:1 943:1 1117:2 1119:1 1162:1 1218:1 1221:2 1222:1 1242:3
-1 185:1 539:1 1117:2 1162:1 1218:1 1221:2 1242:2
-1 1162:1 1218:1 1242:1
-1 126:1 166:1 178:1 347:1 509:1 910:1 1117:1 1119:1 1162:1 1215:1 1218:1 1221:1 1222:1 1224:1 1230:1 1232:1 1238:1 1242:1
-1 1058:1 1228:1 1242:1
-1 928:1 1240:1 1242:3
-1 178:1 238:1 347:1 401:1 403:1 496:1 508:1 509:1 548:1 629:1 650:1 696:1 820:1 855:1 910:1 931:1 1080:1 1119:1 1128:1 1162:1 1191:1 1214:1 1215:1 1218:1 1219:1 1220:1 1222:1 1223:1 1224:1 1227:1 1230:1 1234:1 1235:1 1237:1 1238:1 1241:1 1242:2
-1 178:1 331:1 459:1 472:1 1117:1 1119:1 1162:1 1215:1 1218:1 1221:1 1222:1 1242:4
-1 166:1 347:1 508:1 703:1 823:1 928:1 976:1 1117:1 1119:1 1128:1 1162:1 1218:1 1221:1 1222:1 1224:1 1232:1 1235:1 1240:1 1242:3
-1 928:1 1240:1 1242:3
-1 166:1 178:1 347:1 508:1 509:1 578:1 910:1 943:1 1117:1 1119:1 1162:1 1215:1 1218:1 1221:1 1222:1 1224:1 1230:1 1232:1 1233:1 1235:1 1238:1 1242:4
-1 928:1 1240:1 1242:3
-1 138:1 166:1 178:1 233:1 347:1 358:1 421:1 508:1 509:1 578:1 910:1 977:1 1119:1 1128:1 1162:1 1215:1 1218:1 1222:1 1224:1 1230:1 1232:1 1233:1 1235:1 1238:1 1242:2
-1 903:1 1119:1 1162:1 1218:1 1222:1 1242:3
-1 178:1 233:1 347:1 508:1 509:1 803:1 910:1 1119:1 1128:1 1162:1 1215:1 1218:1 1222:1 1224:1 1230:1 1235:1 1238:1 1242:4
-1 166:1 178:1 347:1 508:1 910:1 1119:1 1162:1 1215:1 1218:1 1222:1 1224:1 1230:1 1232:1 1235:1 1242:2
-1 166:1 178:1 233:1 314:1 347:1 421:1 440:1 508:1 509:1 578:1 592:1 803:1 910:1 943:1 1016:1 1117:1 1119:1 1162:1 1215:1 1218:1 1221:1 1222:1 1224:1 1230:1 1232:1 1233:1 1235:1 1238:1 1242:5
-1 233:1 820:1 910:1 1119:1 1162:1 1218:1 1220:1 1222:1 1230:1 1242:1
-1 166:1 178:1 233:1 347:1 508:1 509:1 703:1 820:1 910:1 1073:1 1119:1 1128:1 1162:1 1215:1 1218:1 1220:1 1222:1 1224:1 1230:1 1232:1 1235:1 1238:1 1242:2
-1 166:1 178:1 345:1 347:1 508:1 509:3 578:1 710:1 820:1 864:1 910:2 1000:1 1081:1 1119:2 1162:5 1215:1 1218:5 1220:1 1222:2 1224:1 1230:2 1232:1 1233:1 1235:1 1238:3 1242:6
-1 823:1 866:1 1117:1 1162:1 1218:1 1221:1 1242:2
-1 178:1 1117:1 1119:1 1162:1 1215:1 1218:1 1221:1 1222:1 1242:3
-1 162:1 192:1 348:1 448:1 516:1 540:1 551:1 617:1 657:1 712:1 740:1 823:1 844:1 848:1 875:1 893:1 1021:1 1077:1 1109:1 1117:1 1163:1 1221:1 1242:2
-1 166:1 347:1 508:1 910:1 1119:1 1162:1 1218:1 1222:1 1224:1 1230:1 1232:1 1235:1 1242:1 1244:5
-1 192:1 233:1 348:1 413:1 516:1 551:1 617:1 657:1 740:1 844:1 893:1 999:1 1109:1 1115:1 1117:1 1163:1 1221:1 1242:2
-1 178:1 910:1 1117:1 1119:1 1162:1 1215:1 1218:1 1221:1 1222:1 1230:1 1242:3
-1 238:1 403:1 496:1 629:1 650:1 827:1 855:1 910:1 1080:1 1123:1 1162:1 1191:1 1218:1 1219:1 1223:1 1227:1 1230:1 1234:1 1237:1 1241:1 1242:4 1244:36
-1 166:1 178:1 509:1 1117:1 1119:1 1162:1 1215:1 1218:1 1221:1 1222:1 1232:1 1238:1 1242:4
-1 192:1 551:1 740:1 893:1 975:1 1109:1 1117:1 1162:1 1163:1 1218:1 1221:1 1242:3
-1 928:1 1240:1 1242:3
-1 1117:2 1162:1 1218:1 1221:2 1242:2
-1 347:1 557:1 1117:1 1119:1 1162:1 1218:1 1221:1 1222:1 1224:1 1242:2
-1 178:1 347:1 508:1 910:1 976:1 1119:1 1162:1 1215:1 1218:1 1222:1 1224:1 1230:1 1235:1 1242:2
-1 178:1 347:1 508:1 509:1 910:1 1119:1 1162:1 1215:1 1218:1 1222:1 1224:1 1230:1 1235:1 1238:1 1242:2
-1 178:1 347:1 508:1 509:1 910:1 1119:1 1162:1 1215:1 1218:1 1222:1 1224:1 1230:1 1235:1 1238:1 1242:2
-1 1162:1 1218:1 1242:3
-1 166:1 178:1 347:1 499:1 508:1 509:1 703:1 823:1 910:1 976:1 1117:1 1119:1 1128:1 1162:1 1215:1 1218:1 1221:1 1222:1 1224:1 1230:1 1232:1 1235:1 1238:1 1242:1
-1 1058:1 1228:1 1242:1
-1 347:1 509:1 820:1 1119:1 1162:1 1218:1 1220:1 1222:1 1224:1 1238:1 1242:2
-1 192:1 348:1 464:1 516:1 551:1 587:1 617:1 629:1 650:1 657:1 661:1 740:1 844:1 848:1 894:1 999:1 1090:1 1109:1 1115:1 1163:1 1223:1 1234:1 1242:1
-1 274:1 347:1 509:1 910:1 1101:1 1117:1 1119:1 1162:1 1218:1 1221:1 1222:1 1224:1 1230:1 1238:1 1242:2 1244:5
-1 166:1 347:1 508:1 509:1 820:1 910:1 1119:1 1162:1 1218:1 1220:1 1222:1 1224:1 1230:1 1232:1 1235:1 1238:1 1242:5
-1 178:1 421:1 508:1 1117:2 1119:1 1162:1 1215:1 1218:1 1221:2 1222:1 1235:1 1242:2 1244:116
-1 421:1 820:1 1117:1 1119:1 1162:1 1218:1 1220:1 1221:1 1222:1 1242:3
-1 166:1 509:1 910:2 1119:2 1162:2 1218:2 1222:2 1230:2 1232:1 1238:1 1242:7
-1 166:1 178:1 347:1 508:1 820:1 910:1 1119:1 1162:1 1215:1 1218:1 1220:1 1222:1 1224:1 1230:1 1232:1 1235:1 1242:3
-1 178:1 192:1 407:1 426:1 449:1 509:1 551:1 557:1 740:1 823:1 893:1 910:1 1109:1 1117:1 1162:1 1163:1 1215:1 1218:1 1221:1 1230:1 1238:1 1242:2
-1 192:1 347:1 348:1 426:1 464:1 551:1 740:1 848:1 893:1 1109:1 1117:1 1119:1 1162:1 1163:1 1218:1 1221:1 1222:1 1224:1 1242:3
-1 823:1 1117:1 1162:1 1218:1 1221:1 1242:1
-1 166:1 508:1 509:2 578:1 710:3 820:1 910:2 1081:2 1119:2 1162:4 1218:4 1220:1 1222:2 1230:2 1232:1 1233:1 1235:1 1238:2 1242:6
-1 192:1 348:1 426:1 464:1 508:1 551:1 578:1 740:1 893:1 910:1 1109:1 1117:1 1119:1 1128:1 1162:1 1163:1 1218:1 1221:1 1222:1 1230:1 1233:1 1235:1 1242:3
-1 233:1 820:1 823:1 1117:1 1119:1 1128:1 1162:1 1218:1 1220:1 1221:1 1222:1 1242:2
-1 140:1 166:1 172:1 178:1 233:1 347:1 421:1 508:1 509:1 578:1 707:1 732:1 910:1 931:1 943:1 982:1 1034:1 1119:1 1128:1 1162:1 1214:1 1215:1 1218:1 1222:1 1224:1 1230:1 1232:1 1233:1 1235:1 1238:1 1242:2 1244:368
-1 421:1 508:1 820:1 1119:1 1162:1 1218:1 1220:1 1222:1 1235:1 1242:2
-1 625:1 659:1 1242:2
-1 178:1 1117:2 1162:1 1215:1 1218:1 1221:2 1242:2
-1 233:1 1162:1 1218:1 1242:2
-1 1162:1 1218:1 1242:2
-1 166:1 347:1 508:1 509:3 566:1 578:1 820:1 910:2 1119:2 1162:5 1218:5 1220:1 1222:2 1224:1 1230:2 1232:1 1233:1 1235:1 1238:3 1242:6
-1 508:1 578:1 910:1 1119:1 1162:1 1218:1 1222:1 1230:1 1233:1 1235:1 1242:4
-1 166:1 178:1 233:1 347:1 508:1 578:1 1066:1 1119:1 1162:1 1215:1 1218:1 1222:1 1224:1 1232:1 1233:1 1235:1 1242:2
-1 423:1 1066:1 1162:1 1218:1 1242:2
-1 423:1 1066:1 1162:1 1218:1 1242:2
-1 1162:1 1218:1 1242:3
-1 423:1 710:1 773:1 1081:1 1117:2 1162:1 1218:1 1221:2 1242:2
-1 166:1 174:1 178:1 198:1 208:1 222:1 232:1 347:1 421:1 462:1 508:1 509:1 703:1 823:1 888:1 910:1 1117:1 1119:1 1128:1 1147:1 1162:1 1215:1 1218:1 1221:1 1222:1 1224:1 1230:1 1232:1 1235:1 1238:1 1242:2
-1 166:1 178:1 194:1 232:1 233:1 347:1 421:1 440:1 508:1 509:1 557:1 578:1 831:1 910:1 931:1 993:1 1119:1 1128:1 1162:1 1214:1 1215:1 1218:1 1222:1 1224:1 1230:1 1232:1 1233:1 1235:1 1238:1 1242:3
-1 166:1 178:1 347:1 421:1 440:1 508:1 509:1 557:1 578:1 831:1 910:1 931:1 993:1 1119:1 1162:1 1214:1 1215:1 1218:1 1222:1 1224:1 1230:1 1232:1 1233:1 1235:1 1238:1 1242:2
-1 171:1 525:1 1117:1 1119:1 1162:1 1218:1 1221:1 1222:1 1242:7
-1 178:1 421:1 508:1 578:1 710:1 1081:1 1117:2 1119:1 1162:1 1215:1 1218:1 1221:2 1222:1 1233:1 1235:1 1242:2 1244:112
-1 166:1 178:1 347:1 508:1 509:2 578:1 820:1 910:2 1119:3 1162:5 1215:1 1218:5 1220:1 1222:3 1224:1 1230:2 1232:1 1233:1 1235:1 1238:2 1242:6
-1 166:1 509:1 910:3 1119:2 1162:4 1218:4 1222:2 1230:3 1232:1 1238:1 1242:4
-1 132:1 178:1 524:1 759:1 943:1 1117:2 1119:1 1162:1 1215:1 1218:1 1221:2 1222:1 1242:2
-1 910:1 1117:2 1162:1 1218:1 1221:2 1230:1 1242:3
-1 233:1 281:1 422:1 910:1 1073:1 1162:1 1218:1 1230:1 1242:2
-1 167:1 178:1 564:1 598:1 710:1 1081:1 1117:1 1162:1 1215:1 1218:1 1221:1 1242:2
-1 166:1 394:1 426:1 866:1 910:1 1117:1 1119:1 1162:1 1218:1 1221:1 1222:1 1230:1 1232:1 1242:2
-1 1058:1 1228:1 1242:1
-1 166:1 178:1 233:1 347:1 413:1 508:1 557:1 578:1 803:1 910:1 1117:1 1119:1 1128:1 1162:1 1215:1 1218:1 1221:1 1222:1 1224:1 1230:1 1232:1 1233:1 1235:1 1242:1
-1 156:1 162:1 192:1 265:1 348:1 426:1 448:1 500:1 516:1 551:1 585:1 617:1 623:1 639:1 643:1 657:1 740:1 795:1 823:1 844:1 848:1 875:1 893:1 999:1 1090:1 1109:1 1115:1 1117:1 1130:1 1151:1 1163:1 1204:1 1221:1 1242:2
-1 233:1 1117:1 1119:1 1162:1 1218:1 1221:1 1222:1 1242:2
-1 658:1 858:1 967:1 1162:1 1184:1 1198:1 1218:1 1242:3
-1 820:1 943:1 1117:2 1162:1 1218:1 1220:1 1221:2 1242:4
-1 192:1 233:1 265:1 348:1 413:1 516:1 551:1 617:1 623:1 643:1 657:1 740:1 823:1 844:1 848:1 884:1 893:1 999:1 1109:1 1115:1 1117:1 1163:1 1221:1 1242:1
-1 508:1 1119:1 1162:1 1218:1 1222:1 1235:1 1242:2
-1 421:1 508:1 578:1 1119:1 1162:1 1218:1 1222:1 1233:1 1235:1 1242:2
-1 388:1 508:1 578:1 710:1 1081:1 1119:1 1162:1 1218:1 1222:1 1233:1 1235:1 1242:2
-1 138:1 166:1 178:1 347:1 440:1 508:1 509:1 570:1 578:1 910:1 925:1 1119:1 1128:1 1162:1 1215:1 1218:1 1222:1 1224:1 1230:1 1232:1 1233:1 1235:1 1238:1 1242:2
-1 138:1 166:1 178:1 347:1 508:1 509:1 578:1 910:1 1119:1 1128:1 1162:1 1215:1 1218:1 1222:1 1224:1 1230:1 1232:1 1233:1 1235:1 1238:1 1242:1
-1 138:1 166:1 178:1 236:1 347:1 364:1 508:1 509:1 578:1 910:1 925:1 1119:1 1128:1 1162:1 1215:1 1218:1 1222:1 1224:1 1230:1 1232:1 1233:1 1235:1 1238:1 1242:1
-1 138:1 166:1 178:1 236:1 347:1 364:1 508:1 509:1 578:1 664:1 910:1 925:1 940:1 1059:1 1119:1 1128:1 1162:1 1175:1 1215:1 1218:1 1222:1 1224:1 1230:1 1232:1 1233:1 1235:1 1238:1 1242:1 1244:21
-1 138:1 166:1 178:1 347:1 508:1 509:1 578:1 910:1 929:1 1119:1 1128:1 1162:1 1215:1 1218:1 1222:1 1224:1 1230:1 1232:1 1233:1 1235:1 1238:1 1242:1
-1 138:1 166:1 347:1 508:1 509:1 578:1 664:1 910:1 1119:1 1128:1 1162:1 1218:1 1222:1 1224:1 1230:1 1232:1 1233:1 1235:1 1238:1 1242:1
-1 166:1 509:1 910:2 1119:2 1162:2 1218:2 1222:2 1230:2 1232:1 1238:1 1242:7
-1 166:1 178:1 426:1 508:1 626:1 910:1 1117:1 1119:1 1162:1 1215:1 1218:1 1221:1 1222:1 1230:1 1232:1 1235:1 1242:2 1244:39
-1 166:1 178:1 626:1 910:1 1117:1 1119:1 1162:1 1215:1 1218:1 1221:1 1222:1 1230:1 1232:1 1242:2 1244:39
-1 166:1 509:1 910:2 1119:2 1162:2 1218:2 1222:2 1230:2 1232:1 1238:1 1242:6
-1 178:1 508:1 578:1 872:1 910:1 1117:1 1119:1 1162:1 1215:1 1218:1 1221:1 1222:1 1230:1 1233:1 1235:1 1242:1
-1 117:1 178:1 314:1 347:1 433:1 508:1 509:1 557:1 820:1 823:1 910:1 957:1 1117:1 1119:1 1128:1 1162:1 1215:1 1218:1 1220:1 1221:1 1222:1 1224:1 1226:1 1230:1 1235:1 1238:1 1242:2
-1 648:1 910:1 1117:1 1162:1 1218:1 1221:1 1230:1 1242:2
-1 1066:1 1119:1 1158:1 1162:1 1218:1 1222:1 1242:2
-1 1117:2 1162:1 1218:1 1221:2 1242:2
-1 166:1 178:1 347:1 508:1 820:1 910:1 1119:1 1162:1 1215:1 1218:1 1220:1 1222:1 1224:1 1230:1 1232:1 1235:1 1242:3
-1 192:1 347:1 407:1 449:1 464:1 509:1 551:1 557:1 629:1 661:1 740:1 780:1 860:1 894:1 910:1 1047:1 1109:1 1162:1 1163:1 1218:1 1223:1 1224:1 1230:1 1238:1 1242:1
-1 303:1 497:1 508:1 710:1 1081:1 1117:2 1119:1 1162:1 1218:1 1221:2 1222:1 1235:1 1242:2
-1 158:1 178:1 233:1 347:1 421:1 508:1 509:1 710:1 820:1 910:1 943:1 1068:1 1092:1 1119:1 1128:1 1162:1 1215:1 1218:1 1220:1 1222:1 1224:1 1230:1 1235:1 1238:1 1242:2 1244:5
-1 178:1 910:1 1117:1 1119:1 1162:1 1215:1 1218:1 1221:1 1222:1 1230:1 1242:3
-1 1058:1 1228:1 1242:1
-1 303:1 508:1 710:1 1081:1 1117:2 1119:1 1162:1 1218:1 1221:2 1222:1 1235:1 1242:2
-1 166:1 178:1 187:1 192:1 212:1 241:1 282:1 333:1 401:1 407:1 426:1 449:1 464:1 508:1 509:1 551:1 557:1 599:1 629:1 650:1 661:1 703:1 740:1 822:1 823:1 842:1 893:1 894:1 909:1 910:1 966:1 976:1 1083:1 1109:1 1119:1 1126:1 1128:1 1162:1 1163:1 1165:1 1215:1 1218:1 1222:1 1223:1 1230:1 1232:1 1234:1 1235:1 1238:1 1242:2
-1 166:1 178:1 347:1 508:1 509:2 761:1 820:1 910:2 970:1 1119:2 1162:5 1215:1 1218:5 1220:1 1222:2 1224:1 1225:1 1230:2 1232:1 1235:1 1238:2 1242:6
-1 166:1 198:1 578:1 1117:1 1119:1 1162:1 1218:1 1221:1 1222:1 1232:1 1233:1 1242:1
-1 928:1 1240:1 1242:3
-1 928:1 1240:1 1242:2
-1 166:1 178:1 347:1 508:1 820:1 910:1 1119:1 1162:1 1215:1 1218:1 1220:1 1222:1 1224:1 1230:1 1232:1 1235:1 1242:3
-1 347:1 439:1 509:1 557:1 823:1 910:1 1117:1 1162:1 1218:1 1221:1 1224:1 1230:1 1238:1 1242:2
-1 1058:1 1228:1 1242:1
-1 167:1 240:1 242:1 1101:1 1117:1 1119:1 1162:1 1218:1 1221:1 1222:1 1242:2
-1 1117:1 1162:1 1218:1 1221:1 1242:6
-1 1117:2 1162:1 1218:1 1221:2 1242:2
-1 1117:1 1162:1 1218:1 1221:1 1242:5
-1 1117:2 1162:1 1218:1 1221:2 1242:3
-1 200:1 233:1 910:1 1117:2 1119:1 1162:1 1218:1 1221:2 1222:1 1230:1 1242:4
-1 233:1 1117:2 1162:1 1218:1 1221:2 1242:4
-1 793:1 1117:1 1141:1 1162:1 1218:1 1221:1 1242:3
-1 138:1 166:1 178:1 347:1 358:1 421:1 508:1 509:1 578:1 711:1 910:1 1119:1 1128:1 1162:1 1215:1 1218:1 1222:1 1224:1 1230:1 1232:1 1233:1 1235:1 1238:1 1242:2
-1 166:1 178:1 347:1 508:1 509:1 578:1 820:1 910:1 970:1 1119:1 1162:1 1215:1 1218:1 1220:1 1222:1 1224:1 1225:1 1230:1 1232:1 1233:1 1235:1 1238:1 1242:5
-1 166:1 178:1 508:1 509:1 820:1 910:1 1119:1 1162:1 1215:1 1218:1 1220:1 1222:1 1230:1 1232:1 1235:1 1238:1 1242:4
-1 166:1 178:1 347:1 421:1 440:1 508:1 509:1 578:1 820:1 910:1 970:1 1119:1 1162:1 1215:1 1218:1 1220:1 1222:1 1224:1 1225:1 1230:1 1232:1 1233:1 1235:1 1238:1 1242:5
-1 166:1 178:1 347:1 508:1 509:1 578:1 737:1 910:1 1117:2 1119:1 1162:1 1215:1 1218:1 1221:2 1222:1 1224:1 1230:1 1232:1 1233:1 1235:1 1238:1 1242:4
-1 347:1 1162:1 1218:1 1224:1 1242:2
-1 365:1 429:1 511:1 604:1 672:1 680:1 700:1 924:1 1122:1 1162:1 1196:1 1218:1 1242:1 1244:75
-1 192:1 206:1 234:1 263:1 264:1 265:1 314:1 319:1 348:1 426:1 509:1 516:1 540:1 551:1 557:1 617:1 623:1 697:1 740:1 755:1 785:1 821:1 822:1 823:1 844:1 848:1 867:1 875:1 893:1 985:1 999:1 1109:1 1115:1 1117:1 1163:1 1221:1 1238:1 1242:2
-1 1162:1 1218:1 1242:2
-1 735:1 764:1 942:1 1119:1 1162:1 1218:1 1222:1 1242:3
-1 166:1 178:1 347:1 508:1 820:1 910:1 1119:1 1162:1 1215:1 1218:1 1220:1 1222:1 1224:1 1230:1 1232:1 1235:1 1242:2
-1 1117:1 1162:1 1218:1 1221:1 1242:1
-1 928:1 1240:1 1242:3
-1 138:1 166:1 347:1 358:1 508:1 509:1 578:1 910:1 1119:1 1162:1 1218:1 1222:1 1224:1 1230:1 1232:1 1233:1 1235:1 1238:1 1242:2
-1 223:1 281:1 347:1 703:1 1119:1 1162:1 1218:1 1222:1 1224:1 1242:1
-1 1119:1 1162:1 1218:1 1222:1 1242:3
-1 192:1 233:1 253:1 307:1 367:1 419:1 426:1 440:1 509:1 551:1 712:1 740:1 821:1 823:1 884:1 893:1 1109:1 1115:1 1117:1 1119:1 1162:1 1163:1 1186:1 1218:1 1221:1 1222:1 1238:1 1242:2
-1 910:1 943:1 1119:1 1162:1 1218:1 1222:1 1230:1 1242:2
-1 1162:1 1218:1 1242:2
-1 1117:2 1162:1 1218:1 1221:2 1242:2
-1 928:1 1240:1 1242:3
-1 353:1 423:1 468:1 710:1 791:1 1033:1 1045:1 1121:1 1162:1 1218:1 1242:2
-1 166:1 178:1 508:1 578:1 910:1 1068:1 1117:1 1119:1 1162:1 1215:1 1218:1 1221:1 1222:1 1230:1 1232:1 1233:1 1235:1 1242:4
-1 166:1 178:1 347:1 508:1 820:1 910:1 1119:1 1162:1 1215:1 1218:1 1220:1 1222:1 1224:1 1230:1 1232:1 1235:1 1242:3
-1 209:1 235:1 280:1 339:1 369:1 411:1 445:1 473:1 535:1 708:1 745:1 752:1 762:1 789:1 859:1 878:1 968:1 974:1 1061:1 1117:1 1118:1 1119:1 1141:1 1162:1 1180:1 1188:1 1218:1 1221:1 1222:1 1242:6
-1 209:1 235:1 280:1 339:1 369:1 445:1 473:1 708:1 745:1 752:1 762:1 789:1 859:1 968:1 974:1 1061:1 1117:1 1118:1 1119:1 1141:1 1162:1 1180:1 1188:1 1218:1 1221:1 1222:1 1242:6
-1 166:1 178:1 347:1 508:1 820:1 910:1 1119:1 1162:1 1215:1 1218:1 1220:1 1222:1 1224:1 1230:1 1232:1 1235:1 1242:3
-1 166:1 509:1 910:2 1119:2 1162:2 1218:2 1222:2 1230:2 1232:1 1238:1 1242:7
-1 928:1 1240:1 1242:4
-1 170:1 198:1 347:1 421:1 508:1 665:1 1117:1 1119:1 1162:1 1218:1 1221:1 1222:1 1224:1 1235:1 1242:4
-1 166:1 178:1 347:1 508:1 820:1 910:1 1119:1 1162:1 1215:1 1218:1 1220:1 1222:1 1224:1 1230:1 1232:1 1235:1 1242:3
-1 388:1 423:1 457:1 681:1 710:1 746:1 773:1 869:1 950:1 1069:1 1081:1 1162:1 1218:1 1242:1
-1 1117:2 1162:1 1218:1 1221:2 1242:5 1244:73
-1 166:1 421:1 508:1 710:1 943:1 1119:1 1162:1 1218:1 1222:1 1232:1 1235:1 1242:2
-1 390:1 508:1 710:1 735:1 764:1 942:1 1081:1 1119:1 1162:1 1218:1 1222:1 1235:1 1242:2
-1 122:1 1162:1 1218:1 1242:2
-1 121:1 347:1 368:1 710:1 868:1 1081:1 1119:1 1162:1 1218:1 1222:1 1224:1 1242:3
-1 1117:1 1162:1 1218:1 1221:1 1242:2
-1 928:1 1240:1 1242:3
-1 166:1 509:1 910:2 1119:2 1162:2 1218:2 1222:2 1230:2 1232:1 1238:1 1242:7
-1 1171:1 1242:1
-1 178:1 508:1 910:1 1119:1 1162:1 1215:1 1218:1 1222:1 1230:1 1235:1 1242:3
-1 166:1 178:1 508:1 578:1 645:1 825:1 881:1 970:1 1119:1 1162:1 1215:1 1218:1 1222:1 1225:1 1232:1 1233:1 1235:1 1242:1
-1 178:1 347:1 557:1 592:1 820:1 910:1 1050:1 1119:1 1128:1 1162:1 1215:1 1218:1 1220:1 1222:1 1224:1 1230:1 1242:1
-1 1128:1 1162:1 1218:1 1242:1
-1 178:1 347:1 1119:1 1128:1 1162:1 1215:1 1218:1 1222:1 1224:1 1242:3
-1 1058:1 1228:1 1242:1
-1 166:1 178:2 185:1 421:1 492:1 508:1 509:2 578:1 820:1 910:2 1119:2 1162:4 1215:2 1218:4 1220:1 1222:2 1230:2 1232:1 1233:1 1235:1 1238:2 1242:6
-1 192:1 233:1 253:1 330:1 348:1 419:1 426:1 440:1 462:1 509:1 516:1 551:1 603:1 657:1 740:1 806:1 821:1 830:1 844:1 884:1 893:1 910:1 999:1 1109:1 1117:1 1119:1 1162:1 1163:1 1186:1 1218:1 1221:1 1222:1 1230:1 1238:1 1242:1
-1 1117:1 1119:1 1162:1 1218:1 1221:1 1222:1 1242:5
-1 192:1 265:1 348:1 464:1 551:1 617:1 740:1 823:1 844:1 848:1 893:1 999:1 1090:1 1109:1 1115:1 1117:1 1119:1 1163:1 1177:1 1221:1 1222:1 1242:1
-1 166:1 178:2 185:1 347:5 492:1 508:1 509:3 578:1 820:1 910:2 1119:2 1162:4 1215:2 1218:4 1220:1 1222:2 1224:5 1230:2 1232:1 1233:1 1235:1 1238:3 1242:7
-1 166:1 178:1 347:1 459:1 508:1 509:1 578:1 710:1 910:1 1117:2 1119:1 1162:1 1215:1 1218:1 1221:2 1222:1 1224:1 1230:1 1232:1 1233:1 1235:1 1238:1 1242:2
-1 192:1 551:1 677:1 740:1 823:1 910:1 1050:1 1109:1 1117:1 1119:1 1162:1 1163:1 1168:1 1218:1 1221:1 1222:1 1230:1 1242:1
-1 166:1 178:1 233:1 910:1 1119:1 1128:1 1162:1 1215:1 1218:1 1222:1 1230:1 1232:1 1242:2
-1 928:1 1240:1 1242:3
-1 121:1 166:1 178:1 421:1 423:1 508:1 663:1 710:1 902:1 1066:1 1069:1 1081:1 1119:1 1162:1 1215:1 1218:1 1222:1 1232:1 1235:1 1242:2
-1 166:1 178:1 347:1 508:1 509:1 578:1 820:1 910:1 1000:1 1101:1 1117:1 1119:1 1162:1 1215:1 1218:1 1220:1 1221:1 1222:1 1224:1 1230:1 1232:1 1233:1 1235:1 1238:1 1242:1
-1 331:1 472:1 763:1 1117:1 1162:1 1218:1 1221:1 1242:3
-1 138:1 166:1 178:1 215:1 233:1 347:1 421:1 508:1 509:1 578:1 703:1 724:1 820:1 888:1 910:1 970:1 1000:1 1068:1 1119:1 1128:1 1162:1 1215:1 1218:1 1220:1 1222:1 1224:1 1225:1 1230:1 1232:1 1233:1 1235:1 1238:1 1242:4
-1 331:1 459:1 472:1 529:1 1117:1 1162:1 1218:1 1221:1 1242:4
-1 1162:1 1218:1 1242:1
-1 508:1 1119:1 1162:1 1218:1 1222:1 1235:1 1242:1
-1 178:1 457:1 508:1 509:1 748:1 869:1 910:1 1119:1 1162:1 1215:1 1218:1 1222:1 1230:1 1235:1 1238:1 1242:1
-1 166:1 509:1 910:2 1119:2 1162:2 1218:2 1222:2 1230:2 1232:1 1238:1 1242:7
-1 178:1 232:1 347:1 508:1 509:1 645:1 651:1 703:1 730:1 767:1 881:1 910:1 970:1 976:1 1068:1 1119:1 1128:1 1162:1 1215:1 1218:1 1222:1 1224:1 1225:1 1230:1 1235:1 1236:1 1238:1 1242:1 1244:44
-1 178:1 347:1 508:1 509:1 557:1 645:1 767:1 910:1 1119:1 1128:1 1162:1 1215:1 1218:1 1222:1 1224:1 1230:1 1235:1 1238:1 1242:2 1244:1
-1 166:1 178:1 192:1 426:1 551:1 740:1 893:1 910:1 1068:1 1109:1 1117:1 1119:1 1128:1 1162:1 1163:1 1215:1 1218:1 1221:1 1222:1 1230:1 1232:1 1242:2
-1 167:1 178:1 421:1 508:1 598:1 710:1 910:1 1081:1 1101:1 1117:1 1119:1 1162:1 1215:1 1218:1 1221:1 1222:1 1230:1 1235:1 1242:2 1244:92
-1 166:1 178:1 347:1 508:1 509:1 820:1 1119:1 1162:1 1215:1 1218:1 1220:1 1222:1 1224:1 1232:1 1235:1 1238:1 1242:5
-1 928:1 1240:1 1242:4
-1 1117:2 1141:1 1162:1 1218:1 1221:2 1242:3
-1 1117:2 1141:1 1162:1 1218:1 1221:2 1242:3
-1 178:1 508:1 910:1 1119:1 1162:1 1215:1 1218:1 1222:1 1230:1 1235:1 1242:2
-1 331:1 357:1 459:1 466:1 472:1 749:1 1117:2 1162:1 1218:1 1221:2 1242:2
-1 209:1 793:1 878:1 1117:1 1141:1 1162:1 1218:1 1221:1 1242:3 1244:6
-1 445:1 878:1 1117:1 1162:1 1218:1 1221:1 1242:3
-1 166:1 347:1 508:1 509:3 578:1 820:1 910:2 970:1 1119:2 1162:6 1218:6 1220:1 1222:2 1224:1 1225:1 1230:2 1232:1 1233:1 1235:1 1238:3 1242:6
-1 808:1 919:1 998:1 1117:1 1162:1 1218:1 1221:1 1242:3
-1 928:1 1240:1 1242:3
-1 166:1 178:1 347:2 440:1 508:1 509:2 578:1 815:1 820:1 910:2 970:1 1119:2 1143:1 1162:4 1183:1 1215:1 1218:4 1220:1 1222:2 1224:2 1225:1 1230:2 1232:1 1233:1 1235:1 1238:2 1242:5
-1 928:1 1240:1 1242:4
-1 166:1 178:1 295:1 508:1 663:1 902:1 910:1 1066:1 1119:1 1162:1 1215:1 1218:1 1222:1 1230:1 1232:1 1235:1 1242:2
-1 166:1 178:1 347:1 508:1 578:1 820:1 910:1 943:1 1117:1 1119:1 1162:1 1215:1 1218:1 1220:1 1221:1 1222:1 1224:1 1230:1 1232:1 1233:1 1235:1 1242:4
-1 166:1 178:1 347:1 508:1 820:1 910:1 1119:1 1162:1 1215:1 1218:1 1220:1 1222:1 1224:1 1230:1 1232:1 1235:1 1242:3
-1 1162:1 1218:1 1242:3
-1 138:1 166:1 178:1 347:1 421:1 508:1 578:1 910:1 943:1 1119:1 1162:1 1215:1 1218:1 1222:1 1224:1 1230:1 1232:1 1233:1 1235:1 1242:2
-1 1162:1 1218:1 1242:3 1244:1
-1 178:1 508:1 910:1 1119:1 1162:1 1215:1 1218:1 1222:1 1230:1 1235:1 1242:2
-1 823:1 1117:1 1162:1 1218:1 1221:1 1242:2
-1 1162:1 1218:1 1242:1
-1 928:1 1240:1 1242:3
-1 166:1 174:1 178:1 198:1 208:1 222:1 232:1 347:1 421:1 462:1 508:1 509:1 703:1 823:1 888:1 910:1 1117:1 1119:1 1128:1 1147:1 1162:1 1215:1 1218:1 1221:1 1222:1 1224:1 1230:1 1232:1 1235:1 1238:1 1242:2
-1 928:1 1240:1 1242:3
-1 928:1 1240:1 1242:3
-1 928:1 1240:1 1242:3
-1 166:1 178:1 347:1 508:1 820:1 910:1 1119:1 1162:1 1215:1 1218:1 1220:1 1222:1 1224:1 1230:1 1232:1 1235:1 1242:2
-1 1117:1 1162:1 1218:1 1221:1 1242:2
-1 166:1 178:1 347:1 359:1 508:1 509:1 823:1 910:1 1117:1 1119:1 1128:1 1162:1 1215:1 1218:1 1221:1 1222:1 1224:1 1230:1 1232:1 1235:1 1238:1 1242:2
-1 645:1 1162:1 1218:1 1242:2
-1 347:1 1132:1 1162:1 1218:1 1224:1 1242:2
-1 910:1 1117:1 1162:1 1218:1 1221:1 1230:1 1242:2
-1 166:1 178:1 508:1 578:1 910:1 1117:2 1119:1 1162:1 1215:1 1218:1 1221:2 1222:1 1230:1 1232:1 1233:1 1235:1 1242:3
-1 166:1 1117:1 1119:1 1162:1 1218:1 1221:1 1222:1 1232:1 1242:2
-1 928:1 1240:1 1242:4
-1 166:1 178:1 347:1 508:1 509:1 820:1 910:1 1119:1 1162:1 1215:1 1218:1 1220:1 1222:1 1224:1 1230:1 1232:1 1235:1 1238:1 1242:2
-1 943:1 1117:2 1162:1 1218:1 1221:2 1242:3
-1 943:1 1117:2 1162:1 1218:1 1221:2 1242:3
-1 166:1 178:1 508:1 787:1 910:1 1119:1 1162:1 1215:1 1218:1 1222:1 1230:1 1232:1 1235:1 1242:3
-1 1058:1 1228:1 1242:1
-1 166:1 178:1 347:1 508:1 509:3 578:1 820:1 910:2 943:1 1119:2 1162:4 1215:1 1218:4 1220:1 1222:2 1224:1 1230:2 1232:1 1233:1 1235:1 1238:3 1242:6
-1 192:1 233:1 348:1 413:1 516:1 551:1 617:1 657:1 740:1 844:1 893:1 999:1 1109:1 1115:1 1117:1 1163:1 1221:1 1242:2
-1 284:1 1117:1 1162:1 1218:1 1221:1 1242:2
-1 347:1 509:1 1162:1 1218:1 1224:1 1238:1 1242:1
-1 178:1 347:1 462:1 509:1 703:1 820:1 831:1 910:1 1119:1 1128:1 1162:1 1215:1 1218:1 1220:1 1222:1 1224:1 1230:1 1238:1 1242:1
-1 138:1 166:1 178:1 347:1 508:1 509:1 578:1 910:1 1119:1 1128:1 1162:1 1215:1 1218:1 1222:1 1224:1 1230:1 1232:1 1233:1 1235:1 1238:1 1242:2
-1 178:1 910:1 1119:1 1162:1 1215:1 1218:1 1222:1 1230:1 1242:1
-1 508:1 509:1 910:1 1119:1 1128:1 1162:1 1218:1 1222:1 1230:1 1235:1 1238:1 1242:1
-1 928:1 1240:1 1242:3
-1 508:1 910:1 1119:1 1162:1 1218:1 1222:1 1230:1 1235:1 1242:2 1244:2
-1 666:1 702:1 721:1 924:1 1162:1 1218:1 1242:3 1244:1
-1 911:1 1117:1 1162:1 1218:1 1221:1 1231:1 1242:1
-1 1117:1 1162:1 1218:1 1221:1 1242:1
-1 178:1 426:1 910:1 1117:1 1162:1 1215:1 1218:1 1221:1 1230:1 1242:1
-1 820:1 1119:1 1162:1 1218:1 1220:1 1222:1 1242:5 1244:1
-1 1162:1 1218:1 1242:2
-1 192:1 348:1 478:1 516:1 551:1 617:1 657:1 740:1 823:1 844:1 848:1 893:1 999:1 1048:1 1090:1 1109:1 1115:1 1117:1 1151:1 1163:1 1177:1 1221:1 1242:1
-1 928:1 1240:1 1242:3
-1 347:1 439:1 509:1 910:1 1050:1 1119:1 1162:1 1218:1 1222:1 1224:1 1230:1 1238:1 1242:1
-1 192:1 263:1 265:1 383:1 551:1 639:1 740:1 893:1 953:1 995:1 1109:1 1117:1 1163:1 1221:1 1239:1 1242:1
-1 192:1 265:1 426:1 537:1 551:1 740:1 848:1 893:1 1109:1 1117:1 1163:1 1221:1 1242:2
-1 928:1 1240:1 1242:3
-1 928:1 1240:1 1242:2
-1 186:1 1037:1 1162:1 1184:1 1218:1 1242:2
-1 138:1 166:1 178:1 347:1 358:1 508:1 509:1 578:1 910:1 1119:1 1162:1 1215:1 1218:1 1222:1 1224:1 1230:1 1232:1 1233:1 1235:1 1238:1 1242:2
-1 178:1 910:1 1117:1 1119:1 1162:1 1215:1 1218:1 1221:1 1222:1 1230:1 1242:1
-1 178:1 266:1 314:1 347:1 509:1 592:1 765:1 781:1 820:1 883:1 891:1 910:1 931:1 1117:1 1119:1 1128:1 1162:1 1214:1 1215:1 1218:1 1220:1 1221:1 1222:1 1224:1 1230:1 1238:1 1242:1
-1 166:1 347:1 509:1 888:1 928:1 1117:1 1119:1 1162:1 1218:1 1221:1 1222:1 1224:1 1232:1 1238:1 1240:1 1242:4
-1 347:1 509:1 868:1 910:1 1119:1 1162:1 1218:1 1222:1 1224:1 1230:1 1238:1 1242:3
-1 347:1 509:1 1066:1 1162:1 1218:1 1224:1 1238:1 1242:2
-1 319:1 347:1 509:1 557:1 589:1 781:1 883:1 910:1 1117:1 1119:1 1162:1 1218:1 1221:1 1222:1 1224:1 1230:1 1238:1 1242:2
-1 347:1 781:1 931:1 1117:1 1119:1 1162:1 1214:1 1218:1 1221:1 1222:1 1224:1 1242:2
-1 147:1 181:1 205:1 226:1 326:1 361:1 370:1 386:1 402:1 505:1 564:1 619:1 685:1 688:1 706:1 890:1 986:1 1133:1 1159:1 1162:1 1201:1 1218:1 1242:2 1244:427
-1 178:1 426:1 509:1 910:1 1117:1 1119:1 1128:1 1162:1 1215:1 1218:1 1221:1 1222:1 1230:1 1238:1 1242:1 1244:66
-1 405:1 616:1 781:1 910:1 1046:1 1117:1 1126:1 1162:1 1218:1 1221:1 1230:1 1242:3
-1 166:1 508:1 578:1 820:1 910:1 981:1 1117:1 1119:1 1162:1 1218:1 1220:1 1221:1 1222:1 1230:1 1232:1 1233:1 1235:1 1242:2
-1 166:1 178:1 508:1 910:1 1119:1 1162:1 1184:1 1215:1 1218:1 1222:1 1230:1 1232:1 1235:1 1242:3
-1 178:1 327:1 347:1 391:1 509:1 667:1 698:1 910:1 1117:1 1119:1 1162:1 1215:1 1218:1 1221:1 1222:1 1224:1 1230:1 1238:1 1242:2
-1 633:1 1162:1 1218:1 1242:2
-1 136:1 347:1 509:1 693:1 910:1 928:1 1119:1 1162:1 1218:1 1222:1 1224:1 1230:1 1238:1 1240:1 1242:1
-1 138:1 166:1 178:1 347:1 508:1 509:1 578:1 703:1 910:1 1119:1 1128:1 1162:1 1215:1 1218:1 1222:1 1224:1 1230:1 1232:1 1233:1 1235:1 1238:1 1242:1
-1 388:1 423:1 457:1 681:1 710:1 773:1 869:1 950:1 1081:1 1162:1 1218:1 1242:1
-1 928:1 1240:1 1242:3
-1 166:1 178:1 347:1 508:1 820:1 910:1 1119:1 1162:1 1215:1 1218:1 1220:1 1222:1 1224:1 1230:1 1232:1 1235:1 1242:3
-1 166:1 178:1 347:1 509:1 1117:1 1119:1 1128:1 1139:1 1162:1 1215:1 1218:1 1221:1 1222:1 1224:1 1232:1 1238:1 1242:3
-1 166:1 178:1 347:1 508:1 509:2 910:2 1119:2 1162:3 1215:1 1218:3 1222:2 1224:1 1230:2 1232:1 1235:1 1238:2 1242:6
-1 166:1 178:1 347:1 508:1 578:1 910:1 1068:1 1117:1 1119:1 1128:1 1162:1 1215:1 1218:1 1221:1 1222:1 1224:1 1230:1 1232:1 1233:1 1235:1 1242:1
-1 928:1 1240:1 1242:2
-1 178:1 192:1 193:1 215:1 251:1 265:1 348:1 352:1 426:1 464:1 501:1 509:1 516:1 551:1 605:1 617:1 623:1 639:1 643:1 740:1 741:1 785:1 821:1 822:1 823:1 830:1 844:1 848:1 875:1 893:1 910:1 975:1 999:1 1021:1 1090:1 1109:1 1115:1 1117:1 1119:1 1128:1 1162:1 1163:1 1177:1 1204:1 1215:1 1218:1 1221:1 1222:1 1230:1 1238:1 1242:2
-1 178:1 218:1 347:1 508:1 509:1 910:1 1117:1 1119:1 1162:1 1215:1 1218:1 1221:1 1222:1 1224:1 1230:1 1235:1 1238:1 1242:2
-1 166:1 178:1 347:1 910:1 1117:1 1162:1 1215:1 1218:1 1221:1 1224:1 1230:1 1232:1 1242:1
-1 347:1 508:1 512:1 910:1 1117:1 1119:1 1162:1 1218:1 1221:1 1222:1 1224:1 1230:1 1235:1 1242:1
-1 166:1 178:1 347:1 509:1 910:1 1117:1 1119:1 1128:1 1162:1 1215:1 1218:1 1221:1 1222:1 1224:1 1230:1 1232:1 1238:1 1242:2
-1 166:1 178:1 192:1 314:1 319:1 347:1 348:1 426:1 508:1 509:1 551:1 651:1 740:1 741:1 893:1 910:1 975:1 976:1 999:1 1109:1 1117:1 1119:1 1128:1 1162:1 1163:1 1215:1 1218:1 1221:1 1222:1 1224:1 1230:1 1232:1 1235:1 1236:1 1238:1 1242:2
-1 166:1 178:2 347:2 508:1 509:3 578:1 820:1 910:2 970:1 1117:1 1119:2 1162:4 1215:2 1218:4 1220:1 1221:1 1222:2 1224:2 1225:1 1230:2 1232:1 1233:1 1235:1 1238:3 1242:5
-1 138:1 166:1 178:1 347:1 421:1 508:1 509:1 578:1 703:1 888:1 910:1 970:1 1068:1 1119:1 1128:1 1162:1 1215:1 1218:1 1222:1 1224:1 1225:1 1230:1 1232:1 1233:1 1235:1 1238:1 1242:1
-1 166:1 178:1 347:1 508:1 509:2 578:1 674:1 820:1 910:2 970:1 1119:2 1162:5 1215:1 1218:5 1220:1 1222:2 1224:1 1225:1 1230:2 1232:1 1233:1 1235:1 1238:2 1242:6
-1 166:1 178:1 192:1 347:1 426:1 508:1 509:1 551:1 557:1 578:1 740:1 741:1 821:1 823:1 830:1 910:1 975:1 1068:1 1109:1 1117:1 1119:1 1128:1 1162:1 1163:1 1215:1 1218:1 1221:1 1222:1 1224:1 1230:1 1232:1 1233:1 1235:1 1238:1 1242:2
-1 178:1 508:1 910:1 1117:1 1119:1 1162:1 1215:1 1218:1 1221:1 1222:1 1230:1 1235:1 1242:1
-1 178:1 192:1 193:1 265:1 347:1 348:1 352:1 426:1 464:1 508:1 516:1 540:1 551:1 617:1 639:1 740:1 823:1 848:1 893:1 1008:1 1021:1 1090:1 1109:1 1115:1 1117:1 1119:1 1163:1 1177:1 1215:1 1221:1 1222:1 1224:1 1235:1 1242:2
-1 178:1 192:1 193:1 265:1 347:1 352:1 478:1 501:1 509:1 551:1 617:1 623:1 643:1 651:1 712:1 740:1 741:1 820:1 822:1 823:1 844:1 867:1 875:1 893:1 910:1 975:1 999:1 1090:1 1109:1 1117:1 1119:1 1128:1 1162:1 1163:1 1177:1 1204:1 1215:1 1218:1 1220:1 1221:1 1222:1 1224:1 1230:1 1236:1 1238:1 1242:2 1244:1
-1 178:1 347:1 872:1 910:1 1117:1 1119:1 1162:1 1215:1 1218:1 1221:1 1222:1 1224:1 1230:1 1242:1
-1 928:1 1240:1 1242:3
-1 192:1 348:1 352:1 383:1 426:1 439:1 464:1 509:1 551:1 557:1 629:1 639:1 661:1 740:1 741:1 823:1 844:1 860:1 894:1 910:1 975:1 995:1 1090:1 1099:1 1109:1 1115:1 1119:1 1162:1 1163:1 1177:1 1218:1 1222:1 1223:1 1230:1 1238:1 1239:1 1242:2
-1 331:1 472:1 763:1 1117:2 1162:1 1218:1 1221:2 1242:2
-1 357:1 472:1 763:1 1117:1 1162:1 1218:1 1221:1 1242:2
-1 331:1 357:1 472:1 763:1 1117:1 1162:1 1218:1 1221:1 1242:2
-1 1072:1 1117:2 1162:1 1166:1 1218:1 1221:2 1242:5
-1 166:1 347:1 508:1 910:1 1068:1 1117:1 1119:1 1162:1 1218:1 1221:1 1222:1 1224:1 1230:1 1232:1 1235:1 1242:1
-1 209:1 411:1 445:1 878:1 879:1 974:1 1117:2 1141:1 1162:1 1218:1 1221:2 1242:2 1244:347
-1 166:1 178:1 347:1 578:1 910:1 1117:1 1119:1 1128:1 1162:1 1215:1 1218:1 1221:1 1222:1 1224:1 1230:1 1232:1 1233:1 1242:1
-1 166:1 178:1 347:1 508:1 578:1 910:1 1068:1 1117:1 1119:1 1162:1 1215:1 1218:1 1221:1 1222:1 1224:1 1230:1 1232:1 1233:1 1235:1 1242:3
-1 166:1 509:1 910:2 1119:2 1162:2 1218:2 1222:2 1230:2 1232:1 1238:1 1242:7
-1 508:1 1117:1 1119:1 1162:1 1218:1 1221:1 1222:1 1235:1 1242:2
-1 178:1 347:1 928:1 1117:1 1119:1 1128:1 1162:1 1215:1 1218:1 1221:1 1222:1 1224:1 1240:1 1242:2
-1 166:1 178:1 439:1 1113:1 1117:1 1162:1 1215:1 1218:1 1221:1 1232:1 1242:2
-1 1058:1 1228:1 1242:1
-1 166:1 178:1 347:1 421:1 508:1 509:1 578:1 820:1 910:1 1119:1 1162:1 1215:1 1218:1 1220:1 1222:1 1224:1 1230:1 1232:1 1233:1 1235:1 1238:1 1242:2
-1 590:1 645:1 1117:1 1162:1 1218:1 1221:1 1242:2
-1 167:1 508:1 710:1 1081:1 1101:1 1117:1 1119:1 1162:1 1218:1 1221:1 1222:1 1235:1 1242:2
-1 166:1 178:1 218:1 347:1 508:1 509:1 820:1 823:1 910:1 976:1 1008:1 1117:1 1119:1 1128:1 1162:1 1215:1 1218:1 1220:1 1221:1 1222:1 1224:1 1230:1 1232:1 1235:1 1238:1 1242:2
-1 1117:2 1162:1 1218:1 1221:2 1242:2
-1 388:1 423:1 457:1 681:1 710:1 746:1 773:1 869:1 950:1 1069:1 1081:1 1162:1 1218:1 1242:2
-1 1119:1 1162:1 1218:1 1222:1 1242:2
-1 178:1 192:1 215:1 347:1 348:1 464:1 509:1 551:1 557:1 661:1 740:1 816:1 875:1 893:1 999:1 1068:1 1109:1 1117:1 1119:1 1128:1 1162:1 1163:1 1215:1 1218:1 1221:1 1222:1 1224:1 1238:1 1242:1
-1 166:1 347:1 508:1 509:1 820:1 888:1 1119:1 1162:1 1218:1 1220:1 1222:1 1224:1 1232:1 1235:1 1238:1 1242:2
-1 166:1 178:1 347:1 508:1 509:1 578:1 888:1 910:1 1119:1 1128:1 1162:1 1215:1 1218:1 1222:1 1224:1 1230:1 1232:1 1233:1 1235:1 1238:1 1242:3
-1 192:1 193:1 251:1 265:1 348:1 352:1 464:1 501:1 551:1 740:1 823:1 844:1 848:1 875:1 893:1 975:1 999:1 1021:1 1090:1 1109:1 1117:1 1163:1 1177:1 1197:1 1204:1 1221:1 1242:2
-1 151:1 162:1 192:1 193:1 263:1 265:1 348:1 352:1 464:1 501:1 516:1 540:1 551:1 617:1 740:1 823:1 844:1 848:1 893:1 975:1 999:1 1021:1 1090:1 1109:1 1117:1 1163:1 1197:1 1221:1 1242:2
-1 166:1 178:1 347:1 508:1 578:1 820:1 910:1 1119:1 1162:1 1215:1 1218:1 1220:1 1222:1 1224:1 1230:1 1232:1 1233:1 1235:1 1242:2
-1 928:1 1240:1 1242:3
-1 928:1 1240:1 1242:3
-1 928:1 1240:1 1242:3
-1 508:1 1119:1 1162:1 1218:1 1222:1 1235:1 1242:3
-1 178:1 508:1 1119:1 1162:1 1215:1 1218:1 1222:1 1235:1 1242:2
-1 166:1 178:1 347:1 508:1 820:1 910:1 1119:1 1162:1 1215:1 1218:1 1220:1 1222:1 1224:1 1230:1 1232:1 1235:1 1242:2
-1 166:1 178:1 347:1 508:1 820:1 910:1 1119:1 1162:1 1215:1 1218:1 1220:1 1222:1 1224:1 1230:1 1232:1 1235:1 1242:3
-1 178:1 347:1 910:1 1119:1 1162:1 1215:1 1218:1 1222:1 1224:1 1230:1 1242:3
-1 928:1 1240:1 1242:2
-1 910:1 1162:1 1218:1 1230:1 1242:1
-1 166:1 508:1 820:1 910:1 1119:1 1162:1 1218:1 1220:1 1222:1 1230:1 1232:1 1235:1 1242:2
-1 166:1 508:1 820:1 910:1 1119:1 1162:1 1218:1 1220:1 1222:1 1230:1 1232:1 1235:1 1242:2
-1 166:1 178:1 347:1 508:1 509:1 557:1 820:1 910:1 1119:1 1162:1 1215:1 1218:1 1220:1 1222:1 1224:1 1230:1 1232:1 1235:1 1238:1 1242:2
-1 166:1 178:1 347:1 508:1 820:1 910:1 1119:1 1162:1 1215:1 1218:1 1220:1 1222:1 1224:1 1230:1 1232:1 1235:1 1242:2
-1 319:1 347:1 508:1 509:1 910:1 1162:1 1218:1 1224:1 1230:1 1235:1 1238:1 1242:3
-1 943:1 1117:2 1162:1 1218:1 1221:2 1242:3
-1 928:1 1240:1 1242:3
-1 928:1 1240:1 1242:3
-1 166:1 509:1 910:2 1119:2 1162:2 1218:2 1222:2 1230:2 1232:1 1238:1 1242:7
-1 156:1 192:1 233:1 265:1 348:1 516:1 541:1 551:1 617:1 657:1 740:1 823:1 844:1 893:1 999:1 1073:1 1090:1 1095:1 1097:1 1102:1 1109:1 1115:1 1117:1 1163:1 1204:1 1221:1 1242:2
-1 166:1 178:1 347:1 509:1 910:1 1119:1 1162:1 1215:1 1218:1 1222:1 1224:1 1230:1 1232:1 1238:1 1242:3
-1 166:1 178:1 508:1 509:2 820:1 910:2 943:1 1119:2 1162:4 1215:1 1218:4 1220:1 1222:2 1230:2 1232:1 1235:1 1238:2 1242:6
-1 166:1 178:1 347:1 508:1 509:1 820:1 910:1 1119:1 1162:1 1215:1 1218:1 1220:1 1222:1 1224:1 1230:1 1232:1 1235:1 1238:1 1242:2
-1 178:1 232:1 233:1 347:1 413:1 421:1 509:1 823:1 872:1 910:1 1117:1 1119:1 1128:1 1162:1 1215:1 1218:1 1221:1 1222:1 1224:1 1230:1 1238:1 1242:1
-1 508:1 710:1 1119:1 1162:1 1218:1 1222:1 1235:1 1242:1
-1 166:1 178:2 347:1 508:1 509:2 578:1 820:1 910:2 1119:2 1162:4 1215:2 1218:4 1220:1 1222:2 1224:1 1230:2 1232:1 1233:1 1235:1 1238:2 1242:6
-1 166:1 508:1 509:2 578:1 820:1 910:2 1119:2 1162:4 1218:4 1220:1 1222:2 1230:2 1232:1 1233:1 1235:1 1238:2 1242:6
-1 166:1 178:1 347:1 508:1 820:1 910:1 1119:1 1162:1 1215:1 1218:1 1220:1 1222:1 1224:1 1230:1 1232:1 1235:1 1242:3
-1 1162:1 1218:1 1242:1
-1 508:1 1119:1 1162:1 1218:1 1222:1 1235:1 1242:3
-1 166:1 178:1 347:1 508:1 820:1 910:1 1119:1 1162:1 1215:1 1218:1 1220:1 1222:1 1224:1 1230:1 1232:1 1235:1 1242:3
-1 166:1 178:1 347:1 508:1 509:1 557:1 787:1 820:1 910:1 1119:1 1162:1 1215:1 1218:1 1220:1 1222:1 1224:1 1230:1 1232:1 1235:1 1238:1 1242:1
-1 509:1 1119:1 1162:1 1218:1 1222:1 1238:1 1242:4
-1 133:1 162:1 192:1 206:1 233:1 332:1 348:1 516:1 551:1 617:1 623:1 657:1 740:1 844:1 848:1 850:1 893:1 999:1 1021:1 1109:1 1117:1 1163:1 1221:1 1242:4
-1 178:1 508:1 1117:1 1119:1 1128:1 1162:1 1215:1 1218:1 1221:1 1222:1 1235:1 1242:3
-1 1117:1 1162:1 1218:1 1221:1 1242:2
-1 166:1 178:2 347:1 440:1 508:1 509:3 578:1 592:5 820:1 910:6 1119:2 1162:5 1215:2 1218:5 1220:1 1222:2 1224:1 1230:6 1232:1 1233:1 1235:1 1238:3 1242:6
-1 166:1 178:1 347:1 508:1 820:1 910:1 1119:1 1162:1 1215:1 1218:1 1220:1 1222:1 1224:1 1230:1 1232:1 1235:1 1242:5
-1 166:1 192:1 426:1 509:1 551:1 661:1 740:1 822:1 875:1 893:1 910:1 976:1 1109:1 1117:1 1119:1 1128:1 1162:1 1163:1 1218:1 1221:1 1222:1 1230:1 1232:1 1238:1 1242:1
-1 166:1 347:1 421:1 508:1 509:1 578:1 820:1 910:2 1119:2 1162:4 1218:4 1220:1 1222:2 1224:1 1230:2 1232:1 1233:1 1235:1 1238:1 1242:6
-1 1162:1 1184:1 1218:1 1242:2
-1 1162:1 1184:1 1218:1 1242:2
-1 166:1 178:1 347:1 508:1 820:1 910:1 1119:1 1162:1 1215:1 1218:1 1220:1 1222:1 1224:1 1230:1 1232:1 1235:1 1242:4
-1 910:1 1119:1 1162:1 1218:1 1222:1 1230:1 1242:3
-1 166:1 178:1 347:1 508:1 509:1 820:1 910:1 1119:1 1162:1 1215:1 1218:1 1220:1 1222:1 1224:1 1230:1 1232:1 1235:1 1238:1 1242:2
-1 166:1 178:1 347:1 508:1 578:1 910:1 1119:1 1162:1 1215:1 1218:1 1222:1 1224:1 1230:1 1232:1 1233:1 1235:1 1242:4
-1 440:1 509:2 910:1 1119:2 1162:4 1218:4 1222:2 1230:1 1238:2 1242:6
-1 166:1 509:1 910:2 1119:2 1162:2 1218:2 1222:2 1230:2 1232:1 1238:1 1242:7
-1 625:1 1071:1 1242:2
-1 625:1 1071:1 1242:2
-1 625:1 1071:1 1242:2
-1 166:1 178:1 233:1 347:1 508:1 578:1 722:1 910:1 1119:1 1162:1 1215:1 1218:1 1222:1 1224:1 1230:1 1232:1 1233:1 1235:1 1242:4
-1 167:1 421:1 508:1 874:1 910:1 1101:1 1117:1 1119:1 1147:1 1162:1 1218:1 1221:1 1222:1 1230:1 1235:1 1242:2
-1 614:1 625:1 1071:1 1242:2
-1 166:1 910:1 1119:1 1162:1 1218:1 1222:1 1230:1 1232:1 1242:1
-1 233:1 910:1 1117:1 1119:1 1162:1 1218:1 1221:1 1222:1 1230:1 1242:4
-1 347:1 509:1 943:1 1119:1 1162:1 1218:1 1222:1 1224:1 1238:1 1242:1
-1 1058:1 1162:1 1218:1 1228:1 1242:4
-1 166:1 509:1 910:2 1119:2 1162:2 1218:2 1222:2 1230:2 1232:1 1238:1 1242:7
-1 178:1 910:1 1117:2 1119:1 1162:1 1215:1 1218:1 1221:2 1222:1 1230:1 1242:4
-1 178:1 508:1 910:1 1119:1 1162:1 1215:1 1218:1 1222:1 1230:1 1235:1 1242:1 1244:26
-1 166:1 509:1 910:2 1119:2 1162:2 1218:2 1222:2 1230:2 1232:1 1238:1 1242:7
-1 347:1 509:1 869:1 910:1 1128:1 1162:1 1218:1 1224:1 1230:1 1238:1 1242:1
-1 138:1 166:1 178:1 347:1 358:1 508:1 509:1 578:1 910:1 1119:1 1162:1 1215:1 1218:1 1222:1 1224:1 1230:1 1232:1 1233:1 1235:1 1238:1 1242:2
-1 178:1 347:1 509:3 910:1 1119:2 1128:1 1162:6 1215:1 1218:6 1222:2 1224:1 1230:1 1238:3 1242:5
-1 166:1 167:1 178:1 208:1 274:1 347:1 508:1 509:1 703:1 823:1 872:1 910:1 976:1 1117:1 1119:1 1128:1 1162:1 1215:1 1218:1 1221:1 1222:1 1224:1 1230:1 1232:1 1235:1 1238:1 1242:1
-1 928:1 1240:1 1242:3
-1 1117:1 1162:1 1218:1 1221:1 1242:3
-1 1117:2 1162:1 1218:1 1221:2 1242:4
-1 138:1 166:1 178:1 347:1 421:1 508:1 509:1 703:1 888:1 910:1 931:1 970:1 976:1 1068:1 1119:1 1128:1 1162:1 1214:1 1215:1 1218:1 1222:1 1224:1 1225:1 1230:1 1232:1 1235:1 1238:1 1242:2
-1 1162:1 1218:1 1242:2
-1 166:1 178:1 233:1 347:1 508:1 509:1 578:1 703:1 910:1 970:1 1119:1 1128:1 1162:1 1215:1 1218:1 1222:1 1224:1 1225:1 1230:1 1232:1 1233:1 1235:1 1238:1 1242:1
-1 910:1 1162:1 1218:1 1230:1 1242:3
-1 910:1 1117:1 1162:1 1218:1 1221:1 1230:1 1242:4
-1 347:1 508:1 655:1 910:1 1119:1 1121:1 1162:1 1218:1 1222:1 1224:1 1230:1 1235:1 1242:3
-1 928:1 1240:1 1242:2
-1 233:1 910:1 1162:1 1218:1 1230:1 1242:2
-1 233:1 910:1 982:1 1162:1 1218:1 1230:1 1242:3
-1 166:1 178:1 347:1 421:1 508:1 578:1 1119:1 1162:1 1215:1 1218:1 1222:1 1224:1 1232:1 1233:1 1235:1 1242:4
-1 928:1 1240:1 1242:4
-1 928:1 1240:1 1242:2
-1 1058:1 1228:1 1242:1
-1 1058:1 1228:1 1242:1
-1 928:1 1240:1 1242:4
-1 557:1 1162:1 1218:1 1242:2 1244:4
-1 1058:1 1228:1 1242:1
-1 166:1 178:1 440:1 508:1 509:2 820:1 910:2 1068:1 1119:2 1162:4 1215:1 1218:4 1220:1 1222:2 1230:2 1232:1 1235:1 1238:2 1242:6
-1 166:1 509:1 910:3 1119:2 1162:4 1218:4 1222:2 1230:3 1232:1 1238:1 1242:4
-1 166:1 509:1 910:3 1119:2 1162:4 1218:4 1222:2 1230:3 1232:1 1238:1 1242:4
-1 928:1 1240:1 1242:2
-1 171:1 178:1 354:1 638:1 1117:1 1148:1 1162:1 1200:1 1215:1 1218:1 1221:1 1242:7
-1 903:1 1162:1 1218:1 1242:3
-1 138:1 166:1 178:2 347:1 421:1 508:1 509:3 578:1 820:1 910:2 943:1 1119:2 1128:1 1162:4 1215:2 1218:4 1220:1 1222:2 1224:1 1230:2 1232:1 1233:1 1235:1 1238:3 1242:6
-1 138:1 166:1 178:1 347:1 508:1 509:1 578:1 910:1 1119:1 1162:1 1215:1 1218:1 1222:1 1224:1 1230:1 1232:1 1233:1 1235:1 1238:1 1242:2
-1 166:1 178:1 347:1 508:1 910:1 1119:1 1162:1 1215:1 1218:1 1222:1 1224:1 1230:1 1232:1 1235:1 1242:2
-1 1162:1 1218:1 1242:2
-1 166:1 178:1 508:1 509:1 578:1 910:1 1119:1 1128:1 1162:1 1215:1 1218:1 1222:1 1230:1 1232:1 1233:1 1235:1 1238:1 1242:1
-1 1162:1 1184:1 1218:1 1242:3
-1 178:1 509:2 910:1 1119:2 1162:4 1215:1 1218:4 1222:2 1230:1 1238:2 1242:6
-1 192:1 348:1 419:1 516:1 551:1 603:1 617:1 657:1 740:1 823:1 844:1 884:1 893:1 910:1 999:1 1109:1 1117:1 1162:1 1163:1 1218:1 1221:1 1230:1 1242:2
-1 508:1 1119:1 1162:1 1218:1 1222:1 1235:1 1242:3 1244:2
-1 423:1 596:1 1119:1 1162:1 1218:1 1222:1 1242:2 1244:35
-1 1162:1 1218:1 1242:3
-1 1058:1 1228:1 1242:1
-1 166:1 178:1 347:1 508:1 820:1 910:1 1119:1 1162:1 1215:1 1218:1 1220:1 1222:1 1224:1 1230:1 1232:1 1235:1 1242:3
-1 192:1 348:1 419:1 516:1 551:1 603:1 657:1 737:1 740:1 823:1 844:1 884:1 893:1 910:1 999:1 1109:1 1117:1 1162:1 1163:1 1186:1 1218:1 1221:1 1230:1 1242:1
-1 166:1 178:2 347:1 421:1 508:1 509:3 578:1 820:1 910:2 1119:2 1162:4 1215:2 1218:4 1220:1 1222:2 1224:1 1230:2 1232:1 1233:1 1235:1 1238:3 1242:6
-1 714:1 869:1 1162:1 1218:1 1242:2
-1 426:1 823:1 910:1 1117:1 1130:1 1162:1 1218:1 1221:1 1230:1 1242:1
-1 166:1 170:1 178:1 285:1 421:1 508:1 910:1 1045:1 1119:1 1121:1 1162:1 1215:1 1218:1 1222:1 1230:1 1232:1 1235:1 1242:2
-1 178:1 421:1 1117:1 1119:1 1162:1 1215:1 1218:1 1221:1 1222:1 1242:2
-1 928:1 1240:1 1242:3
-1 508:1 1119:1 1162:1 1218:1 1222:1 1235:1 1242:2
-1 394:1 823:1 866:1 1117:1 1162:1 1218:1 1221:1 1242:2
-1 233:1 404:1 415:1 910:1 1073:1 1117:1 1162:1 1218:1 1221:1 1230:1 1242:2
-1 928:1 1240:1 1242:4
-1 1162:1 1218:1 1242:4
-1 166:1 178:1 347:1 421:1 508:1 578:1 910:1 943:1 1117:1 1119:1 1162:1 1215:1 1218:1 1221:1 1222:1 1224:1 1230:1 1232:1 1233:1 1235:1 1242:2
-1 192:1 348:1 407:1 426:1 449:1 464:1 509:1 516:1 551:1 740:1 822:1 848:1 893:1 1083:1 1109:1 1117:1 1163:1 1221:1 1238:1 1242:1
-1 928:1 1240:1 1242:3
-1 928:1 1240:1 1242:2
-1 178:1 347:1 421:1 462:1 509:1 820:1 910:1 1050:1 1119:1 1128:1 1162:1 1215:1 1218:1 1220:1 1222:1 1224:1 1230:1 1238:1 1242:1 1244:2
-1 178:1 910:1 1119:1 1162:1 1215:1 1218:1 1222:1 1230:1 1242:3
-1 1058:1 1228:1 1242:1
-1 1058:1 1228:1 1242:1
-1 178:1 192:1 348:1 426:1 551:1 617:1 740:1 893:1 1109:1 1117:1 1163:1 1215:1 1221:1 1242:2
-1 178:1 192:1 407:1 426:1 509:1 551:1 740:1 781:1 823:1 893:1 910:1 1015:1 1109:1 1117:1 1162:1 1163:1 1215:1 1218:1 1221:1 1230:1 1238:1 1242:1
-1 1058:1 1228:1 1242:1
-1 166:1 178:2 347:1 421:1 508:1 509:3 578:1 820:1 910:2 943:1 1073:1 1119:2 1162:7 1215:2 1218:7 1220:1 1222:2 1224:1 1230:2 1232:1 1233:1 1235:1 1238:3 1242:6 1244:1
-1 166:1 178:1 347:1 508:1 509:1 578:1 820:1 903:1 1119:1 1162:1 1215:1 1218:1 1220:1 1222:1 1224:1 1232:1 1233:1 1235:1 1238:1 1242:4
-1 928:1 1240:1 1242:3
-1 1117:1 1119:1 1162:1 1218:1 1221:1 1222:1 1242:5
-1 166:1 178:2 347:2 508:1 509:3 578:1 820:1 910:2 970:1 1119:2 1162:5 1215:2 1218:5 1220:1 1222:2 1224:2 1225:1 1230:2 1232:1 1233:1 1235:1 1238:3 1242:6
-1 1117:2 1162:1 1218:1 1221:2 1242:2
-1 138:1 166:1 178:1 347:1 358:1 421:1 508:1 509:1 578:1 910:1 1119:1 1162:1 1215:1 1218:1 1222:1 1224:1 1230:1 1232:1 1233:1 1235:1 1238:1 1242:2
-1 508:1 578:1 910:1 1119:1 1162:1 1218:1 1222:1 1230:1 1233:1 1235:1 1242:1
-1 162:1 192:1 265:1 348:1 383:1 426:1 464:1 509:1 516:1 551:1 617:1 639:1 740:1 823:1 844:1 848:1 875:1 893:1 953:1 999:1 1021:1 1109:1 1115:1 1117:1 1163:1 1221:1 1238:1 1242:2
-1 928:1 1240:1 1242:3
-1 180:1 329:1 331:1 472:1 710:1 904:1 910:1 1162:1 1218:1 1230:1 1242:3
-1 178:1 310:1 508:1 910:1 931:1 1119:1 1162:1 1214:1 1215:1 1218:1 1222:1 1230:1 1235:1 1242:1
-1 166:1 178:1 347:1 508:1 820:1 910:1 1119:1 1162:1 1215:1 1218:1 1220:1 1222:1 1224:1 1230:1 1232:1 1235:1 1242:3
-1 162:1 192:1 348:1 407:1 426:1 449:1 551:1 575:1 617:1 740:1 841:1 844:1 848:1 875:1 893:1 990:1 1109:1 1115:1 1117:1 1163:1 1221:1 1242:1
-1 156:1 162:1 192:1 206:1 265:1 348:1 414:1 426:1 516:1 540:1 551:1 617:1 651:1 740:1 821:1 822:1 844:1 848:1 875:1 893:1 934:1 999:1 1021:1 1025:1 1109:1 1115:1 1117:1 1163:1 1221:1 1236:1 1242:2
-1 178:1 192:1 407:1 426:1 551:1 740:1 893:1 910:1 1008:1 1083:1 1109:1 1115:1 1117:1 1119:1 1162:1 1163:1 1215:1 1218:1 1221:1 1222:1 1230:1 1242:2
-1 178:1 347:1 645:1 881:1 910:1 993:1 1119:1 1124:1 1162:1 1215:1 1218:1 1222:1 1224:1 1229:1 1230:1 1242:2
-1 943:1 1117:2 1162:1 1218:1 1221:2 1242:3
-1 166:1 347:1 509:1 910:1 1119:1 1128:1 1162:1 1218:1 1222:1 1224:1 1230:1 1232:1 1238:1 1242:1
-1 388:1 423:1 457:1 681:1 710:1 746:1 773:1 869:1 950:1 1069:1 1081:1 1162:1 1218:1 1242:1
-1 178:1 347:1 910:1 1119:1 1128:1 1162:1 1215:1 1218:1 1222:1 1224:1 1230:1 1242:2
-1 303:1 497:1 508:1 710:1 1081:1 1117:2 1119:1 1162:1 1218:1 1221:2 1222:1 1235:1 1242:2
-1 928:1 1240:1 1242:3
-1 508:1 578:1 820:1 910:1 1119:1 1162:1 1218:1 1220:1 1222:1 1230:1 1233:1 1235:1 1242:1
-1 166:1 178:1 233:1 347:1 421:1 508:1 509:1 557:1 703:1 831:1 910:1 931:1 970:1 1073:1 1119:1 1128:1 1162:1 1214:1 1215:1 1218:1 1222:1 1224:1 1225:1 1230:1 1232:1 1235:1 1238:1 1242:1
-1 928:1 1240:1 1242:3
-1 178:1 347:1 439:1 677:1 823:1 910:1 1117:1 1119:1 1162:1 1215:1 1218:1 1221:1 1222:1 1224:1 1230:1 1242:3
-1 178:1 192:1 347:1 352:1 426:1 540:1 551:1 673:1 740:1 823:1 841:1 893:1 910:1 1109:1 1117:1 1119:1 1126:1 1162:1 1163:1 1215:1 1218:1 1221:1 1222:1 1224:1 1230:1 1242:1
-1 137:1 192:1 264:1 551:1 740:1 893:1 1109:1 1117:1 1163:1 1221:1 1242:2
-1 192:1 193:1 348:1 352:1 426:1 449:1 464:1 516:1 540:1 551:1 740:1 750:1 822:1 848:1 893:1 999:1 1047:1 1075:1 1083:1 1109:1 1117:1 1163:1 1221:1 1242:1 1244:2
-1 146:1 162:1 192:1 193:1 251:1 265:1 352:1 407:1 426:1 449:1 464:1 508:1 509:1 516:1 540:1 551:1 555:1 637:1 740:1 780:1 785:1 823:1 848:1 875:1 893:1 910:1 994:1 999:1 1008:1 1068:1 1083:1 1085:1 1106:1 1109:1 1115:1 1117:1 1119:1 1162:1 1163:1 1177:1 1218:1 1221:1 1222:1 1230:1 1235:1 1238:1 1242:3
-1 192:1 265:1 348:1 401:1 407:1 426:1 449:1 508:1 551:1 740:1 785:1 823:1 848:1 875:1 893:1 994:1 1008:1 1083:1 1109:1 1117:1 1119:1 1162:1 1163:1 1218:1 1221:1 1222:1 1235:1 1242:2
-1 192:1 265:1 315:1 348:1 352:1 478:1 516:1 551:1 617:1 647:1 657:1 712:1 740:1 844:1 848:1 867:1 893:1 999:1 1090:1 1109:1 1115:1 1117:1 1163:1 1221:1 1242:2
-1 943:1 1117:2 1162:1 1218:1 1221:2 1242:3
-1 347:1 509:1 910:1 931:1 943:1 1117:1 1119:1 1162:1 1214:1 1218:1 1221:1 1222:1 1224:1 1230:1 1238:1 1242:1
-1 1058:1 1228:1 1242:1
-1 928:1 1240:1 1242:3
-1 928:1 1240:1 1242:3
-1 166:1 178:1 347:2 508:1 509:3 820:1 910:2 1119:2 1162:5 1215:1 1218:5 1220:1 1222:2 1224:2 1230:2 1232:1 1235:1 1238:3 1242:6
-1 192:1 265:1 348:1 362:1 426:1 509:1 516:1 551:1 617:1 639:1 657:1 740:1 821:1 823:1 844:1 848:1 875:1 884:1 893:1 999:1 1048:1 1077:1 1090:1 1109:1 1115:1 1117:1 1128:1 1163:1 1177:1 1204:1 1221:1 1238:1 1242:2
-1 1084:1 1117:1 1119:1 1162:1 1218:1 1221:1 1222:1 1242:2
-1 192:1 426:1 551:1 740:1 893:1 1109:1 1115:1 1117:1 1163:1 1221:1 1242:2
-1 166:1 178:1 347:1 508:1 820:1 910:1 1119:1 1162:1 1215:1 1218:1 1220:1 1222:1 1224:1 1230:1 1232:1 1235:1 1242:3
-1 166:1 178:1 347:1 508:1 578:1 1119:1 1162:1 1215:1 1218:1 1222:1 1224:1 1232:1 1233:1 1235:1 1242:2
-1 689:1 1117:1 1162:1 1218:1 1221:1 1242:3
-1 192:1 347:1 426:1 509:1 551:1 740:1 822:1 823:1 848:1 893:1 1109:1 1117:1 1119:1 1163:1 1221:1 1222:1 1224:1 1238:1 1242:1
-1 166:1 178:1 192:1 306:1 347:1 426:1 464:1 508:1 509:1 551:1 740:1 823:1 910:1 975:1 999:1 1109:1 1115:1 1117:1 1119:1 1128:1 1162:1 1163:1 1215:1 1218:1 1221:1 1222:1 1224:1 1230:1 1232:1 1235:1 1238:1 1242:2
-1 192:1 291:1 449:1 551:1 740:1 823:1 893:1 910:1 1109:1 1117:1 1162:1 1163:1 1218:1 1221:1 1230:1 1242:1
-1 166:1 178:1 347:1 508:1 820:1 910:1 1119:1 1162:1 1215:1 1218:1 1220:1 1222:1 1224:1 1230:1 1232:1 1235:1 1242:3
-1 192:1 193:1 217:1 265:1 267:1 378:1 551:1 557:1 562:1 579:1 607:1 623:1 742:1 823:1 843:1 845:1 848:1 1021:1 1048:1 1109:1 1242:3 1244:4
-1 1119:1 1162:1 1218:1 1222:1 1242:1
-1 166:1 509:1 910:3 1119:2 1162:4 1218:4 1222:2 1230:3 1232:1 1238:1 1242:4
-1 1058:1 1228:1 1242:1
-1 1117:1 1178:1 1221:1 1242:2
-1 1054:1 1117:1 1221:1 1242:2
-1 1117:1 1178:1 1221:1 1242:2
-1 1054:1 1117:1 1221:1 1242:2
-1 1117:1 1162:1 1218:1 1221:1 1242:3
-1 178:1 347:1 508:1 910:1 1119:1 1162:1 1215:1 1218:1 1222:1 1224:1 1230:1 1235:1 1242:2
-1 1058:1 1228:1 1242:1
-1 910:1 1117:1 1119:1 1162:1 1218:1 1221:1 1222:1 1230:1 1242:3
-1 1162:1 1218:1 1242:2
-1 1162:1 1218:1 1242:3
-1 928:1 1240:1 1242:3
-1 1119:1 1162:1 1218:1 1222:1 1242:3 1244:9
-1 178:1 233:1 413:1 421:1 508:1 1119:1 1162:1 1215:1 1218:1 1222:1 1235:1 1242:2
-1 166:1 178:1 347:1 401:1 508:1 509:1 613:1 703:1 823:1 888:1 910:1 1008:1 1117:1 1119:1 1128:1 1162:1 1165:1 1215:1 1218:1 1221:1 1222:1 1224:1 1230:1 1232:1 1235:1 1238:1 1242:2
-1 166:1 174:1 178:1 198:1 208:1 222:1 232:1 347:1 421:1 462:1 508:1 509:1 703:1 823:1 888:1 910:1 1117:1 1119:1 1128:1 1147:1 1162:1 1215:1 1218:1 1221:1 1222:1 1224:1 1230:1 1232:1 1235:1 1238:1 1242:2
-1 1117:2 1162:1 1218:1 1221:2 1242:3
-1 314:1 319:1 347:1 557:1 820:1 910:1 1119:1 1128:1 1162:1 1218:1 1220:1 1222:1 1224:1 1230:1 1242:2
-1 247:1 317:1 651:1 1117:1 1119:1 1162:1 1218:1 1221:1 1222:1 1236:1 1242:1
-1 910:1 1117:2 1119:1 1162:1 1218:1 1221:2 1222:1 1230:1 1242:3
-1 1162:1 1218:1 1242:3
-1 178:1 508:1 578:1 910:1 1117:1 1119:1 1161:1 1162:1 1181:1 1215:1 1218:1 1221:1 1222:1 1230:1 1233:1 1235:1 1242:2
-1 508:1 820:1 1119:1 1162:1 1218:1 1220:1 1222:1 1235:1 1242:2
-1 347:1 509:1 741:1 821:1 893:1 910:1 973:1 999:1 1117:1 1162:1 1194:1 1218:1 1221:1 1224:1 1230:1 1238:1 1242:2
-1 928:1 1240:1 1242:3
-1 166:1 178:1 347:1 508:1 509:3 578:1 820:1 910:2 1119:2 1162:5 1215:1 1218:5 1220:1 1222:2 1224:1 1230:2 1232:1 1233:1 1235:1 1238:3 1242:6
-1 166:1 347:1 508:1 509:3 820:1 910:2 1119:2 1162:4 1218:4 1220:1 1222:2 1224:1 1230:2 1232:1 1235:1 1238:3 1242:6
-1 423:1 943:1 1117:2 1162:1 1218:1 1221:2 1242:2
-1 928:1 1240:1 1242:3
-1 166:1 178:1 347:1 508:1 509:1 578:1 592:1 820:1 910:1 970:1 993:1 1119:1 1128:1 1162:1 1215:1 1218:1 1220:1 1222:1 1224:1 1225:1 1230:1 1232:1 1233:1 1235:1 1238:1 1242:2
-1 508:1 1070:1 1119:1 1162:1 1218:1 1222:1 1235:1 1242:1
-1 138:1 166:1 178:1 347:1 421:1 508:1 509:1 578:1 703:1 710:1 888:1 910:1 970:1 1068:1 1119:1 1128:1 1162:1 1215:1 1218:1 1222:1 1224:1 1225:1 1230:1 1232:1 1233:1 1235:1 1238:1 1242:1 1244:973
-1 138:1 166:1 178:1 347:1 421:1 508:1 509:1 578:1 703:1 710:1 888:1 910:1 970:1 1068:1 1119:1 1128:1 1162:1 1215:1 1218:1 1222:1 1224:1 1225:1 1230:1 1232:1 1233:1 1235:1 1238:1 1242:1 1244:973
-1 928:1 1240:1 1242:4
-1 314:1 319:1 347:1 509:1 677:1 754:1 813:1 823:1 910:1 975:1 1117:1 1128:1 1162:1 1218:1 1221:1 1224:1 1230:1 1238:1 1242:1
-1 166:1 178:1 187:1 192:1 232:1 265:1 347:1 348:1 352:1 383:1 401:1 421:1 426:1 464:1 508:1 509:1 516:1 551:1 557:1 617:1 639:1 661:1 703:1 740:1 780:1 803:1 822:1 823:1 848:1 863:1 875:1 893:1 976:1 1109:1 1115:1 1117:1 1119:1 1128:1 1162:1 1163:1 1215:1 1218:1 1221:1 1222:1 1224:1 1232:1 1235:1 1238:1 1242:1
-1 928:1 1240:1 1242:3
-1 1162:1 1218:1 1242:3
-1 367:1 419:1 823:1 910:1 1162:1 1218:1 1230:1 1242:1
-1 166:1 508:1 820:1 910:1 1119:1 1162:1 1218:1 1220:1 1222:1 1230:1 1232:1 1235:1 1242:2
-1 166:1 509:1 910:2 1119:2 1162:2 1218:2 1222:2 1230:2 1232:1 1238:1 1242:7
-1 1117:2 1162:1 1218:1 1221:2 1242:4
-1 166:1 178:1 347:1 421:1 508:1 509:1 820:1 910:1 1119:1 1162:1 1215:1 1218:1 1220:1 1222:1 1224:1 1230:1 1232:1 1235:1 1238:1 1242:5
-1 192:1 265:1 330:1 348:1 352:1 383:1 464:1 516:1 540:1 551:1 617:1 712:1 740:1 844:1 848:1 893:1 905:1 999:1 1015:1 1021:1 1052:1 1109:1 1117:1 1163:1 1204:1 1221:1 1242:1
-1 166:1 178:1 508:1 1101:1 1117:1 1119:1 1162:1 1215:1 1218:1 1221:1 1222:1 1232:1 1235:1 1242:2
-1 192:1 407:1 426:1 449:1 509:1 551:1 740:1 841:1 893:1 910:1 1109:1 1115:1 1117:1 1162:1 1163:1 1218:1 1221:1 1230:1 1238:1 1242:1
-1 178:1 232:1 314:1 347:1 509:1 557:1 802:1 841:1 910:1 954:1 1050:1 1117:1 1124:1 1162:1 1215:1 1218:1 1221:1 1224:1 1229:1 1230:1 1238:1 1242:1
-1 192:1 551:1 740:1 893:1 945:1 1109:1 1117:1 1163:1 1221:1 1242:1
-1 423:1 1117:2 1162:1 1218:1 1221:2 1242:2
-1 166:1 178:1 347:1 509:1 910:1 1117:1 1119:1 1162:1 1215:1 1218:1 1221:1 1222:1 1224:1 1230:1 1232:1 1238:1 1242:3
-1 166:1 910:1 985:1 1117:1 1119:1 1162:1 1218:1 1221:1 1222:1 1230:1 1232:1 1242:3
-1 928:1 1240:1 1242:3
-1 928:1 1240:1 1242:3
-1 928:1 1240:1 1242:2
-1 928:1 1240:1 1242:2
-1 178:1 1162:1 1215:1 1218:1 1242:1
-1 178:1 314:1 347:1 462:1 508:1 931:1 1119:1 1124:1 1162:1 1214:1 1215:1 1218:1 1222:1 1224:1 1229:1 1235:1 1242:1 1244:2
-1 166:1 508:1 509:2 578:1 910:2 996:1 1119:2 1162:4 1218:4 1222:2 1230:2 1232:1 1233:1 1235:1 1238:2 1242:6
-1 928:1 1240:1 1242:4
-1 928:1 1240:1 1242:2
-1 928:1 1240:1 1242:2
-1 166:1 178:1 347:1 508:1 820:1 910:1 1119:1 1162:1 1215:1 1218:1 1220:1 1222:1 1224:1 1230:1 1232:1 1235:1 1242:2
-1 928:1 1240:1 1242:3
-1 166:1 178:1 508:1 578:1 910:1 1119:1 1162:1 1215:1 1218:1 1222:1 1230:1 1232:1 1233:1 1235:1 1242:1
-1 1242:1
-1 233:1 347:1 421:1 910:1 1117:2 1162:1 1218:1 1221:2 1224:1 1230:1 1242:3
-1 928:1 1240:1 1242:3
-1 1162:1 1184:1 1218:1 1242:2
-1 1162:1 1166:1 1218:1 1242:1
-1 331:1 357:1 472:1 763:1 1117:2 1162:1 1218:1 1221:2 1242:2
-1 1117:1 1221:1 1242:3
-1 162:1 192:1 348:1 383:1 407:1 426:1 449:1 464:1 551:1 617:1 694:1 727:1 740:1 848:1 853:1 893:1 1021:1 1109:1 1117:1 1163:1 1221:1 1242:3
-1 166:1 421:1 508:1 509:1 578:1 910:1 943:1 1119:1 1162:1 1218:1 1222:1 1230:1 1232:1 1233:1 1235:1 1238:1 1242:5
-1 166:1 178:1 347:1 508:1 820:1 910:1 1119:1 1162:1 1215:1 1218:1 1220:1 1222:1 1224:1 1230:1 1232:1 1235:1 1242:2
-1 166:1 178:1 347:1 421:1 508:1 509:1 820:1 910:1 1119:1 1162:1 1215:1 1218:1 1220:1 1222:1 1224:1 1230:1 1232:1 1235:1 1238:1 1242:5
-1 192:1 426:1 449:1 474:1 551:1 740:1 750:1 822:1 823:1 893:1 1047:1 1083:1 1109:1 1117:1 1163:1 1221:1 1242:1 1244:3
-1 319:1 405:1 575:1 635:1 781:1 823:1 910:1 1117:1 1162:1 1218:1 1221:1 1230:1 1242:3
-1 347:1 407:1 449:1 635:1 750:1 910:1 1047:1 1083:1 1117:1 1162:1 1218:1 1221:1 1224:1 1230:1 1242:2
-1 173:1 178:1 347:1 910:1 1117:1 1162:1 1215:1 1218:1 1221:1 1224:1 1230:1 1242:1
-1 928:1 1240:1 1242:2
-1 928:1 1240:1 1242:2
-1 1117:2 1162:1 1218:1 1221:2 1242:2
-1 1117:2 1162:1 1218:1 1221:2 1242:3
-1 1119:1 1162:1 1218:1 1222:1 1242:5
-1 928:1 1240:1 1242:3
-1 1117:2 1162:1 1218:1 1221:2 1242:2
-1 1117:2 1162:1 1218:1 1221:2 1242:2
-1 1117:2 1162:1 1218:1 1221:2 1242:2
-1 233:1 397:1 421:1 1162:1 1218:1 1242:2
-1 166:1 509:1 910:2 1119:2 1162:2 1218:2 1222:2 1230:2 1232:1 1238:1 1242:7
-1 421:1 1058:1 1228:1 1242:1
-1 1117:2 1162:1 1218:1 1221:2 1242:2
-1 166:1 178:1 347:1 421:1 508:1 509:1 578:1 910:1 1012:1 1119:1 1128:1 1162:1 1215:1 1218:1 1222:1 1224:1 1230:1 1232:1 1233:1 1235:1 1238:1 1242:4
-1 421:1 508:1 578:1 1117:1 1119:1 1162:1 1218:1 1221:1 1222:1 1233:1 1235:1 1242:4 1244:112
-1 1117:2 1162:1 1218:1 1221:2 1242:2
-1 166:1 178:1 347:1 508:1 578:1 645:1 881:1 910:1 1119:1 1162:1 1215:1 1218:1 1222:1 1224:1 1230:1 1232:1 1233:1 1235:1 1242:1
-1 1117:2 1162:1 1218:1 1221:2 1242:2
-1 1058:1 1228:1 1242:2
-1 928:1 1240:1 1242:3
-1 928:1 1240:1 1242:2
-1 166:1 178:1 198:1 347:1 421:1 508:1 509:1 910:1 1119:1 1128:1 1162:1 1215:1 1218:1 1222:1 1224:1 1230:1 1232:1 1235:1 1238:1 1242:2
-1 1117:2 1162:1 1218:1 1221:2 1242:2
-1 1117:2 1162:1 1218:1 1221:2 1242:2
-1 1117:2 1162:1 1218:1 1221:2 1242:2
-1 1117:2 1162:1 1218:1 1221:2 1242:2
-1 178:1 347:1 557:1 910:1 1050:1 1117:1 1162:1 1215:1 1218:1 1221:1 1224:1 1230:1 1242:1
-1 178:1 347:1 910:1 946:1 1117:1 1119:1 1128:1 1162:1 1215:1 1218:1 1221:1 1222:1 1224:1 1230:1 1242:1
-1 910:1 912:1 1117:1 1162:1 1218:1 1221:1 1230:1 1242:2
-1 166:1 823:1 910:1 1117:1 1119:1 1162:1 1218:1 1221:1 1222:1 1230:1 1232:1 1242:2
-1 166:1 178:1 216:1 703:1 725:1 872:1 910:1 946:1 1117:1 1119:1 1162:1 1215:1 1218:1 1221:1 1222:1 1230:1 1232:1 1242:2 1244:62
-1 166:1 509:1 910:3 1119:2 1162:4 1218:4 1222:2 1230:3 1232:1 1238:1 1242:5
-1 166:1 174:1 178:1 198:1 208:1 222:1 232:1 347:1 421:1 462:1 508:1 509:1 703:1 823:1 888:1 910:1 1117:1 1119:1 1128:1 1147:1 1162:1 1215:1 1218:1 1221:1 1222:1 1224:1 1230:1 1232:1 1235:1 1238:1 1242:2
-1 1117:2 1119:1 1162:1 1218:1 1221:2 1222:1 1242:2
-1 1117:2 1119:1 1162:1 1218:1 1221:2 1222:1 1242:2
-1 910:1 968:1 1117:2 1119:1 1162:1 1218:1 1221:2 1222:1 1230:1 1242:4
-1 1058:1 1228:1 1242:1
-1 928:1 1240:1 1242:3
-1 178:1 910:1 1119:1 1162:1 1215:1 1218:1 1222:1 1230:1 1242:2
-1 166:1 178:1 508:1 598:1 1101:1 1117:1 1119:1 1162:1 1215:1 1218:1 1221:1 1222:1 1232:1 1235:1 1242:2
-1 166:1 178:1 347:1 508:1 820:1 910:1 1119:1 1162:1 1215:1 1218:1 1220:1 1222:1 1224:1 1230:1 1232:1 1235:1 1242:3
-1 943:1 1117:2 1162:1 1218:1 1221:2 1242:3
-1 1058:1 1228:1 1242:1
-1 1058:1 1228:1 1242:1
-1 928:1 1240:1 1242:2
-1 166:1 178:1 347:1 401:1 508:1 509:1 703:1 820:1 823:1 888:1 910:1 970:1 976:1 1117:1 1119:1 1162:1 1215:1 1218:1 1220:1 1221:1 1222:1 1224:1 1225:1 1230:1 1232:1 1235:1 1238:1 1242:1 1244:1
-1 192:1 407:1 449:1 464:1 551:1 639:1 740:1 893:1 1109:1 1117:1 1163:1 1221:1 1242:3
-1 166:1 178:1 347:1 508:1 910:1 1119:1 1162:1 1215:1 1218:1 1222:1 1224:1 1230:1 1232:1 1235:1 1242:3
-1 166:1 178:1 347:1 508:1 910:1 1119:1 1162:1 1215:1 1218:1 1222:1 1224:1 1230:1 1232:1 1235:1 1242:2
-1 1242:1
-1 166:1 178:1 347:1 508:1 578:1 910:1 1117:1 1119:1 1162:1 1215:1 1218:1 1221:1 1222:1 1224:1 1230:1 1232:1 1233:1 1235:1 1242:2
-1 166:1 178:1 347:1 508:1 820:1 910:1 1119:1 1162:1 1215:1 1218:1 1220:1 1222:1 1224:1 1230:1 1232:1 1235:1 1242:2
-1 1117:2 1162:1 1218:1 1221:2 1242:2
-1 1162:1 1184:1 1218:1 1242:2
-1 928:1 1240:1 1242:4
-1 1162:1 1218:1 1242:2
-1 152:15 186:1 557:1 941:227 1117:2 1162:1 1207:1 1218:1 1221:2 1242:2
-1 1117:2 1162:1 1207:1 1218:1 1221:2 1242:2
-1 166:1 178:1 347:1 508:1 820:1 910:1 1119:1 1162:1 1215:1 1218:1 1220:1 1222:1 1224:1 1230:1 1232:1 1235:1 1242:3
-1 166:1 178:1 347:1 508:1 820:1 910:1 1119:1 1162:1 1215:1 1218:1 1220:1 1222:1 1224:1 1230:1 1232:1 1235:1 1242:3
-1 265:1 347:1 508:1 574:1 823:1 872:1 976:1 994:1 1117:1 1119:1 1128:1 1162:1 1218:1 1221:1 1222:1 1224:1 1235:1 1242:1
-1 347:1 508:1 924:1 1119:1 1162:1 1218:1 1222:1 1224:1 1235:1 1242:1
-1 1162:1 1184:1 1218:1 1242:2
-1 178:1 192:1 265:1 348:1 426:1 464:1 516:1 551:1 740:1 848:1 893:1 910:1 1109:1 1117:1 1119:1 1162:1 1163:1 1215:1 1218:1 1221:1 1222:1 1230:1 1242:4
-1 509:1 1119:1 1162:1 1218:1 1222:1 1238:1 1242:4
-1 192:1 348:1 383:1 426:1 516:1 542:1 551:1 617:1 657:1 740:1 821:1 844:1 893:1 999:1 1109:1 1117:1 1163:1 1221:1 1242:2
-1 992:1 1045:1 1121:1 1162:1 1218:1 1242:2
-1 928:1 1240:1 1242:5
-1 178:1 233:1 578:1 910:1 1117:1 1119:1 1162:1 1215:1 1218:1 1221:1 1222:1 1230:1 1233:1 1242:4
-1 928:1 1240:1 1242:3
-1 1117:1 1162:1 1218:1 1221:1 1242:6
-1 996:1 1162:1 1218:1 1242:4 1244:3
-1 166:1 509:1 910:2 1119:2 1162:2 1218:2 1222:2 1230:2 1232:1 1238:1 1242:7
-1 166:1 178:1 347:1 421:1 508:1 509:1 578:1 888:1 910:1 1119:1 1162:1 1215:1 1218:1 1222:1 1224:1 1230:1 1232:1 1233:1 1235:1 1238:1 1242:2
-1 347:1 421:1 910:1 1119:1 1162:1 1218:1 1222:1 1224:1 1230:1 1242:2
-1 1162:1 1218:1 1242:1
-1 178:1 508:1 910:1 1119:1 1162:1 1215:1 1218:1 1222:1 1230:1 1235:1 1242:2
-1 178:1 508:1 910:1 1119:1 1162:1 1215:1 1218:1 1222:1 1230:1 1235:1 1242:2
-1 166:1 178:1 347:1 508:1 820:1 910:1 1119:1 1162:1 1215:1 1218:1 1220:1 1222:1 1224:1 1230:1 1232:1 1235:1 1242:3
-1 166:1 178:1 347:2 421:1 508:1 509:3 578:1 703:1 820:1 910:2 1119:2 1162:4 1215:1 1218:4 1220:1 1222:2 1224:2 1230:2 1232:1 1233:1 1235:1 1238:3 1242:6
-1 192:1 348:1 516:1 540:1 551:1 617:1 623:1 657:1 712:1 740:1 823:1 844:1 848:1 893:1 999:1 1109:1 1115:1 1117:1 1163:1 1221:1 1242:2
-1 1058:1 1228:1 1242:1
-1 508:1 578:1 820:1 910:1 1119:1 1162:1 1218:1 1220:1 1222:1 1230:1 1233:1 1235:1 1242:1
-1 388:1 423:1 457:1 681:1 710:1 746:1 773:1 869:1 950:1 1069:1 1081:1 1162:1 1218:1 1242:2
-1 423:1 710:1 773:1 1081:1 1117:2 1162:1 1218:1 1221:2 1242:2
-1 178:1 910:1 1117:1 1119:1 1162:1 1215:1 1218:1 1221:1 1222:1 1230:1 1242:3
-1 166:1 508:1 509:2 820:1 910:2 1119:2 1162:5 1218:5 1220:1 1222:2 1230:2 1232:1 1235:1 1238:2 1242:6
-1 166:1 421:1 508:1 509:2 578:1 910:2 1119:2 1162:4 1218:4 1222:2 1230:2 1232:1 1233:1 1235:1 1238:2 1242:6
-1 1162:1 1218:1 1242:2
-1 166:1 178:1 347:1 508:1 820:1 910:1 1119:1 1162:1 1215:1 1218:1 1220:1 1222:1 1224:1 1230:1 1232:1 1235:1 1242:3
-1 166:1 1119:1 1162:1 1218:1 1222:1 1232:1 1242:3
-1 166:1 178:1 347:1 508:1 820:1 910:1 1119:1 1162:1 1215:1 1218:1 1220:1 1222:1 1224:1 1230:1 1232:1 1235:1 1242:3
-1 166:1 178:1 347:1 508:1 820:1 910:1 1119:1 1162:1 1215:1 1218:1 1220:1 1222:1 1224:1 1230:1 1232:1 1235:1 1242:3
-1 166:1 509:1 910:2 1119:2 1162:2 1218:2 1222:2 1230:2 1232:1 1238:1 1242:7
-1 159:1 1162:1 1218:1 1242:2
-1 166:1 178:1 347:1 508:1 820:1 910:1 1119:1 1162:1 1215:1 1218:1 1220:1 1222:1 1224:1 1230:1 1232:1 1235:1 1242:3
-1 166:1 347:1 508:1 509:3 578:1 910:2 1119:2 1162:5 1218:5 1222:2 1224:1 1230:2 1232:1 1233:1 1235:1 1238:3 1242:6
-1 166:1 347:1 508:1 509:1 578:1 820:1 910:2 1119:2 1162:3 1218:3 1220:1 1222:2 1224:1 1230:2 1232:1 1233:1 1235:1 1238:1 1242:6
-1 928:1 1240:1 1242:3
-1 166:1 178:1 347:1 508:1 820:1 910:1 1119:1 1162:1 1215:1 1218:1 1220:1 1222:1 1224:1 1230:1 1232:1 1235:1 1242:3
-1 178:1 347:1 358:1 1101:1 1117:1 1119:1 1162:1 1215:1 1218:1 1221:1 1222:1 1224:1 1242:2
-1 178:1 314:1 347:1 462:1 508:1 931:1 1119:1 1124:1 1162:1 1214:1 1215:1 1218:1 1222:1 1224:1 1229:1 1235:1 1242:3 1244:2
-1 1058:1 1228:1 1242:1
-1 928:1 1240:1 1242:3
-1 928:1 1240:1 1242:3
-1 1117:2 1162:1 1218:1 1221:2 1242:2
-1 166:1 178:1 347:1 508:1 578:1 1119:1 1128:1 1162:1 1215:1 1218:1 1222:1 1224:1 1232:1 1233:1 1235:1 1242:2
-1 1117:1 1162:1 1218:1 1221:1 1242:2
-1 421:1 1117:1 1162:1 1218:1 1221:1 1242:2
-1 166:1 170:1 178:1 290:1 347:1 421:1 440:1 508:1 509:3 578:1 820:1 910:2 1028:1 1119:2 1162:5 1215:1 1218:5 1220:1 1222:2 1224:1 1230:2 1232:1 1233:1 1235:1 1238:3 1242:6
-1 645:1 1119:1 1162:1 1218:1 1222:1 1242:2
-1 192:1 314:1 318:1 319:1 347:1 509:1 551:1 557:1 740:1 821:1 884:1 910:1 1109:1 1117:1 1162:1 1163:1 1218:1 1221:1 1224:1 1230:1 1238:1 1242:2
-1 1117:2 1162:1 1218:1 1221:2 1242:2
-1 166:1 347:1 358:1 421:1 508:1 578:1 910:1 1119:1 1162:1 1218:1 1222:1 1224:1 1230:1 1232:1 1233:1 1235:1 1242:2
-1 166:1 509:1 910:2 1119:2 1162:2 1218:2 1222:2 1230:2 1232:1 1238:1 1242:7
-1 1162:1 1184:1 1218:1 1242:3
-1 928:1 1240:1 1242:4
-1 138:1 170:1 178:1 198:1 233:1 347:1 421:1 508:1 509:1 578:1 820:1 910:1 931:1 1119:1 1128:1 1162:1 1214:1 1215:1 1218:1 1220:1 1222:1 1224:1 1230:1 1233:1 1235:1 1238:1 1242:1
-1 166:1 509:1 910:2 1119:2 1162:2 1218:2 1222:2 1230:2 1232:1 1238:1 1242:7
-1 178:1 233:1 347:1 421:1 508:1 710:1 910:1 1117:2 1119:1 1162:1 1215:1 1218:1 1221:2 1222:1 1224:1 1230:1 1235:1 1242:3
-1 166:1 178:1 508:1 578:1 910:1 1119:1 1162:1 1215:1 1218:1 1222:1 1230:1 1232:1 1233:1 1235:1 1242:2
-1 1058:1 1228:1 1242:1
-1 465:1 1162:1 1218:1 1242:2
-1 192:1 551:1 557:1 740:1 823:1 893:1 910:1 1109:1 1117:1 1162:1 1163:1 1218:1 1221:1 1230:1 1242:3
-1 192:1 318:1 347:1 407:1 449:1 551:1 740:1 821:1 823:1 893:1 910:1 1083:1 1109:1 1117:1 1162:1 1163:1 1218:1 1221:1 1224:1 1230:1 1242:2
-1 166:1 178:1 347:1 508:1 509:3 578:1 820:1 910:2 1119:2 1162:4 1215:1 1218:4 1220:1 1222:2 1224:1 1230:2 1232:1 1233:1 1235:1 1238:3 1242:6
-1 380:1 421:1 1117:2 1119:1 1162:1 1218:1 1221:2 1222:1 1242:2
-1 192:1 233:1 348:1 516:1 551:1 617:1 657:1 740:1 823:1 844:1 893:1 999:1 1109:1 1115:1 1117:1 1163:1 1221:1 1242:2
-1 166:1 508:1 820:1 910:1 1119:1 1162:1 1218:1 1220:1 1222:1 1230:1 1232:1 1235:1 1242:3
-1 166:1 347:1 508:1 509:1 578:1 624:1 888:1 1117:1 1119:1 1162:1 1218:1 1221:1 1222:1 1224:1 1232:1 1233:1 1235:1 1238:1 1242:2
-1 178:1 199:1 508:1 645:1 881:1 970:1 1119:1 1124:1 1162:1 1210:1 1215:1 1218:1 1222:1 1225:1 1229:1 1235:1 1242:2 1244:69
-1 166:1 178:1 192:1 232:1 314:1 318:1 319:1 347:1 348:1 464:1 508:1 509:1 551:1 578:1 661:1 703:1 740:1 820:1 822:1 823:1 875:1 893:1 910:1 931:1 1050:1 1109:1 1117:1 1119:1 1128:1 1162:1 1163:1 1214:1 1215:1 1218:1 1220:1 1221:1 1222:1 1224:1 1230:1 1232:1 1233:1 1235:1 1238:1 1242:1
-1 178:1 192:1 232:1 314:1 318:1 319:1 347:1 348:1 464:1 508:1 509:1 551:1 661:1 703:1 740:1 821:1 822:1 823:1 830:1 875:1 893:1 910:1 1050:1 1109:1 1117:1 1119:1 1128:1 1162:1 1163:1 1215:1 1218:1 1221:1 1222:1 1224:1 1230:1 1235:1 1238:1 1242:1
-1 928:1 1240:1 1242:2
-1 1056:1 1117:1 1162:1 1218:1 1221:1 1242:3
-1 178:1 274:1 426:1 508:1 509:1 820:1 823:1 872:1 910:1 985:1 1117:1 1119:1 1128:1 1162:1 1215:1 1218:1 1220:1 1221:1 1222:1 1230:1 1235:1 1238:1 1242:2 1244:10
-1 313:1 1119:1 1162:1 1218:1 1222:1 1242:2
-1 136:1 347:1 509:1 910:1 928:1 1119:1 1162:1 1218:1 1222:1 1224:1 1230:1 1238:1 1240:1 1242:1
-1 313:1 508:1 1119:1 1162:1 1218:1 1222:1 1235:1 1242:2
-1 192:1 265:1 328:1 416:1 426:1 464:1 516:1 551:1 617:1 740:1 821:1 823:1 844:1 848:1 893:1 999:1 1021:1 1090:1 1109:1 1115:1 1117:1 1162:1 1163:1 1218:1 1221:1 1242:2
-1 166:1 178:1 218:1 274:1 314:1 319:1 347:1 462:1 509:1 557:1 578:1 651:1 823:1 910:1 911:1 976:1 994:1 1008:1 1117:1 1119:1 1128:1 1162:1 1215:1 1218:1 1221:1 1222:1 1224:1 1230:1 1231:1 1232:1 1233:1 1236:1 1238:1 1242:1
-1 313:1 1119:1 1162:1 1218:1 1222:1 1242:2
-1 426:1 1117:1 1162:1 1218:1 1221:1 1242:2
-1 166:1 347:1 578:1 1119:1 1162:1 1218:1 1222:1 1224:1 1232:1 1233:1 1242:3
-1 564:1 1117:1 1162:1 1218:1 1221:1 1242:4
-1 1119:1 1162:1 1218:1 1222:1 1242:2
-1 338:21 861:1 870:5 1162:1 1184:1 1218:1 1242:3
-1 338:6 861:1 870:5 1162:1 1184:1 1218:1 1242:3
-1 1084:1 1117:1 1119:1 1162:1 1218:1 1221:1 1222:1 1242:1
-1 800:1 1117:1 1162:1 1218:1 1221:1 1242:2
-1 800:1 1117:1 1162:1 1218:1 1221:1 1242:2
-1 166:1 178:1 347:1 508:1 820:1 910:1 1119:1 1162:1 1215:1 1218:1 1220:1 1222:1 1224:1 1230:1 1232:1 1235:1 1242:2
-1 347:1 823:1 910:1 1117:1 1119:1 1162:1 1218:1 1221:1 1222:1 1224:1 1230:1 1242:3
-1 166:1 178:1 208:1 274:1 347:1 439:1 508:1 509:1 578:1 803:1 823:1 872:1 910:1 1117:1 1119:1 1128:1 1162:1 1215:1 1218:1 1221:1 1222:1 1224:1 1230:1 1232:1 1233:1 1235:1 1238:1 1242:2
-1 192:1 314:1 319:1 551:1 740:1 821:1 823:1 893:1 910:1 1109:1 1117:1 1162:1 1163:1 1218:1 1221:1 1230:1 1242:1
-1 1242:5
-1 1242:1
-1 166:1 178:1 192:1 193:1 265:1 314:1 352:1 426:1 509:1 516:1 551:1 554:1 612:1 740:1 785:1 818:1 823:1 844:1 848:1 893:1 910:1 999:1 1109:1 1115:1 1117:1 1119:1 1128:1 1162:1 1163:1 1177:1 1215:1 1218:1 1221:1 1222:1 1230:1 1232:1 1238:1 1242:1
-1 178:1 347:1 462:1 508:1 509:1 557:1 645:1 820:1 910:1 976:1 1119:1 1128:1 1162:1 1215:1 1218:1 1220:1 1222:1 1224:1 1230:1 1235:1 1238:1 1242:2 1244:1
-1 1242:1
-1 166:1 178:1 192:1 265:1 347:1 352:1 407:1 421:1 426:1 449:1 464:1 508:1 509:1 551:1 554:1 557:1 578:1 617:1 740:1 796:1 823:1 844:1 872:1 893:1 910:1 999:1 1083:1 1109:1 1117:1 1119:1 1128:1 1162:1 1163:1 1204:1 1215:1 1218:1 1221:1 1222:1 1224:1 1230:1 1232:1 1233:1 1235:1 1238:1 1242:1
-1 166:1 178:3 347:1 508:1 509:1 578:2 820:1 910:2 970:4 1119:4 1162:3 1183:1 1215:3 1218:3 1220:1 1222:4 1224:1 1225:4 1230:2 1232:1 1233:2 1235:1 1238:1 1242:6
-1 347:1 508:1 509:1 557:1 645:1 888:1 910:1 970:1 1119:1 1162:1 1218:1 1222:1 1224:1 1225:1 1230:1 1235:1 1238:1 1242:1
-1 166:1 178:1 233:1 314:1 347:1 508:1 509:1 557:1 578:1 784:1 823:1 884:1 910:1 976:1 1050:1 1117:1 1119:1 1128:1 1162:1 1215:1 1218:1 1221:1 1222:1 1224:1 1230:1 1232:1 1233:1 1235:1 1238:1 1242:1
-1 178:1 192:1 232:1 233:1 309:1 314:1 319:1 347:1 407:1 449:1 464:1 509:1 551:1 554:1 557:1 629:1 650:1 651:1 661:1 740:1 820:1 823:1 860:1 893:1 894:1 910:1 1050:1 1065:1 1073:1 1097:1 1109:1 1128:1 1162:1 1163:1 1203:1 1215:1 1218:1 1220:1 1223:1 1224:1 1230:1 1234:1 1236:1 1238:1 1242:1
-1 178:1 347:1 509:1 557:1 910:1 1117:1 1119:1 1128:1 1162:1 1215:1 1218:1 1221:1 1222:1 1224:1 1230:1 1238:1 1242:2
-1 192:1 265:1 352:1 426:1 464:1 509:1 540:1 551:1 617:1 712:1 740:1 848:1 875:1 893:1 999:1 1090:1 1109:1 1117:1 1119:1 1163:1 1221:1 1222:1 1238:1 1242:1
-1 166:1 178:1 179:1 233:1 314:1 347:1 421:1 433:1 462:1 508:1 509:1 557:1 578:1 592:1 754:1 823:1 910:1 911:1 931:1 1073:1 1117:1 1119:1 1128:1 1130:1 1162:1 1214:1 1215:1 1218:1 1221:1 1222:1 1224:1 1226:1 1230:1 1231:1 1232:1 1233:1 1235:1 1238:1 1242:2
-1 910:1 1119:1 1162:1 1218:1 1222:1 1230:1 1242:1
-1 131:1 148:1 679:1 851:1 920:1 1117:2 1162:1 1218:1 1221:2 1242:2
-1 192:1 265:1 330:1 426:1 464:1 500:1 509:1 516:1 551:1 617:1 740:1 795:1 821:1 823:1 844:1 884:1 893:1 910:1 999:1 1090:1 1109:1 1115:1 1117:1 1119:1 1162:1 1163:1 1177:1 1218:1 1221:1 1222:1 1230:1 1238:1 1242:2 1244:1
-1 166:1 178:1 347:1 508:1 820:1 910:1 1119:1 1162:1 1215:1 1218:1 1220:1 1222:1 1224:1 1230:1 1232:1 1235:1 1242:2
-1 192:1 265:1 348:1 516:1 551:1 617:1 639:1 740:1 823:1 844:1 848:1 867:1 875:1 884:1 893:1 939:1 999:1 1021:1 1090:1 1103:1 1109:1 1117:1 1151:1 1163:1 1221:1 1242:3
-1 192:1 206:1 265:1 348:1 426:1 501:1 508:1 540:1 551:1 617:1 712:1 740:1 823:1 893:1 1021:1 1068:1 1109:1 1115:1 1117:1 1119:1 1144:1 1163:1 1221:1 1222:1 1235:1 1242:3
-1 166:1 178:1 347:1 508:1 820:1 910:1 1119:1 1162:1 1215:1 1218:1 1220:1 1222:1 1224:1 1230:1 1232:1 1235:1 1242:2
-1 645:1 1153:1 1162:1 1218:1 1242:2 1244:2
-1 233:1 578:1 910:1 1119:1 1162:1 1218:1 1222:1 1230:1 1233:1 1242:2
-1 166:1 178:1 347:1 508:1 910:1 1119:1 1162:1 1215:1 1218:1 1222:1 1224:1 1230:1 1232:1 1235:1 1242:2
-1 928:1 1240:1 1242:3
-1 281:1 1162:1 1218:1 1242:2
-1 423:1 710:1 773:1 955:1 1081:1 1117:2 1162:1 1218:1 1221:2 1242:2
-1 166:1 178:2 347:1 421:1 508:1 509:1 910:2 1119:2 1162:3 1215:2 1218:3 1222:2 1224:1 1230:2 1232:1 1235:1 1238:1 1242:6
-1 166:1 178:1 347:1 508:1 509:1 578:1 910:1 1117:2 1119:1 1162:1 1215:1 1218:1 1221:2 1222:1 1224:1 1230:1 1232:1 1233:1 1235:1 1238:1 1242:2
-1 166:1 178:1 347:1 508:1 820:1 910:1 1119:1 1162:1 1215:1 1218:1 1220:1 1222:1 1224:1 1230:1 1232:1 1235:1 1242:3
-1 178:1 910:1 1117:1 1119:1 1162:1 1215:1 1218:1 1221:1 1222:1 1230:1 1242:4
-1 166:1 178:1 186:1 347:1 421:1 508:1 578:1 898:1 910:1 1107:1 1119:1 1162:1 1184:2 1215:1 1218:1 1222:1 1224:1 1230:1 1232:1 1233:1 1235:1 1242:2
-1 162:1 192:1 206:1 221:1 265:1 348:1 352:1 426:1 464:1 501:1 509:1 516:1 540:1 551:1 617:1 671:1 740:1 823:1 841:1 844:1 848:1 893:1 975:1 1015:1 1021:1 1048:1 1050:1 1090:1 1109:1 1117:1 1163:1 1204:1 1209:1 1221:1 1238:1 1242:2
-1 192:1 206:1 265:1 348:1 352:1 407:1 426:1 449:1 464:1 501:1 516:1 540:1 551:1 617:1 671:1 740:1 841:1 844:1 848:1 893:1 975:1 1015:1 1021:1 1109:1 1115:1 1117:1 1163:1 1204:1 1209:1 1221:1 1242:3
-1 1162:1 1218:1 1242:1
-1 1117:2 1162:1 1218:1 1221:2 1242:2
-1 166:1 509:1 910:2 1119:2 1162:2 1218:2 1222:2 1230:2 1232:1 1238:1 1242:7
-1 166:1 178:1 421:1 508:1 910:1 1101:1 1117:1 1119:1 1162:1 1215:1 1218:1 1221:1 1222:1 1230:1 1232:1 1235:1 1242:2
-1 823:1 910:1 1162:1 1218:1 1230:1 1242:1
-1 347:1 421:1 1101:1 1117:1 1119:1 1162:1 1218:1 1221:1 1222:1 1224:1 1242:2
-1 166:1 178:1 233:1 347:1 508:1 509:1 578:1 820:1 1119:1 1162:1 1215:1 1218:1 1220:1 1222:1 1224:1 1232:1 1233:1 1235:1 1238:1 1242:5
-1 142:1 167:1 178:1 239:1 347:1 509:1 790:1 1117:1 1119:1 1146:1 1162:1 1193:1 1215:1 1218:1 1221:1 1222:1 1224:1 1238:1 1242:2
-1 166:1 508:1 910:1 1119:1 1162:1 1218:1 1222:1 1230:1 1232:1 1235:1 1242:2
-1 928:1 1240:1 1242:3
-1 910:1 943:1 1162:1 1218:1 1230:1 1242:1
-1 178:1 910:1 1117:2 1119:1 1162:1 1215:1 1218:1 1221:2 1222:1 1230:1 1242:4 1244:7
-1 233:1 421:1 423:1 645:1 1069:1 1119:1 1162:1 1218:1 1222:1 1242:1 1244:771
-1 166:1 178:1 255:1 305:1 508:1 598:1 910:1 943:1 1092:1 1101:1 1117:1 1119:1 1162:1 1215:1 1218:1 1221:1 1222:1 1230:1 1232:1 1235:1 1242:4
-1 166:1 509:1 910:2 1119:2 1162:2 1218:2 1222:2 1230:2 1232:1 1238:1 1242:7
-1 910:1 943:1 1119:1 1162:1 1218:1 1222:1 1230:1 1242:1
-1 910:1 943:1 1119:1 1162:1 1218:1 1222:1 1230:1 1242:3
-1 910:1 943:1 1162:1 1218:1 1230:1 1242:1
-1 910:1 943:1 1162:1 1218:1 1230:1 1242:1
-1 910:1 943:1 1162:1 1218:1 1230:1 1242:1
-1 166:1 178:1 347:1 421:1 508:1 509:1 578:1 703:1 820:1 888:1 910:1 970:1 1068:1 1119:1 1128:1 1162:1 1215:1 1218:1 1220:1 1222:1 1224:1 1225:1 1230:1 1232:1 1233:1 1235:1 1238:1 1242:1
-1 166:1 178:1 347:1 508:1 820:1 910:1 1119:1 1162:1 1215:1 1218:1 1220:1 1222:1 1224:1 1230:1 1232:1 1235:1 1242:2
-1 166:1 178:1 421:1 508:1 578:1 1117:2 1119:1 1162:1 1215:1 1218:1 1221:2 1222:1 1232:1 1233:1 1235:1 1242:3
-1 347:1 509:1 645:1 910:1 1119:1 1162:1 1218:1 1222:1 1224:1 1230:1 1238:1 1242:1
-1 134:1 166:1 178:1 185:1 255:1 347:1 421:1 492:1 508:1 578:1 774:1 910:1 1092:1 1119:1 1162:1 1215:1 1218:1 1222:1 1224:1 1230:1 1232:1 1233:1 1235:1 1242:2 1244:2
-1 928:1 1240:1 1242:3
-1 166:1 508:1 562:1 703:1 823:1 1117:1 1119:1 1162:1 1218:1 1221:1 1222:1 1232:1 1235:1 1242:1
-1 178:1 421:1 426:1 508:1 509:1 629:1 650:1 823:1 888:1 894:1 910:1 1008:1 1119:1 1128:1 1162:1 1165:1 1215:1 1218:1 1222:1 1223:1 1230:1 1234:1 1235:1 1238:1 1242:2
-1 166:1 178:1 508:1 1119:1 1162:1 1215:1 1218:1 1222:1 1232:1 1235:1 1242:3
-1 135:1 331:1 357:1 459:1 472:1 979:1 1117:1 1162:1 1218:1 1221:1 1242:4
-1 910:1 1117:1 1119:1 1162:1 1218:1 1221:1 1222:1 1230:1 1242:5
-1 233:1 413:1 823:1 910:1 1073:1 1117:1 1119:1 1162:1 1218:1 1221:1 1222:1 1230:1 1242:2
-1 928:1 1240:1 1242:3
-1 178:1 823:1 910:1 1117:1 1162:1 1215:1 1218:1 1221:1 1230:1 1242:2
-1 171:1 331:1 398:1 459:1 472:1 572:1 1117:2 1162:1 1218:1 1221:2 1242:3
-1 178:1 910:1 1117:1 1119:1 1162:1 1215:1 1218:1 1221:1 1222:1 1230:1 1242:3
-1 178:1 509:1 1119:1 1162:1 1215:1 1218:1 1222:1 1238:1 1242:2
-1 178:1 347:1 421:1 439:1 509:1 663:1 910:1 1066:1 1119:1 1128:1 1162:1 1215:1 1218:1 1222:1 1224:1 1230:1 1238:1 1242:1
-1 166:1 178:1 233:1 336:1 347:1 508:1 509:1 557:1 663:1 703:1 705:1 820:1 910:1 1066:1 1073:1 1119:1 1128:1 1162:1 1215:1 1218:1 1220:1 1222:1 1224:1 1230:1 1232:1 1235:1 1238:1 1242:1 1244:20
-1 347:1 663:1 910:1 1066:1 1119:1 1162:1 1218:1 1222:1 1224:1 1230:1 1242:1
-1 166:1 178:1 336:1 347:1 509:1 663:1 1066:1 1119:1 1162:1 1215:1 1218:1 1222:1 1224:1 1232:1 1238:1 1242:2
-1 166:1 178:1 233:1 347:1 508:1 509:1 663:1 703:1 820:1 902:1 910:1 931:1 1066:1 1119:1 1128:1 1162:1 1214:1 1215:1 1218:1 1220:1 1222:1 1224:1 1230:1 1232:1 1235:1 1238:1 1242:1 1244:326
-1 166:1 178:1 230:1 347:1 373:1 508:1 509:1 620:1 663:1 703:1 776:1 779:1 803:1 910:1 951:1 1066:1 1074:1 1119:1 1162:1 1208:1 1215:1 1218:1 1222:1 1224:1 1230:1 1232:1 1235:1 1238:1 1242:1
-1 928:1 1240:1 1242:3
-1 928:1 1240:1 1242:3
-1 137:1 156:1 162:1 192:1 265:1 273:1 294:1 322:1 348:1 367:1 419:1 516:1 523:1 551:1 603:1 617:1 644:1 657:1 740:1 755:1 823:1 828:1 844:1 893:1 999:1 1021:1 1077:1 1090:1 1105:1 1109:1 1115:1 1117:1 1163:1 1186:1 1204:1 1221:1 1242:1
-1 166:1 233:1 440:1 592:1 1101:1 1117:1 1119:1 1162:1 1218:1 1221:1 1222:1 1232:1 1242:2
-1 823:1 910:1 1073:1 1117:1 1162:1 1218:1 1221:1 1230:1 1242:2
-1 347:1 439:1 910:1 1117:1 1162:1 1218:1 1221:1 1224:1 1230:1 1242:2
-1 192:1 352:1 426:1 551:1 557:1 740:1 823:1 893:1 1109:1 1117:1 1162:1 1163:1 1218:1 1221:1 1242:1
-1 166:1 347:1 508:1 509:1 910:2 943:1 1119:2 1162:3 1218:3 1222:2 1224:1 1230:2 1232:1 1235:1 1238:1 1242:6
-1 192:1 193:1 348:1 383:1 426:1 509:1 551:1 557:1 740:1 823:1 848:1 893:1 1090:1 1109:1 1117:1 1163:1 1187:1 1209:1 1221:1 1238:1 1242:1
-1 162:1 192:1 265:1 348:1 367:1 419:1 440:1 516:1 551:1 617:1 657:1 740:1 823:1 828:1 844:1 848:1 867:1 893:1 999:1 1021:1 1073:1 1077:1 1109:1 1115:1 1117:1 1163:1 1186:1 1221:1 1242:2
-1 192:1 551:1 740:1 893:1 1021:1 1109:1 1117:1 1163:1 1221:1 1242:3
-1 192:1 264:1 265:1 348:1 541:1 551:1 617:1 740:1 755:1 823:1 844:1 893:1 999:1 1073:1 1102:1 1109:1 1117:1 1163:1 1221:1 1242:2
-1 166:1 509:1 910:2 1119:2 1162:2 1218:2 1222:2 1230:2 1232:1 1238:1 1242:7
-1 192:1 508:1 551:1 740:1 893:1 1088:1 1109:1 1117:1 1119:1 1128:1 1162:1 1163:1 1218:1 1221:1 1222:1 1235:1 1242:2
-1 164:1 178:1 910:1 1117:1 1162:1 1215:1 1218:1 1221:1 1230:1 1242:3
-1 192:1 265:1 348:1 426:1 509:1 516:1 551:1 617:1 657:1 712:1 740:1 823:1 844:1 848:1 893:1 999:1 1021:1 1077:1 1090:1 1109:1 1115:1 1117:1 1163:1 1221:1 1238:1 1242:3 1244:23
-1 192:1 233:1 305:1 348:1 416:1 516:1 551:1 617:1 657:1 740:1 844:1 848:1 893:1 999:1 1073:1 1090:1 1102:1 1109:1 1115:1 1117:1 1163:1 1221:1 1242:2
-1 166:1 178:1 508:1 578:1 910:1 1119:1 1162:1 1215:1 1218:1 1222:1 1230:1 1232:1 1233:1 1235:1 1242:2
-1 928:1 1240:1 1242:4
-1 178:1 192:1 348:1 426:1 551:1 617:1 639:1 740:1 823:1 848:1 893:1 1090:1 1109:1 1117:1 1119:1 1162:1 1163:1 1215:1 1218:1 1221:1 1222:1 1242:2
-1 928:1 1240:1 1242:3
-1 1162:1 1218:1 1242:3
-1 166:1 178:1 233:1 347:1 492:1 508:1 509:1 578:1 910:1 1119:1 1128:1 1162:1 1215:1 1218:1 1222:1 1224:1 1230:1 1232:1 1233:1 1235:1 1238:1 1242:3
-1 928:1 1240:1 1242:2
-1 233:1 1117:2 1162:1 1218:1 1221:2 1242:2
-1 233:1 1117:2 1162:1 1218:1 1221:2 1242:2
-1 233:1 910:1 1119:1 1162:1 1218:1 1222:1 1230:1 1242:2
-1 928:1 1240:1 1242:3
-1 238:1 403:1 496:1 629:1 823:1 855:1 1080:1 1162:1 1218:1 1219:1 1223:1 1227:1 1237:1 1241:1 1242:4
-1 508:1 1119:1 1162:1 1218:1 1222:1 1235:1 1242:3
-1 1119:1 1162:1 1218:1 1222:1 1242:1
-1 137:1 192:1 265:1 314:1 318:1 319:1 347:1 348:1 432:1 464:1 509:1 551:1 639:1 740:1 821:1 844:1 848:1 875:1 893:1 910:1 1109:1 1117:1 1119:1 1162:1 1163:1 1218:1 1221:1 1222:1 1224:1 1230:1 1238:1 1242:1 1244:9
-1 233:1 419:1 557:1 603:1 806:1 823:1 910:1 1117:1 1119:1 1162:1 1218:1 1221:1 1222:1 1230:1 1242:1
-1 166:1 178:1 336:1 347:1 508:1 509:1 663:1 705:1 820:1 910:1 1066:1 1119:1 1128:1 1162:1 1215:1 1218:1 1220:1 1222:1 1224:1 1230:1 1232:1 1235:1 1238:1 1242:1
-1 166:1 178:1 347:1 421:1 440:1 508:1 509:1 578:1 787:1 820:1 910:1 1119:1 1162:1 1215:1 1218:1 1220:1 1222:1 1224:1 1230:1 1232:1 1233:1 1235:1 1238:1 1242:5
-1 118:1 421:1 735:1 764:1 942:1 1119:1 1162:1 1202:1 1218:1 1222:1 1242:2
-1 166:1 178:1 347:1 508:1 820:1 910:1 1119:1 1162:1 1215:1 1218:1 1220:1 1222:1 1224:1 1230:1 1232:1 1235:1 1242:3
-1 178:1 209:1 411:1 445:1 473:1 580:1 859:1 878:1 910:1 974:1 1110:1 1119:1 1141:1 1162:1 1215:1 1218:1 1222:1 1230:1 1242:4
-1 166:1 178:1 347:1 508:1 509:1 578:1 820:1 823:1 910:1 1117:1 1119:1 1128:1 1162:1 1215:1 1218:1 1220:1 1221:1 1222:1 1224:1 1230:1 1232:1 1233:1 1235:1 1238:1 1242:3
-1 166:1 178:1 314:1 319:1 347:1 508:1 578:1 730:1 910:1 993:1 1119:1 1128:1 1162:1 1215:1 1218:1 1222:1 1224:1 1230:1 1232:1 1233:1 1235:1 1242:1
-1 166:1 178:1 192:1 348:1 407:1 426:1 449:1 464:1 508:1 509:1 551:1 554:1 578:1 740:1 796:1 823:1 883:1 893:1 910:1 999:1 1083:1 1109:1 1117:1 1119:1 1128:1 1162:1 1163:1 1215:1 1218:1 1221:1 1222:1 1230:1 1232:1 1233:1 1235:1 1238:1 1242:2
-1 508:1 578:1 820:1 910:1 1119:1 1162:1 1218:1 1220:1 1222:1 1230:1 1233:1 1235:1 1242:2
-1 166:1 178:1 508:1 578:1 910:1 1119:1 1128:1 1162:1 1215:1 1218:1 1222:1 1230:1 1232:1 1233:1 1235:1 1242:2
-1 166:1 345:1 508:1 509:2 820:1 910:2 1119:2 1162:4 1218:4 1220:1 1222:2 1230:2 1232:1 1235:1 1238:2 1242:6
-1 166:1 178:1 347:1 508:1 910:1 1119:1 1162:1 1215:1 1218:1 1222:1 1224:1 1230:1 1232:1 1235:1 1242:2
-1 312:1 1117:1 1162:1 1218:1 1221:1 1242:3
-1 166:1 178:1 347:1 508:1 820:1 910:1 1119:1 1162:1 1215:1 1218:1 1220:1 1222:1 1224:1 1230:1 1232:1 1235:1 1242:2
-1 162:1 192:1 233:1 265:1 348:1 413:1 516:1 551:1 617:1 740:1 823:1 893:1 1021:1 1097:1 1109:1 1115:1 1117:1 1163:1 1221:1 1242:3
-1 928:1 1240:1 1242:3
-1 1058:1 1228:1 1242:1
-1 508:1 1117:1 1119:1 1162:1 1218:1 1221:1 1222:1 1235:1 1242:2
-1 928:1 1240:1 1242:3
-1 928:1 1240:1 1242:3
-1 928:1 1240:1 1242:3
-1 928:1 1240:1 1242:3
-1 928:1 1240:1 1242:3
-1 928:1 1240:1 1242:3
-1 928:1 1240:1 1242:3
-1 284:1 1117:2 1162:1 1218:1 1221:2 1242:2
-1 166:1 910:1 1119:1 1124:1 1128:1 1162:1 1218:1 1222:1 1229:1 1230:1 1232:1 1242:1
-1 1117:1 1119:1 1162:1 1218:1 1221:1 1222:1 1242:5
-1 928:1 1240:1 1242:3
-1 166:1 178:1 233:1 347:1 508:1 509:1 578:1 910:1 943:1 1117:1 1119:1 1162:1 1215:1 1218:1 1221:1 1222:1 1224:1 1230:1 1232:1 1233:1 1235:1 1238:1 1242:4
-1 1117:1 1119:1 1162:1 1218:1 1221:1 1222:1 1242:3
-1 910:1 1117:1 1119:1 1162:1 1218:1 1221:1 1222:1 1230:1 1242:2
-1 178:1 347:1 462:1 820:1 910:1 993:1 1124:1 1162:1 1215:1 1218:1 1220:1 1224:1 1229:1 1230:1 1242:1
-1 238:1 403:1 496:1 629:1 855:1 1080:1 1162:1 1218:1 1219:1 1223:1 1227:1 1237:1 1241:1 1242:2
-1 928:1 1240:1 1242:4
-1 928:1 1240:1 1242:2
-1 1162:1 1218:1 1242:4
-1 1162:1 1218:1 1242:2
-1 134:1 185:1 421:1 550:1 774:1 1119:1 1162:1 1218:1 1222:1 1242:2
-1 1242:1
-1 238:1 288:1 347:1 400:1 403:1 496:1 629:1 650:1 855:1 910:1 1080:1 1093:1 1162:1 1191:1 1217:1 1218:1 1219:1 1223:1 1224:1 1227:1 1230:1 1234:1 1237:1 1241:1 1242:3
-1 192:1 193:1 215:1 221:1 263:1 265:1 314:1 340:1 348:1 352:1 416:1 426:1 464:1 509:1 516:1 540:1 551:1 617:1 637:1 639:1 726:1 740:1 741:1 802:1 823:1 841:1 844:1 848:1 893:1 954:1 1021:1 1048:1 1109:1 1115:1 1117:1 1163:1 1204:1 1212:1 1221:1 1238:1 1242:2
-1 192:1 203:1 265:1 348:1 352:1 426:1 464:1 501:1 516:1 540:1 551:1 726:1 740:1 848:1 893:1 954:1 1109:1 1115:1 1117:1 1163:1 1204:1 1221:1 1242:1
-1 166:1 178:1 421:1 508:1 578:1 820:1 910:1 1119:1 1162:1 1215:1 1218:1 1220:1 1222:1 1230:1 1232:1 1233:1 1235:1 1242:2
-1 166:1 178:1 421:1 508:1 578:1 820:1 910:1 1119:1 1162:1 1215:1 1218:1 1220:1 1222:1 1230:1 1232:1 1233:1 1235:1 1242:2
-1 625:1 659:1 1040:1 1242:2
-1 625:1 659:1 1040:1 1242:2
-1 178:1 347:1 509:1 910:1 931:1 1128:1 1162:1 1214:1 1215:1 1218:1 1224:1 1230:1 1238:1 1242:2
-1 166:1 178:1 218:1 233:1 314:1 319:1 347:1 462:1 508:1 509:1 651:1 703:1 820:1 823:1 910:1 911:1 1119:1 1128:1 1162:1 1215:1 1218:1 1220:1 1222:1 1224:1 1230:1 1231:1 1232:1 1235:1 1236:1 1238:1 1242:2
-1 154:1 347:1 508:1 645:1 910:1 1119:1 1128:1 1162:1 1218:1 1222:1 1224:1 1230:1 1235:1 1242:1
-1 645:1 1119:1 1162:1 1218:1 1222:1 1242:1
-1 166:1 509:1 910:2 1119:2 1162:2 1218:2 1222:2 1230:2 1232:1 1238:1 1242:7
-1 192:1 206:1 265:1 348:1 352:1 383:1 412:1 426:1 509:1 540:1 551:1 617:1 639:1 643:1 686:1 740:1 823:1 844:1 848:1 893:1 999:1 1105:1 1109:1 1115:1 1117:1 1163:1 1221:1 1238:1 1242:2
-1 178:1 314:1 319:1 347:1 910:1 1117:1 1128:1 1162:1 1215:1 1218:1 1221:1 1224:1 1230:1 1242:2
-1 1117:1 1162:1 1218:1 1221:1 1242:6
-1 144:1 178:1 445:1 525:1 559:1 859:1 1117:1 1141:1 1162:1 1200:1 1215:1 1218:1 1221:1 1242:5 1244:150
-1 171:1 1117:1 1162:1 1200:1 1218:1 1221:1 1242:6
-1 560:1 1117:1 1162:1 1218:1 1221:1 1242:6
-1 144:1 209:1 445:1 525:1 559:1 560:1 859:1 1117:1 1141:1 1162:1 1200:1 1218:1 1221:1 1242:5 1244:52
-1 166:1 178:1 347:1 508:1 820:1 910:1 1119:1 1162:1 1215:1 1218:1 1220:1 1222:1 1224:1 1230:1 1232:1 1235:1 1242:3
-1 943:1 1117:2 1162:1 1218:1 1221:2 1242:3
-1 371:1 388:1 423:1 457:1 581:1 681:1 710:1 746:1 773:1 849:1 869:1 950:1 1069:1 1081:1 1162:1 1218:1 1242:1
-1 335:1 441:1 549:1 670:1 710:1 745:1 862:1 865:2 958:1 987:1 1003:1 1081:1 1117:2 1141:1 1162:1 1218:1 1221:2 1242:2
-1 166:1 178:1 347:1 508:1 820:1 910:1 1119:1 1162:1 1215:1 1218:1 1220:1 1222:1 1224:1 1230:1 1232:1 1235:1 1242:3
-1 233:1 253:1 419:1 440:1 820:1 823:1 884:1 910:1 1117:1 1119:1 1128:1 1162:1 1186:1 1218:1 1220:1 1221:1 1222:1 1230:1 1242:2
-1 421:1 497:1 508:1 681:1 846:1 1089:1 1117:1 1119:1 1162:1 1218:1 1221:1 1222:1 1235:1 1242:2
-1 423:1 509:2 710:1 910:1 1119:2 1162:4 1218:4 1222:2 1230:1 1238:2 1242:5
-1 166:1 347:1 508:1 509:1 710:2 910:2 1119:2 1162:3 1218:3 1222:2 1224:1 1230:2 1232:1 1235:1 1238:1 1242:6
-1 928:1 1240:1 1242:4
-1 928:1 1240:1 1242:3
-1 423:1 543:1 792:1 1069:1 1117:2 1162:1 1218:1 1221:2 1242:2
-1 331:1 357:1 472:1 763:1 1117:2 1162:1 1218:1 1221:2 1242:3
-1 166:1 421:1 440:1 508:1 509:2 578:1 820:1 910:2 1119:2 1162:4 1218:4 1220:1 1222:2 1230:2 1232:1 1233:1 1235:1 1238:2 1242:6
-1 1171:1 1242:1
-1 279:1 379:1 943:1 1117:1 1162:1 1218:1 1221:1 1242:3
-1 166:1 178:1 347:1 421:1 508:1 509:1 578:1 820:1 910:1 1119:1 1162:1 1215:1 1218:1 1220:1 1222:1 1224:1 1230:1 1232:1 1233:1 1235:1 1238:1 1242:5
-1 928:1 1240:1 1242:3
-1 166:1 178:1 347:1 508:1 820:1 910:1 1119:1 1162:1 1215:1 1218:1 1220:1 1222:1 1224:1 1230:1 1232:1 1235:1 1242:3
-1 166:1 509:1 910:2 1119:2 1162:2 1218:2 1222:2 1230:2 1232:1 1238:1 1242:7
-1 166:1 178:1 192:1 426:1 551:1 740:1 893:1 1085:1 1109:1 1115:1 1117:1 1119:1 1128:1 1162:1 1163:1 1215:1 1218:1 1221:1 1222:1 1232:1 1242:4
-1 178:1 347:1 508:1 509:1 1117:1 1119:1 1162:1 1215:1 1218:1 1221:1 1222:1 1224:1 1235:1 1238:1 1242:1
-1 122:1 1162:1 1218:1 1242:2
-1 192:1 347:1 426:1 508:1 551:1 740:1 893:1 1109:1 1117:1 1119:1 1128:1 1162:1 1163:1 1218:1 1221:1 1222:1 1224:1 1235:1 1242:3
-1 928:1 1240:1 1242:4
-1 714:1 869:1 1162:1 1218:1 1242:2
-1 166:1 178:2 347:1 421:1 508:1 509:3 820:1 910:2 1119:2 1162:5 1215:2 1218:5 1220:1 1222:2 1224:1 1230:2 1232:1 1235:1 1238:3 1242:6
-1 178:1 910:1 1117:1 1119:1 1162:1 1215:1 1218:1 1221:1 1222:1 1230:1 1242:3 1244:1
-1 233:1 1119:1 1162:1 1218:1 1222:1 1242:4
-1 928:1 1240:1 1242:3
-1 166:1 178:1 347:1 508:1 578:1 910:1 943:1 1117:2 1119:1 1162:1 1215:1 1218:1 1221:2 1222:1 1224:1 1230:1 1232:1 1233:1 1235:1 1242:2
-1 166:1 178:1 347:1 508:1 820:1 910:1 1119:1 1162:1 1215:1 1218:1 1220:1 1222:1 1224:1 1230:1 1232:1 1235:1 1242:3
-1 124:1 178:1 347:1 401:1 421:1 508:1 509:1 703:1 823:1 888:1 910:1 994:1 1008:1 1039:1 1117:1 1119:1 1162:1 1215:1 1218:1 1221:1 1222:1 1224:1 1230:1 1235:1 1238:1 1242:1
-1 928:1 1240:1 1242:2
-1 166:1 178:1 347:1 508:1 820:1 910:1 1119:1 1162:1 1215:1 1218:1 1220:1 1222:1 1224:1 1230:1 1232:1 1235:1 1242:3
-1 662:1 1117:1 1119:1 1162:1 1218:1 1221:1 1222:1 1242:2
-1 421:1 508:1 820:1 1119:1 1162:1 1218:1 1220:1 1222:1 1235:1 1242:2
-1 625:1 659:1 1242:2
-1 1242:1
-1 928:1 1240:1 1242:4
-1 347:1 508:1 645:1 820:1 881:1 910:1 1068:1 1119:1 1124:1 1162:1 1218:1 1220:1 1222:1 1224:1 1229:1 1230:1 1235:1 1242:3 1244:123
-1 178:1 233:1 286:1 314:1 347:1 382:1 509:1 582:1 645:1 777:1 881:1 910:1 926:1 1119:1 1162:1 1215:1 1218:1 1222:1 1224:1 1230:1 1238:1 1242:1 1244:2
-1 928:1 1240:1 1242:2
-1 1162:1 1218:1 1242:2
-1 166:1 178:2 347:1 508:1 509:3 578:1 820:1 910:2 1119:2 1162:4 1215:2 1218:4 1220:1 1222:2 1224:1 1230:2 1232:1 1233:1 1235:1 1238:3 1242:6
-1 178:1 508:1 538:1 557:1 823:1 910:1 1062:1 1117:1 1119:1 1128:1 1162:1 1215:1 1218:1 1221:1 1222:1 1230:1 1235:1 1242:1
-1 138:1 166:1 170:1 178:1 233:1 347:1 508:1 509:1 578:1 820:1 910:1 1119:1 1128:1 1162:1 1215:1 1218:1 1220:1 1222:1 1224:1 1230:1 1232:1 1233:1 1235:1 1238:1 1242:4
-1 192:1 347:1 551:1 740:1 893:1 910:1 1015:1 1109:1 1117:1 1162:1 1163:1 1218:1 1221:1 1224:1 1230:1 1242:1
-1 208:1 314:1 319:1 677:1 910:1 1117:1 1119:1 1162:1 1218:1 1221:1 1222:1 1230:1 1242:1
-1 166:1 178:1 347:1 508:1 509:1 578:1 820:1 910:1 1119:1 1162:1 1215:1 1218:1 1220:1 1222:1 1224:1 1230:1 1232:1 1233:1 1235:1 1238:1 1242:5
-1 509:2 910:1 1119:2 1162:4 1218:4 1222:2 1230:1 1238:2 1242:6
-1 166:1 509:1 910:2 1119:2 1162:2 1218:2 1222:2 1230:2 1232:1 1238:1 1242:7
-1 178:1 508:1 578:1 910:1 1119:1 1162:1 1215:1 1218:1 1222:1 1230:1 1233:1 1235:1 1242:2
-1 166:1 178:1 508:1 578:1 910:1 1119:1 1162:1 1215:1 1218:1 1222:1 1230:1 1232:1 1233:1 1235:1 1242:1
-1 928:1 1240:1 1242:3
-1 178:1 509:1 1119:1 1162:1 1215:1 1218:1 1222:1 1238:1 1242:1
-1 209:1 445:1 793:1 1117:1 1141:1 1162:1 1218:1 1221:1 1242:3
-1 737:1 910:1 1117:2 1119:1 1162:1 1218:1 1221:2 1222:1 1230:1 1242:5
-1 138:1 178:1 347:1 485:1 508:1 509:1 578:1 910:1 1119:1 1128:1 1162:1 1215:1 1218:1 1222:1 1224:1 1230:1 1233:1 1235:1 1238:1 1242:4
-1 166:1 347:1 508:1 509:3 578:1 820:1 910:2 970:1 1119:2 1162:6 1218:6 1220:1 1222:2 1224:1 1225:1 1230:2 1232:1 1233:1 1235:1 1238:3 1242:6
-1 166:1 178:1 347:1 508:1 509:2 578:1 820:1 910:2 1119:2 1162:4 1215:1 1218:4 1220:1 1222:2 1224:1 1230:2 1232:1 1233:1 1235:1 1238:2 1242:6
-1 166:1 178:1 347:1 508:1 820:1 910:1 1119:1 1162:1 1215:1 1218:1 1220:1 1222:1 1224:1 1230:1 1232:1 1235:1 1242:3
-1 166:1 347:1 508:1 509:1 910:2 1119:2 1162:3 1218:3 1222:2 1224:1 1230:2 1232:1 1235:1 1238:1 1242:6
-1 928:1 1240:1 1242:3
-1 166:1 509:2 910:3 1119:2 1162:4 1218:4 1222:2 1230:3 1232:1 1238:2 1242:4
-1 1162:1 1218:1 1242:2
-1 162:1 178:1 192:1 348:1 426:1 464:1 516:1 551:1 617:1 740:1 848:1 893:1 976:1 1008:1 1109:1 1117:1 1119:1 1128:1 1162:1 1163:1 1215:1 1218:1 1221:1 1222:1 1242:3
-1 1119:1 1162:1 1218:1 1222:1 1242:2
-1 166:1 167:1 178:1 508:1 910:1 1101:1 1117:1 1119:1 1162:1 1215:1 1218:1 1221:1 1222:1 1230:1 1232:1 1235:1 1242:2 1244:1
-1 192:1 233:1 348:1 516:1 551:1 617:1 657:1 740:1 823:1 844:1 893:1 999:1 1073:1 1109:1 1115:1 1117:1 1163:1 1221:1 1242:1
-1 166:1 178:1 347:1 508:1 820:1 910:1 1119:1 1162:1 1215:1 1218:1 1220:1 1222:1 1224:1 1230:1 1232:1 1235:1 1242:2
-1 1162:1 1218:1 1242:3
-1 347:1 509:1 910:1 1119:1 1162:1 1218:1 1222:1 1224:1 1230:1 1238:1 1242:1
-1 178:1 823:1 910:1 1117:1 1119:1 1162:1 1173:1 1215:1 1218:1 1221:1 1222:1 1230:1 1242:2
-1 233:1 404:1 1119:1 1162:1 1218:1 1222:1 1242:2
-1 192:1 407:1 426:1 434:1 449:1 551:1 740:1 823:1 910:1 1109:1 1117:1 1162:1 1163:1 1218:1 1221:1 1230:1 1242:3
-1 166:1 178:1 232:1 233:1 319:1 347:1 421:1 508:1 509:1 557:1 737:1 820:1 831:1 910:1 911:1 970:1 1073:1 1119:1 1128:1 1162:1 1215:1 1218:1 1220:1 1222:1 1224:1 1225:1 1230:1 1231:1 1232:1 1235:1 1238:1 1242:2
-1 178:1 910:1 1117:2 1119:1 1162:1 1215:1 1218:1 1221:2 1222:1 1230:1 1242:4 1244:7
-1 166:1 509:1 910:3 1119:2 1162:4 1218:4 1222:2 1230:3 1232:1 1238:1 1242:4
-1 166:1 509:1 910:2 1119:2 1162:2 1218:2 1222:2 1230:2 1232:1 1238:1 1242:7
-1 178:1 426:1 509:1 1117:1 1128:1 1162:1 1215:1 1218:1 1221:1 1238:1 1242:2
-1 202:1 324:1 518:1 557:1 584:1 682:1 783:1 968:1 1117:1 1119:1 1162:1 1200:1 1207:1 1218:1 1221:1 1222:1 1242:5
-1 166:1 509:1 910:3 1119:2 1162:4 1218:4 1222:2 1230:3 1232:1 1238:1 1242:4
-1 166:1 509:1 910:2 1119:2 1162:2 1218:2 1222:2 1230:2 1232:1 1238:1 1242:7
-1 1162:1 1218:1 1242:4
-1 178:1 823:1 872:1 910:1 1117:1 1119:1 1128:1 1162:1 1215:1 1218:1 1221:1 1222:1 1230:1 1242:1
-1 166:1 509:2 910:3 1119:2 1162:4 1218:4 1222:2 1230:3 1232:1 1238:2 1242:4
-1 1162:1 1218:1 1242:2
-1 166:1 178:1 233:1 279:1 301:1 347:1 379:1 508:1 578:1 764:1 910:1 1117:1 1119:1 1145:1 1162:1 1215:1 1218:1 1221:1 1222:1 1224:1 1230:1 1232:1 1233:1 1235:1 1242:2
-1 166:1 178:1 233:1 347:1 508:1 509:1 578:1 910:1 1073:1 1097:1 1119:1 1128:1 1162:1 1215:1 1218:1 1222:1 1224:1 1230:1 1232:1 1233:1 1235:1 1238:1 1242:1
-1 166:1 167:1 178:1 347:1 508:1 578:1 910:1 931:1 943:1 1073:1 1117:1 1119:1 1162:1 1214:1 1215:1 1218:1 1221:1 1222:1 1224:1 1230:1 1232:1 1233:1 1235:1 1242:4
-1 223:1 281:1 345:1 1162:1 1218:1 1242:1
-1 178:1 274:1 347:1 433:1 508:1 509:1 823:1 884:1 910:1 1117:1 1119:1 1128:1 1162:1 1215:1 1218:1 1221:1 1222:1 1224:1 1226:1 1230:1 1235:1 1238:1 1242:3
-1 959:1 1117:1 1162:1 1218:1 1221:1 1242:5
-1 1049:1 1117:1 1221:1 1242:4
-1 928:1 1240:1 1242:2
-1 166:1 178:1 347:1 508:1 820:1 910:1 1119:1 1162:1 1215:1 1218:1 1220:1 1222:1 1224:1 1230:1 1232:1 1235:1 1242:3
-1 928:1 1240:1 1242:3
-1 166:1 178:1 347:1 508:1 509:3 578:1 910:2 931:1 1119:2 1162:5 1214:1 1215:1 1218:5 1222:2 1224:1 1230:2 1232:1 1233:1 1235:1 1238:3 1242:6
-1 178:1 192:1 208:1 407:1 426:1 439:1 509:1 551:1 678:1 740:1 893:1 910:1 1008:1 1067:1 1109:1 1115:1 1117:1 1119:1 1128:1 1162:1 1163:1 1215:1 1218:1 1221:1 1222:1 1230:1 1238:1 1242:3
-1 508:1 1119:1 1162:1 1218:1 1222:1 1235:1 1242:3
-1 166:1 178:1 508:1 910:1 921:1 1119:1 1162:1 1215:1 1218:1 1222:1 1230:1 1232:1 1235:1 1242:3
-1 928:1 1240:1 1242:3
-1 178:1 314:1 319:1 347:1 910:1 1119:1 1128:1 1162:1 1215:1 1218:1 1222:1 1224:1 1230:1 1242:1
-1 1058:1 1228:1 1242:1
-1 166:1 178:1 233:1 347:1 421:1 508:1 509:1 645:1 703:1 768:1 820:1 881:1 899:1 910:1 1119:1 1162:1 1215:1 1218:1 1220:1 1222:1 1224:1 1230:1 1232:1 1235:1 1238:1 1242:1 1244:379
-1 166:1 178:1 347:1 508:1 509:1 663:1 703:1 820:1 902:1 910:1 1066:1 1119:1 1128:1 1162:1 1215:1 1218:1 1220:1 1222:1 1224:1 1230:1 1232:1 1235:1 1238:1 1242:1
-1 166:1 178:1 347:1 508:1 509:1 663:1 703:1 820:1 902:1 910:1 1066:1 1119:1 1128:1 1162:1 1215:1 1218:1 1220:1 1222:1 1224:1 1230:1 1232:1 1235:1 1238:1 1242:1
-1 233:1 645:1 910:1 1153:1 1162:1 1218:1 1230:1 1242:1
-1 166:1 508:1 509:2 820:1 857:1 910:2 1119:2 1162:5 1218:5 1220:1 1222:2 1230:2 1232:1 1235:1 1238:2 1242:6
-1 857:1 928:1 1162:1 1166:1 1218:1 1240:1 1242:2
-1 928:1 1240:1 1242:3
-1 928:1 1240:1 1242:3
-1 166:1 178:1 347:1 508:1 509:1 820:1 910:1 1119:1 1162:1 1215:1 1218:1 1220:1 1222:1 1224:1 1230:1 1232:1 1235:1 1238:1 1242:5
-1 192:1 256:1 407:1 426:1 449:1 551:1 740:1 822:1 848:1 893:1 1083:1 1109:1 1117:1 1128:1 1163:1 1221:1 1242:2
-1 166:1 509:1 910:2 1119:2 1162:2 1218:2 1222:2 1230:2 1232:1 1238:1 1242:7
-1 1117:1 1162:1 1218:1 1221:1 1242:6
-1 1117:1 1162:1 1218:1 1221:1 1242:6
-1 178:1 296:1 910:1 1117:1 1119:1 1162:1 1215:1 1218:1 1221:1 1222:1 1230:1 1242:5
-1 192:1 233:1 265:1 348:1 516:1 551:1 617:1 657:1 740:1 823:1 844:1 893:1 999:1 1073:1 1109:1 1115:1 1117:1 1163:1 1221:1 1242:1
-1 170:1 178:1 198:1 421:1 508:1 665:1 1119:1 1162:1 1215:1 1218:1 1222:1 1235:1 1242:1
-1 1117:1 1162:1 1218:1 1221:1 1242:2
-1 166:1 508:1 509:2 820:1 910:2 1119:2 1162:5 1218:5 1220:1 1222:2 1230:2 1232:1 1235:1 1238:2 1242:6
-1 1162:1 1218:1 1242:2 1244:21
-1 1162:1 1218:1 1242:2
-1 928:1 1240:1 1242:2
-1 192:1 265:1 348:1 464:1 551:1 623:1 629:1 639:1 643:1 661:1 740:1 844:1 894:1 910:1 1109:1 1119:1 1162:1 1163:1 1218:1 1222:1 1223:1 1230:1 1242:1
-1 192:1 193:1 348:1 352:1 407:1 426:1 449:1 464:1 516:1 551:1 740:1 822:1 823:1 848:1 893:1 999:1 1083:1 1109:1 1117:1 1163:1 1221:1 1242:1
-1 166:1 178:1 347:1 508:1 820:1 910:1 1119:1 1162:1 1215:1 1218:1 1220:1 1222:1 1224:1 1230:1 1232:1 1235:1 1242:3
-1 178:1 209:1 411:1 445:1 473:1 475:1 602:1 627:1 793:1 835:1 859:1 878:1 879:1 910:1 913:1 974:1 1110:1 1117:2 1141:1 1162:1 1215:1 1218:1 1221:2 1230:1 1242:2 1244:299
-1 166:1 178:1 347:1 508:1 820:1 910:1 1119:1 1162:1 1215:1 1218:1 1220:1 1222:1 1224:1 1230:1 1232:1 1235:1 1242:3
-1 1117:1 1162:1 1218:1 1221:1 1242:2
-1 1058:1 1228:1 1242:1
-1 928:1 1240:1 1242:3
-1 178:1 185:1 421:1 492:1 508:1 578:1 748:1 869:1 910:1 1092:1 1119:1 1162:1 1215:1 1218:1 1222:1 1230:1 1233:1 1235:1 1242:1
-1 996:1 1162:1 1218:1 1242:4 1244:3
-1 928:1 1240:1 1242:3
-1 166:1 178:1 347:1 508:1 820:1 910:1 1119:1 1162:1 1215:1 1218:1 1220:1 1222:1 1224:1 1230:1 1232:1 1235:1 1242:2
-1 508:1 578:1 846:1 1117:1 1119:1 1162:1 1218:1 1221:1 1222:1 1233:1 1235:1 1242:2
-1 178:1 233:1 347:1 421:1 508:1 509:1 578:1 910:1 1068:1 1117:1 1119:1 1162:1 1183:1 1215:1 1218:1 1221:1 1222:1 1224:1 1230:1 1233:1 1235:1 1238:1 1242:4
-1 1162:1 1184:1 1218:1 1242:3
-1 910:1 1119:1 1162:1 1218:1 1222:1 1230:1 1242:2
-1 166:1 508:1 509:2 578:1 820:1 910:2 1119:2 1162:1 1218:1 1220:1 1222:2 1230:2 1232:1 1233:1 1235:1 1238:2 1242:11
-1 238:1 403:1 496:1 629:1 650:1 855:1 910:1 1080:1 1123:1 1162:1 1191:1 1218:1 1219:1 1223:1 1227:1 1230:1 1234:1 1237:1 1241:1 1242:4 1244:36
-1 508:1 1070:1 1119:1 1162:1 1218:1 1222:1 1235:1 1242:1
-1 1058:1 1228:1 1242:1
-1 1162:1 1218:1 1242:1
-1 166:1 347:1 508:1 910:1 1066:1 1119:1 1162:1 1218:1 1222:1 1224:1 1230:1 1232:1 1235:1 1242:2
-1 166:1 347:1 509:1 578:1 1117:2 1119:1 1162:1 1218:1 1221:2 1222:1 1224:1 1232:1 1233:1 1238:1 1242:3
-1 1162:1 1218:1 1242:1
-1 166:1 509:1 910:3 1119:2 1162:4 1218:4 1222:2 1230:3 1232:1 1238:1 1242:5
-1 439:1 440:1 557:1 823:1 910:1 1113:1 1117:1 1119:1 1162:1 1218:1 1221:1 1222:1 1230:1 1242:1
-1 162:1 192:1 265:1 294:1 332:1 348:1 447:1 448:1 464:1 516:1 540:1 551:1 617:1 623:1 643:1 651:1 657:1 740:1 755:1 821:1 823:1 844:1 848:1 867:1 875:1 893:1 999:1 1025:1 1090:1 1105:1 1109:1 1115:1 1117:1 1151:1 1163:1 1177:1 1204:1 1221:1 1236:1 1242:2
-1 928:1 1240:1 1242:3
-1 928:1 1240:1 1242:3
-1 166:1 509:1 910:3 1119:2 1162:4 1218:4 1222:2 1230:3 1232:1 1238:1 1242:4
-1 233:1 1162:1 1218:1 1242:2
-1 423:1 982:1 1162:1 1218:1 1242:3
-1 928:1 1240:1 1242:3
-1 166:1 178:1 347:1 508:1 820:1 910:1 1119:1 1162:1 1215:1 1218:1 1220:1 1222:1 1224:1 1230:1 1232:1 1235:1 1242:4
-1 823:1 1242:2
-1 166:1 178:1 508:1 787:1 910:1 1119:1 1162:1 1215:1 1218:1 1222:1 1230:1 1232:1 1235:1 1242:3
-1 166:1 178:1 347:1 508:1 820:1 910:1 1119:1 1162:1 1215:1 1218:1 1220:1 1222:1 1224:1 1230:1 1232:1 1235:1 1242:2
-1 166:1 178:1 233:1 440:1 508:1 578:1 910:1 1119:1 1162:1 1215:1 1218:1 1222:1 1230:1 1232:1 1233:1 1235:1 1242:1
-1 1117:1 1162:1 1218:1 1221:1 1242:5
-1 156:1 187:1 192:1 265:1 348:1 352:1 516:1 551:1 557:1 617:1 657:1 712:1 740:1 780:1 803:1 823:1 844:1 848:1 867:1 875:1 893:1 975:1 999:1 1048:1 1090:1 1100:1 1109:1 1117:1 1151:1 1163:1 1204:1 1221:1 1242:2
-1 611:1 645:1 1162:1 1218:1 1242:2 1244:1
-1 274:1 347:1 509:1 910:1 928:1 1117:1 1119:1 1162:1 1218:1 1221:1 1222:1 1224:1 1230:1 1238:1 1240:1 1242:1
-1 928:1 1240:1 1242:2
-1 166:1 178:1 347:1 508:1 557:1 578:1 868:1 910:1 943:1 1119:1 1162:1 1215:1 1218:1 1222:1 1224:1 1230:1 1232:1 1233:1 1235:1 1242:3
-1 166:1 178:1 347:1 508:1 578:1 910:1 1066:1 1119:1 1162:1 1215:1 1218:1 1222:1 1224:1 1230:1 1232:1 1233:1 1235:1 1242:2
-1 166:1 509:1 910:2 1119:2 1162:2 1218:2 1222:2 1230:2 1232:1 1238:1 1242:7
-1 1162:1 1218:1 1242:1
-1 1162:1 1218:1 1242:2
-1 1242:1
-1 178:1 347:1 509:1 820:1 823:1 883:1 910:1 928:1 931:1 975:1 1117:1 1119:1 1128:1 1162:1 1214:1 1215:1 1218:1 1220:1 1221:1 1222:1 1224:1 1230:1 1238:1 1240:1 1242:2
-1 166:1 178:1 187:1 192:1 421:1 426:1 508:1 509:1 551:1 578:1 703:1 740:1 803:1 884:1 910:1 1109:1 1115:1 1117:1 1119:1 1128:1 1162:1 1163:1 1215:1 1218:1 1221:1 1222:1 1230:1 1232:1 1233:1 1235:1 1238:1 1242:1
-1 166:1 178:1 192:1 426:1 551:1 740:1 893:1 1109:1 1117:1 1119:1 1128:1 1162:1 1163:1 1215:1 1218:1 1221:1 1222:1 1232:1 1242:2
-1 170:1 185:1 198:1 347:1 508:1 571:1 665:1 1119:1 1162:1 1218:1 1222:1 1224:1 1235:1 1242:2
-1 233:1 347:1 409:1 509:1 569:1 592:1 651:1 820:1 823:1 889:1 910:1 1117:1 1119:1 1128:1 1162:1 1218:1 1220:1 1221:1 1222:1 1224:1 1230:1 1236:1 1238:1 1242:1 1244:5
-1 347:1 509:1 823:1 910:1 1117:1 1119:1 1162:1 1218:1 1221:1 1222:1 1224:1 1230:1 1238:1 1242:2 1244:5
-1 166:1 178:1 347:1 509:1 578:1 823:1 910:1 1117:1 1119:1 1128:1 1162:1 1215:1 1218:1 1221:1 1222:1 1224:1 1230:1 1232:1 1233:1 1238:1 1242:2 1244:5
-1 1117:2 1162:1 1218:1 1221:2 1242:2
-1 192:1 407:1 449:1 464:1 551:1 639:1 740:1 893:1 1109:1 1117:1 1163:1 1221:1 1242:3
-1 347:1 509:1 910:1 1117:1 1119:1 1162:1 1218:1 1221:1 1222:1 1224:1 1230:1 1238:1 1242:3
-1 347:1 509:1 910:1 1117:1 1119:1 1162:1 1218:1 1221:1 1222:1 1224:1 1230:1 1238:1 1242:3
-1 823:1 866:1 910:1 1117:1 1162:1 1218:1 1221:1 1230:1 1242:2
-1 215:1 426:1 509:1 803:1 819:1 823:1 910:1 1018:1 1117:1 1119:1 1162:1 1218:1 1221:1 1222:1 1230:1 1238:1 1242:1
-1 426:1 823:1 910:1 1117:1 1119:1 1162:1 1218:1 1221:1 1222:1 1230:1 1242:1
-1 508:1 910:1 1117:1 1119:1 1162:1 1218:1 1221:1 1222:1 1230:1 1235:1 1242:2
-1 166:1 189:1 336:1 384:1 508:1 703:1 729:1 1066:1 1119:1 1162:1 1218:1 1222:1 1232:1 1235:1 1242:1
-1 178:1 347:1 508:1 578:1 633:1 820:1 831:1 910:1 1119:1 1128:1 1162:1 1215:1 1218:1 1220:1 1222:1 1224:1 1230:1 1233:1 1235:1 1242:1
-1 166:1 178:1 233:1 314:1 347:1 433:1 439:1 440:1 508:1 509:1 578:1 820:1 831:1 910:1 911:1 1119:1 1128:1 1162:1 1215:1 1218:1 1220:1 1222:1 1224:1 1226:1 1230:1 1231:1 1232:1 1233:1 1235:1 1238:1 1242:1
-1 166:1 178:1 233:1 347:1 508:1 509:1 578:1 587:1 820:1 910:1 1119:1 1128:1 1162:1 1215:1 1218:1 1220:1 1222:1 1224:1 1230:1 1232:1 1233:1 1235:1 1238:1 1242:1
-1 138:1 166:1 178:1 347:1 508:1 509:1 578:1 910:1 1119:1 1128:1 1162:1 1215:1 1218:1 1222:1 1224:1 1230:1 1232:1 1233:1 1235:1 1238:1 1242:1
-1 178:1 439:1 1101:1 1117:1 1119:1 1162:1 1215:1 1218:1 1221:1 1222:1 1242:2
-1 166:1 178:1 508:1 509:2 820:1 910:2 1119:2 1162:4 1215:1 1218:4 1220:1 1222:2 1230:2 1232:1 1235:1 1238:2 1242:6
-1 331:1 472:1 979:1 1117:1 1162:1 1218:1 1221:1 1242:2
-1 331:1 357:1 472:1 910:1 979:1 1117:2 1162:1 1218:1 1221:2 1230:1 1242:2
-1 166:1 421:1 508:1 509:2 910:2 1119:2 1162:4 1218:4 1222:2 1230:2 1232:1 1235:1 1238:2 1242:6
-1 166:1 508:1 509:2 578:1 820:1 910:2 1119:2 1162:5 1218:5 1220:1 1222:2 1230:2 1232:1 1233:1 1235:1 1238:2 1242:7
-1 1058:1 1228:1 1242:1
-1 121:1 231:1 385:1 388:1 487:1 681:1 710:1 1081:1 1162:1 1218:1 1242:3
-1 166:1 178:1 192:1 347:1 551:1 740:1 910:1 1050:1 1109:1 1115:1 1117:1 1119:1 1162:1 1163:1 1215:1 1218:1 1221:1 1222:1 1224:1 1230:1 1232:1 1242:2
-1 238:1 241:1 288:1 400:1 403:1 496:1 629:1 650:1 855:1 1080:1 1093:1 1111:1 1162:1 1191:1 1217:1 1218:1 1219:1 1223:1 1227:1 1234:1 1237:1 1241:1 1242:3
-1 928:1 1240:1 1242:3
-1 192:1 265:1 348:1 352:1 464:1 516:1 551:1 740:1 838:1 841:1 848:1 893:1 1109:1 1117:1 1163:1 1221:1 1242:1
-1 192:1 265:1 348:1 352:1 426:1 464:1 516:1 551:1 617:1 740:1 805:1 841:1 844:1 848:1 893:1 975:1 1015:1 1021:1 1109:1 1115:1 1117:1 1163:1 1221:1 1242:2
-1 145:1 149:1 178:1 192:1 193:1 206:1 233:1 265:1 293:1 341:1 347:1 348:1 352:1 383:1 401:1 407:1 425:1 426:1 449:1 464:1 470:1 484:1 508:1 509:1 514:1 516:1 540:1 551:1 554:1 637:1 740:1 747:1 785:1 822:1 836:1 838:1 844:1 848:1 893:1 905:1 995:1 999:1 1008:1 1015:1 1051:1 1083:1 1109:1 1117:1 1119:1 1149:1 1155:1 1163:1 1212:1 1215:1 1221:1 1222:1 1224:1 1235:1 1238:1 1239:1 1242:2
-1 1058:1 1228:1 1242:1
-1 943:1 1162:1 1218:1 1242:2
-1 178:1 347:1 509:1 557:1 910:1 1119:1 1128:1 1162:1 1215:1 1218:1 1222:1 1224:1 1230:1 1238:1 1242:1
-1 910:1 1119:1 1162:1 1218:1 1222:1 1230:1 1242:2
-1 166:1 178:1 347:1 508:1 509:3 578:1 820:1 910:2 1119:2 1162:4 1215:1 1218:4 1220:1 1222:2 1224:1 1230:2 1232:1 1233:1 1235:1 1238:3 1242:6
-1 166:1 178:1 347:1 508:1 820:1 910:1 1119:1 1162:1 1215:1 1218:1 1220:1 1222:1 1224:1 1230:1 1232:1 1235:1 1242:3
-1 1162:1 1184:1 1218:1 1242:4
-1 440:1 578:1 592:1 820:1 910:1 1162:1 1218:1 1220:1 1230:1 1233:1 1242:1
-1 233:1 440:1 578:1 592:1 820:1 910:1 1162:1 1218:1 1220:1 1230:1 1233:1 1242:1
-1 178:1 347:1 703:1 910:1 1119:1 1162:1 1215:1 1218:1 1222:1 1224:1 1230:1 1242:1
-1 233:1 347:1 440:1 509:1 578:1 592:1 633:1 820:1 910:1 1162:1 1218:1 1220:1 1224:1 1230:1 1233:1 1238:1 1242:1
-1 440:1 578:1 820:1 910:1 1162:1 1218:1 1220:1 1230:1 1233:1 1242:1
-1 578:1 592:1 820:1 910:1 1162:1 1218:1 1220:1 1230:1 1233:1 1242:1
-1 233:1 440:1 508:1 578:1 592:1 820:1 910:1 1119:1 1162:1 1218:1 1220:1 1222:1 1230:1 1233:1 1235:1 1242:1
-1 1058:1 1228:1 1242:1
-1 440:1 578:1 592:1 820:1 910:1 1162:1 1218:1 1220:1 1230:1 1233:1 1242:1
-1 233:1 347:1 421:1 509:1 578:1 820:1 910:1 1073:1 1162:1 1218:1 1220:1 1224:1 1230:1 1233:1 1238:1 1242:1
-1 1162:1 1218:1 1242:2
-1 166:1 178:1 215:1 347:1 508:1 509:1 593:1 820:1 823:1 910:1 1117:1 1119:1 1128:1 1162:1 1215:1 1218:1 1220:1 1221:1 1222:1 1224:1 1230:1 1232:1 1235:1 1238:1 1242:2
-1 440:1 578:1 592:1 820:1 910:1 1162:1 1218:1 1220:1 1230:1 1233:1 1242:1
-1 233:1 440:1 508:1 578:1 592:1 820:1 910:1 1119:1 1162:1 1218:1 1220:1 1222:1 1230:1 1233:1 1235:1 1242:1
-1 233:1 440:1 578:1 820:1 910:1 1162:1 1218:1 1220:1 1230:1 1233:1 1242:1
-1 178:1 347:1 457:1 509:1 703:1 869:1 910:1 1162:1 1215:1 1218:1 1224:1 1230:1 1238:1 1242:1
-1 281:1 342:1 1119:1 1162:1 1218:1 1222:1 1242:1
-1 823:1 910:1 1117:1 1119:1 1162:1 1218:1 1221:1 1222:1 1230:1 1242:1
-1 281:1 347:1 910:1 1162:1 1218:1 1224:1 1230:1 1242:2
-1 1242:1
-1 928:1 1240:1 1242:3
-1 166:1 174:1 178:1 198:1 208:1 222:1 232:1 347:1 421:1 462:1 508:1 509:1 703:1 823:1 888:1 910:1 1117:1 1119:1 1128:1 1147:1 1162:1 1215:1 1218:1 1221:1 1222:1 1224:1 1230:1 1232:1 1235:1 1238:1 1242:2
-1 928:1 1240:1 1242:4
-1 928:1 1240:1 1242:2
-1 1162:1 1218:1 1242:2
-1 166:1 178:1 347:1 421:1 508:1 578:1 910:1 1068:1 1119:1 1162:1 1215:1 1218:1 1222:1 1224:1 1230:1 1232:1 1233:1 1235:1 1242:2
-1 166:1 578:1 910:1 1119:1 1162:1 1218:1 1222:1 1230:1 1232:1 1233:1 1242:2
-1 166:1 178:1 347:1 421:1 508:1 578:1 910:1 1068:1 1119:1 1162:1 1215:1 1218:1 1222:1 1224:1 1230:1 1232:1 1233:1 1235:1 1242:2
-1 166:1 178:1 347:1 508:1 578:1 910:1 1119:1 1162:1 1215:1 1218:1 1222:1 1224:1 1230:1 1232:1 1233:1 1235:1 1242:3
-1 179:1 314:1 557:1 910:1 1117:1 1119:1 1162:1 1218:1 1221:1 1222:1 1230:1 1242:2
-1 166:1 178:1 190:1 347:1 439:1 509:1 527:1 557:1 632:1 758:1 823:1 910:1 981:1 985:1 1117:1 1119:1 1128:1 1162:1 1215:1 1218:1 1221:1 1222:1 1224:1 1230:1 1232:1 1238:1 1242:1
-1 347:1 823:1 910:1 1117:1 1119:1 1128:1 1162:1 1218:1 1221:1 1222:1 1224:1 1230:1 1242:1
-1 166:1 178:1 347:1 508:1 820:1 910:1 1119:1 1162:1 1215:1 1218:1 1220:1 1222:1 1224:1 1230:1 1232:1 1235:1 1242:3
-1 717:1 869:1 1119:1 1162:1 1218:1 1222:1 1242:2
-1 166:1 178:1 347:1 421:1 508:1 509:1 578:1 609:1 910:1 1117:1 1119:1 1162:1 1215:1 1218:1 1221:1 1222:1 1224:1 1230:1 1232:1 1233:1 1235:1 1238:1 1242:4
-1 121:1 421:1 710:1 1081:1 1162:1 1218:1 1242:2
-1 178:1 347:1 508:1 509:1 557:1 910:1 1119:1 1162:1 1215:1 1218:1 1222:1 1224:1 1230:1 1235:1 1238:1 1242:2
-1 281:1 517:1 1162:1 1218:1 1242:2
-1 1066:1 1158:1 1162:1 1218:1 1242:3
-1 592:1 1117:1 1119:1 1162:1 1218:1 1221:1 1222:1 1242:2
-1 178:1 233:1 314:1 347:1 413:1 421:1 508:1 509:1 803:1 910:1 993:1 1068:1 1119:1 1162:1 1215:1 1218:1 1222:1 1224:1 1230:1 1235:1 1238:1 1242:3 1244:74
-1 166:1 178:1 347:1 508:1 509:1 578:1 910:1 1117:2 1119:1 1162:1 1215:1 1218:1 1221:2 1222:1 1224:1 1230:1 1232:1 1233:1 1235:1 1238:1 1242:3
-1 123:1 178:1 387:1 421:1 508:1 710:1 910:1 1101:1 1117:1 1119:1 1162:1 1215:1 1218:1 1221:1 1222:1 1230:1 1235:1 1242:2
-1 323:1 823:1 910:1 1084:1 1117:1 1119:1 1162:1 1218:1 1221:1 1222:1 1230:1 1242:2
-1 418:1 421:1 530:1 544:1 1117:2 1154:1 1162:1 1218:1 1221:2 1242:4
-1 166:1 178:1 347:1 508:1 509:1 557:1 787:1 820:1 910:1 1119:1 1162:1 1215:1 1218:1 1220:1 1222:1 1224:1 1230:1 1232:1 1235:1 1238:1 1242:2
-1 943:1 1162:1 1218:1 1242:2
-1 172:1 178:1 184:1 347:1 354:1 630:1 638:1 727:1 778:1 982:1 1148:1 1162:1 1215:1 1218:1 1224:1 1242:1
-1 910:1 1117:1 1162:1 1218:1 1221:1 1230:1 1242:4
-1 166:1 509:1 910:3 1119:2 1162:4 1218:4 1222:2 1230:3 1232:1 1238:1 1242:5
-1 138:1 166:1 178:1 347:1 358:1 508:1 509:1 578:1 910:1 1119:1 1162:1 1215:1 1218:1 1222:1 1224:1 1230:1 1232:1 1233:1 1235:1 1238:1 1242:2
-1 171:1 178:1 354:1 638:1 948:1 1117:1 1148:1 1162:1 1200:1 1215:1 1218:1 1221:1 1242:5
-1 178:1 233:1 238:1 241:1 288:1 347:1 403:1 421:1 496:1 508:1 509:1 545:1 629:1 650:1 710:1 827:1 855:1 910:1 1068:1 1080:1 1093:1 1119:1 1162:1 1191:1 1215:1 1217:1 1218:1 1219:1 1222:1 1223:1 1224:1 1227:1 1230:1 1234:1 1235:1 1237:1 1238:1 1241:1 1242:4
-1 421:1 943:1 1119:1 1162:1 1218:1 1222:1 1242:2
-1 233:1 347:1 421:1 508:1 910:1 1119:1 1162:1 1218:1 1222:1 1224:1 1230:1 1235:1 1242:1
-1 171:1 331:1 472:1 1117:1 1162:1 1200:1 1218:1 1221:1 1242:8
-1 171:1 331:1 472:1 1117:1 1162:1 1200:1 1218:1 1221:1 1242:7
-1 171:1 331:1 472:1 1117:1 1162:1 1200:1 1218:1 1221:1 1242:7
-1 171:1 331:1 472:1 1117:1 1162:1 1200:1 1218:1 1221:1 1242:8
-1 573:1 1117:1 1119:1 1162:1 1218:1 1221:1 1222:1 1242:2
-1 166:1 508:1 509:1 910:2 1119:2 1162:3 1218:3 1222:2 1230:2 1232:1 1235:1 1238:1 1242:6
-1 141:1 162:1 192:1 193:1 256:1 265:1 282:1 302:1 314:1 321:1 352:1 407:1 426:1 449:1 454:1 489:1 501:1 509:1 519:1 551:1 599:1 608:1 615:1 639:1 703:1 716:1 731:1 733:1 740:1 756:1 840:1 848:1 893:1 905:1 906:1 915:1 936:1 966:1 999:1 1005:1 1031:1 1083:1 1090:1 1109:1 1115:1 1117:1 1126:1 1151:1 1163:1 1179:1 1212:1 1221:1 1238:1 1242:1
-1 166:1 178:1 347:1 508:1 820:1 910:1 1119:1 1162:1 1215:1 1218:1 1220:1 1222:1 1224:1 1230:1 1232:1 1235:1 1242:2
-1 323:1 823:1 1084:1 1117:1 1119:1 1162:1 1218:1 1221:1 1222:1 1242:2
-1 323:1 1084:1 1117:1 1119:1 1162:1 1218:1 1221:1 1222:1 1242:1
-1 166:1 178:1 347:1 508:1 820:1 910:1 1119:1 1162:1 1215:1 1218:1 1220:1 1222:1 1224:1 1230:1 1232:1 1235:1 1242:3
-1 166:1 178:1 347:1 508:1 509:3 578:1 820:1 910:2 1119:2 1162:5 1215:1 1218:5 1220:1 1222:2 1224:1 1230:2 1232:1 1233:1 1235:1 1238:3 1242:6
-1 233:1 1117:2 1162:1 1218:1 1221:2 1242:4 1244:352
-1 166:1 178:1 347:1 421:1 508:1 578:1 910:1 1119:1 1162:1 1215:1 1218:1 1222:1 1224:1 1230:1 1232:1 1233:1 1235:1 1242:2
-1 928:1 1240:1 1242:4
-1 178:1 233:1 314:1 462:1 508:1 910:1 1073:1 1117:2 1119:1 1162:1 1215:1 1218:1 1221:2 1222:1 1230:1 1235:1 1242:4 1244:9616
-1 166:1 178:2 347:2 421:1 508:1 509:3 578:1 820:1 910:2 957:1 981:2 1119:2 1162:5 1215:2 1218:5 1220:1 1222:2 1224:2 1230:2 1232:1 1233:1 1235:1 1238:3 1242:6
-1 233:1 404:1 1117:2 1162:1 1218:1 1221:2 1242:4 1244:354
-1 233:1 1117:2 1162:1 1218:1 1221:2 1242:4 1244:419
-1 166:1 178:1 198:1 233:1 316:1 347:1 421:1 508:1 509:1 557:1 578:1 663:1 703:1 719:1 831:1 897:1 910:1 931:1 938:1 970:1 1066:1 1068:1 1073:1 1119:1 1128:1 1162:1 1214:1 1215:1 1218:1 1222:1 1224:1 1225:1 1230:1 1232:1 1233:1 1235:1 1238:1 1242:1 1244:24
-1 928:1 1240:1 1242:3
-1 928:1 1240:1 1242:2
-1 166:1 178:1 347:1 508:1 509:1 578:1 820:1 910:1 1119:1 1162:1 1215:1 1218:1 1220:1 1222:1 1224:1 1230:1 1232:1 1233:1 1235:1 1238:1 1242:1
-1 166:1 508:1 509:2 820:1 832:1 910:2 1119:2 1162:4 1218:4 1220:1 1222:2 1230:2 1232:1 1235:1 1238:2 1242:6
-1 178:1 910:1 1119:1 1162:1 1215:1 1218:1 1222:1 1230:1 1242:2
-1 233:1 814:1 823:1 908:1 910:1 1117:1 1162:1 1218:1 1221:1 1230:1 1242:3
-1 178:1 908:1 910:1 1117:1 1119:1 1162:1 1215:1 1218:1 1221:1 1222:1 1230:1 1242:2
-1 178:1 232:1 314:1 419:1 426:1 509:1 828:1 910:1 1117:1 1119:1 1128:1 1162:1 1215:1 1218:1 1221:1 1222:1 1230:1 1238:1 1242:2
-1 377:1 557:1 823:1 910:1 1117:1 1119:1 1162:1 1218:1 1221:1 1222:1 1230:1 1242:2
-1 1162:1 1218:1 1242:1
-1 233:1 1162:1 1218:1 1242:1
-1 910:1 943:1 1162:1 1218:1 1230:1 1242:2
-1 1058:1 1228:1 1242:1
-1 1117:1 1162:1 1218:1 1221:1 1242:3
-1 178:1 232:1 314:1 347:1 401:1 407:1 439:1 440:1 449:1 508:1 557:1 823:1 910:1 1084:1 1117:1 1119:1 1162:1 1215:1 1218:1 1221:1 1222:1 1224:1 1230:1 1235:1 1242:1
-1 232:1 823:1 910:1 1084:1 1117:1 1119:1 1162:1 1218:1 1221:1 1222:1 1230:1 1242:2
-1 233:1 347:1 426:1 509:1 823:1 884:1 910:1 1084:1 1117:1 1119:1 1162:1 1218:1 1221:1 1222:1 1224:1 1230:1 1238:1 1242:2
-1 178:1 347:1 426:1 509:1 823:1 910:1 975:1 1117:1 1119:1 1162:1 1215:1 1218:1 1221:1 1222:1 1224:1 1230:1 1238:1 1242:2
-1 178:1 347:1 509:1 557:1 823:1 910:1 975:1 1084:1 1117:1 1162:1 1215:1 1218:1 1221:1 1224:1 1230:1 1238:1 1242:2
-1 314:1 910:1 1117:1 1119:1 1128:1 1162:1 1218:1 1221:1 1222:1 1230:1 1242:1
-1 137:1 162:1 192:1 265:1 348:1 352:1 383:1 414:1 416:1 464:1 551:1 612:1 629:1 657:1 661:1 740:1 755:1 785:1 821:1 823:1 844:1 848:1 875:1 893:1 894:1 1015:1 1021:1 1090:1 1109:1 1115:1 1151:1 1163:1 1223:1 1242:3
-1 192:1 426:1 464:1 509:1 551:1 740:1 823:1 839:1 910:1 1109:1 1117:1 1119:1 1162:1 1163:1 1218:1 1221:1 1222:1 1230:1 1238:1 1242:1
-1 421:1 1162:1 1218:1 1242:2
-1 232:1 401:1 910:1 1117:1 1119:1 1126:1 1162:1 1218:1 1221:1 1222:1 1230:1 1242:2
-1 166:1 178:1 314:1 347:1 508:1 509:1 557:1 703:1 820:1 910:1 1119:1 1162:1 1215:1 1218:1 1220:1 1222:1 1224:1 1230:1 1232:1 1235:1 1238:1 1242:1
-1 1162:1 1184:1 1218:1 1242:2
-1 178:1 223:1 281:1 910:1 1119:1 1162:1 1215:1 1218:1 1222:1 1230:1 1242:1
-1 928:1 1240:1 1242:4
-1 438:1 557:1 823:1 910:1 1117:1 1119:1 1162:1 1218:1 1221:1 1222:1 1230:1 1242:1
-1 166:1 910:1 1119:1 1162:1 1218:1 1222:1 1230:1 1232:1 1242:2
-1 166:1 178:1 194:1 347:1 440:1 508:1 509:1 557:1 578:1 910:1 993:1 1119:1 1128:1 1162:1 1215:1 1218:1 1222:1 1224:1 1230:1 1232:1 1233:1 1235:1 1238:1 1242:2
-1 166:1 178:1 347:1 440:1 508:1 509:1 557:1 578:1 910:1 993:1 1119:1 1162:1 1215:1 1218:1 1222:1 1224:1 1230:1 1232:1 1233:1 1235:1 1238:1 1242:2
-1 166:1 178:1 192:1 265:1 383:1 426:1 438:1 509:1 516:1 540:1 551:1 612:1 617:1 623:1 643:1 740:1 755:1 823:1 844:1 848:1 893:1 985:1 1090:1 1109:1 1115:1 1117:1 1119:1 1128:1 1163:1 1177:1 1209:1 1215:1 1221:1 1222:1 1232:1 1238:1 1242:3
-1 192:1 347:1 348:1 352:1 407:1 426:1 449:1 464:1 516:1 551:1 740:1 750:1 822:1 848:1 893:1 999:1 1021:1 1047:1 1083:1 1109:1 1117:1 1162:1 1163:1 1218:1 1221:1 1224:1 1242:2
-1 166:1 178:1 347:1 421:1 504:1 508:1 509:1 663:1 703:1 820:1 902:1 910:1 931:1 970:1 1000:1 1066:1 1119:1 1128:1 1162:1 1214:1 1215:1 1218:1 1220:1 1222:1 1224:1 1225:1 1230:1 1232:1 1235:1 1238:1 1242:2
-1 278:1 578:1 1119:1 1162:1 1218:1 1222:1 1233:1 1242:4
-1 928:1 1240:1 1242:3
-1 394:1 866:1 1117:1 1162:1 1218:1 1221:1 1242:2
-1 166:1 347:1 438:1 439:1 509:1 557:1 651:1 820:1 823:1 910:1 911:1 972:1 976:1 995:1 1117:1 1119:1 1128:1 1162:1 1218:1 1220:1 1221:1 1222:1 1224:1 1230:1 1231:1 1232:1 1236:1 1238:1 1239:1 1242:1 1244:66
-1 928:1 1240:1 1242:3
-1 509:1 910:1 1119:2 1162:3 1218:3 1222:2 1230:1 1238:1 1242:6
-1 928:1 1240:1 1242:2
-1 508:1 578:1 820:1 910:1 1119:1 1162:1 1218:1 1220:1 1222:1 1230:1 1233:1 1235:1 1242:1
-1 166:1 178:1 276:1 347:1 508:1 578:1 589:1 823:1 866:1 910:1 935:1 975:1 976:1 1117:1 1119:1 1128:1 1162:1 1215:1 1218:1 1221:1 1222:1 1224:1 1230:1 1232:1 1233:1 1235:1 1242:2
-1 178:1 1015:1 1117:1 1162:1 1215:1 1218:1 1221:1 1242:2
-1 192:1 233:1 265:1 307:1 330:1 348:1 464:1 516:1 551:1 617:1 657:1 712:1 740:1 823:1 844:1 848:1 867:1 893:1 999:1 1025:1 1090:1 1109:1 1115:1 1117:1 1151:1 1163:1 1221:1 1242:2
-1 166:1 509:1 910:2 1119:2 1162:2 1218:2 1222:2 1230:2 1232:1 1238:1 1242:7
-1 508:1 578:1 910:1 1119:1 1162:1 1218:1 1222:1 1230:1 1233:1 1235:1 1242:1
-1 823:1 910:1 1117:1 1162:1 1218:1 1221:1 1230:1 1242:1
-1 508:1 1119:1 1162:1 1218:1 1222:1 1235:1 1242:1
-1 192:1 348:1 464:1 516:1 551:1 740:1 893:1 1109:1 1117:1 1135:1 1163:1 1221:1 1242:1
-1 167:1 347:1 1117:1 1119:1 1162:1 1193:1 1218:1 1221:1 1222:1 1224:1 1242:2
-1 166:1 178:1 508:1 509:2 578:1 910:2 1119:2 1162:4 1215:1 1218:4 1222:2 1230:2 1232:1 1233:1 1235:1 1238:2 1242:6
-1 508:1 578:1 910:1 1119:1 1162:1 1218:1 1222:1 1230:1 1233:1 1235:1 1242:1
-1 233:1 949:1 1162:1 1218:1 1242:2
-1 928:1 1240:1 1242:2
-1 928:1 1240:1 1242:3
-1 949:1 1162:1 1218:1 1242:3
-1 1117:1 1182:1 1221:1 1242:2
-1 166:1 178:1 179:1 192:1 314:1 348:1 426:1 440:1 491:1 523:1 551:1 557:1 578:1 740:1 744:1 823:1 893:1 910:1 1109:1 1117:1 1119:1 1162:1 1163:1 1215:1 1218:1 1221:1 1222:1 1230:1 1232:1 1233:1 1242:1
-1 178:1 233:1 1119:1 1162:1 1215:1 1218:1 1222:1 1242:2
-1 192:1 265:1 348:1 426:1 516:1 551:1 557:1 617:1 633:1 639:1 657:1 740:1 821:1 844:1 848:1 893:1 999:1 1025:1 1077:1 1109:1 1115:1 1117:1 1163:1 1204:1 1221:1 1242:2
-1 218:1 426:1 438:1 509:1 820:1 823:1 910:1 1117:1 1119:1 1162:1 1218:1 1220:1 1221:1 1222:1 1230:1 1238:1 1242:1
-1 192:1 348:1 352:1 407:1 426:1 449:1 464:1 516:1 536:1 551:1 740:1 785:1 822:1 841:1 844:1 848:1 893:1 975:1 999:1 1021:1 1083:1 1109:1 1115:1 1117:1 1163:1 1221:1 1242:2
-1 192:1 348:1 352:1 426:1 449:1 464:1 516:1 540:1 551:1 740:1 750:1 822:1 841:1 848:1 893:1 1083:1 1109:1 1117:1 1163:1 1221:1 1242:1 1244:2
-1 928:1 1240:1 1242:3
-1 166:1 178:1 347:1 508:1 509:3 578:1 820:1 910:2 1119:2 1162:5 1215:1 1218:5 1220:1 1222:2 1224:1 1230:2 1232:1 1233:1 1235:1 1238:3 1242:6
-1 166:1 347:1 508:1 509:3 578:1 820:1 910:2 1119:2 1162:5 1218:5 1220:1 1222:2 1224:1 1230:2 1232:1 1233:1 1235:1 1238:3 1242:6
-1 192:1 352:1 551:1 740:1 848:1 893:1 1109:1 1117:1 1163:1 1221:1 1242:2
-1 303:1 508:1 710:1 1081:1 1117:2 1119:1 1162:1 1218:1 1221:2 1222:1 1235:1 1242:2
-1 192:1 294:1 551:1 709:1 740:1 821:1 823:1 893:1 910:1 1109:1 1117:1 1162:1 1163:1 1218:1 1221:1 1230:1 1242:3
-1 823:1 866:1 1117:1 1162:1 1218:1 1221:1 1242:2
-1 233:1 1162:1 1218:1 1242:2
-1 578:1 1119:1 1162:1 1218:1 1222:1 1233:1 1242:4
-1 928:1 1240:1 1242:3
-1 439:1 509:1 754:1 910:1 1119:2 1162:3 1218:3 1222:2 1230:1 1238:1 1242:6
-1 178:1 1117:1 1162:1 1215:1 1218:1 1221:1 1242:1
-1 573:1 1117:1 1119:1 1162:1 1218:1 1221:1 1222:1 1242:2
-1 178:1 426:1 1117:1 1162:1 1215:1 1218:1 1221:1 1242:3
-1 166:1 178:1 347:1 508:1 820:1 910:1 1119:1 1162:1 1215:1 1218:1 1220:1 1222:1 1224:1 1230:1 1232:1 1235:1 1242:2
-1 910:1 1117:1 1119:1 1162:1 1218:1 1221:1 1222:1 1230:1 1242:2
-1 166:1 178:1 347:1 508:1 820:1 910:1 1119:1 1162:1 1215:1 1218:1 1220:1 1222:1 1224:1 1230:1 1232:1 1235:1 1242:3
-1 178:1 347:1 508:1 1119:1 1162:1 1215:1 1218:1 1222:1 1224:1 1235:1 1242:1
-1 662:1 1117:1 1119:1 1162:1 1218:1 1221:1 1222:1 1242:2
-1 171:1 354:1 638:1 1117:1 1148:1 1162:1 1200:1 1218:1 1221:1 1242:6
-1 910:1 1117:2 1162:1 1218:1 1221:2 1230:1 1242:5 1244:275
-1 233:1 910:1 1117:2 1162:1 1218:1 1221:2 1230:1 1242:5 1244:424
-1 233:1 910:1 1117:2 1162:1 1218:1 1221:2 1230:1 1242:5 1244:305
-1 192:1 263:1 265:1 314:1 319:1 348:1 383:1 426:1 482:1 551:1 617:1 623:1 639:1 653:1 697:1 740:1 844:1 848:1 875:1 893:1 1109:1 1115:1 1117:1 1163:1 1221:1 1242:2
-1 192:1 263:1 265:1 314:1 319:1 348:1 383:1 426:1 482:1 551:1 617:1 623:1 639:1 653:1 697:1 740:1 844:1 848:1 875:1 893:1 1109:1 1115:1 1117:1 1163:1 1221:1 1242:2
-1 192:1 263:1 348:1 383:1 426:1 482:1 551:1 697:1 740:1 848:1 875:1 893:1 1090:1 1109:1 1115:1 1117:1 1163:1 1177:1 1221:1 1242:2
-1 192:1 263:1 348:1 383:1 426:1 482:1 551:1 697:1 740:1 848:1 875:1 893:1 1090:1 1109:1 1115:1 1117:1 1163:1 1177:1 1221:1 1242:2
-1 823:1 910:1 1117:1 1162:1 1218:1 1221:1 1230:1 1242:2
-1 166:1 178:1 347:1 439:1 508:1 509:1 578:1 803:1 910:1 970:1 1119:1 1128:1 1162:1 1215:1 1218:1 1222:1 1224:1 1225:1 1230:1 1232:1 1233:1 1235:1 1238:1 1242:1
-1 1162:1 1218:1 1242:1
-1 1162:1 1218:1 1242:1
-1 1162:1 1218:1 1242:1
-1 714:1 869:1 1162:1 1218:1 1242:2
-1 601:1 1117:1 1162:1 1218:1 1221:1 1242:4
-1 192:1 348:1 383:1 426:1 439:1 464:1 509:1 551:1 557:1 629:1 639:1 661:1 740:1 741:1 823:1 844:1 860:1 894:1 910:1 975:1 995:1 1090:1 1099:1 1109:1 1115:1 1119:1 1162:1 1163:1 1177:1 1218:1 1222:1 1223:1 1230:1 1238:1 1239:1 1242:1
-1 233:1 506:1 645:1 1162:1 1218:1 1242:1
-1 1058:1 1228:1 1242:1
-1 233:1 823:1 910:1 1082:1 1117:1 1119:1 1162:1 1218:1 1221:1 1222:1 1230:1 1242:1
-1 1162:1 1218:1 1242:3
-1 166:1 178:1 347:1 440:1 508:1 509:1 578:1 820:1 910:1 1119:1 1162:1 1215:1 1218:1 1220:1 1222:1 1224:1 1230:1 1232:1 1233:1 1235:1 1238:1 1242:1
-1 1117:1 1162:1 1218:1 1221:1 1242:6
-1 1162:1 1218:1 1242:3
-1 192:1 233:1 348:1 516:1 551:1 657:1 740:1 823:1 893:1 999:1 1073:1 1090:1 1102:1 1109:1 1115:1 1117:1 1163:1 1221:1 1242:2
-1 166:1 508:1 1119:1 1162:1 1218:1 1222:1 1232:1 1235:1 1242:3
-1 233:1 404:1 415:1 847:1 910:1 1119:1 1162:1 1218:1 1222:1 1230:1 1242:1
-1 314:1 433:1 557:1 823:1 884:1 910:1 911:1 1117:1 1162:1 1218:1 1221:1 1226:1 1230:1 1231:1 1242:1
-1 331:1 357:1 472:1 763:1 1117:2 1162:1 1218:1 1221:2 1242:2
-1 192:1 265:1 330:1 348:1 426:1 464:1 509:1 516:1 551:1 661:1 712:1 740:1 822:1 848:1 875:1 893:1 999:1 1021:1 1109:1 1115:1 1117:1 1163:1 1221:1 1238:1 1242:3
-1 928:1 1240:1 1242:3
-1 910:1 943:1 1119:1 1162:1 1218:1 1222:1 1230:1 1242:2
-1 166:1 1117:1 1119:1 1162:1 1218:1 1221:1 1222:1 1232:1 1242:2
-1 166:1 178:1 347:1 381:1 508:1 636:1 823:1 910:1 1117:1 1119:1 1162:1 1215:1 1218:1 1221:1 1222:1 1224:1 1230:1 1232:1 1235:1 1242:3
-1 1162:1 1184:2 1218:1 1242:2
-1 138:1 178:1 347:1 439:1 508:1 509:1 578:1 820:1 910:1 1113:1 1119:1 1128:1 1162:1 1215:1 1218:1 1220:1 1222:1 1224:1 1230:1 1233:1 1235:1 1238:1 1242:1
-1 233:1 287:13 1117:2 1162:1 1218:1 1221:2 1242:5
-1 508:1 578:1 820:1 910:1 1119:1 1162:1 1218:1 1220:1 1222:1 1230:1 1233:1 1235:1 1242:1
-1 178:1 314:1 319:1 347:1 439:1 508:1 578:1 910:1 931:1 1117:1 1119:1 1128:1 1162:1 1214:1 1215:1 1218:1 1221:1 1222:1 1224:1 1230:1 1233:1 1235:1 1242:4
-1 178:1 314:1 419:1 433:1 884:1 910:1 1117:1 1119:1 1162:1 1215:1 1218:1 1221:1 1222:1 1226:1 1230:1 1242:2
-1 928:1 1240:1 1242:3
-1 178:1 192:1 330:1 551:1 617:1 740:1 823:1 844:1 893:1 999:1 1109:1 1117:1 1119:1 1128:1 1162:1 1163:1 1215:1 1218:1 1221:1 1222:1 1242:2
-1 166:1 178:1 192:1 265:1 330:1 347:1 348:1 352:1 407:1 426:1 449:1 464:1 508:1 516:1 551:1 623:1 740:1 823:1 844:1 893:1 910:1 975:1 999:1 1109:1 1117:1 1119:1 1128:1 1162:1 1163:1 1209:1 1215:1 1218:1 1221:1 1222:1 1224:1 1230:1 1232:1 1235:1 1242:1
-1 508:1 578:1 846:1 1117:1 1119:1 1162:1 1218:1 1221:1 1222:1 1233:1 1235:1 1242:2
-1 178:1 910:1 1119:1 1162:3 1215:1 1218:3 1222:1 1230:1 1242:6
-1 162:1 192:1 251:1 265:1 348:1 407:1 426:1 449:1 464:1 551:1 557:1 629:1 661:1 740:1 780:1 785:1 848:1 893:1 894:1 1083:1 1090:1 1109:1 1163:1 1223:1 1242:3
-1 1084:1 1117:1 1119:1 1162:1 1218:1 1221:1 1222:1 1242:2
-1 871:1 943:1 1162:1 1218:1 1242:1
-1 1162:1 1218:1 1242:3
-1 928:1 1240:1 1242:3
-1 928:1 1240:1 1242:3
-1 1117:1 1162:1 1218:1 1221:1 1242:4
-1 769:1 1117:1 1221:1 1242:2
-1 331:1 357:1 466:1 472:1 710:1 749:1 1117:2 1162:1 1218:1 1221:2 1242:6
-1 910:1 1117:1 1162:1 1218:1 1221:1 1230:1 1242:2
-1 155:1 598:1 1117:1 1221:1 1242:2
-1 928:1 1240:1 1242:4
-1 166:1 178:2 347:2 421:1 440:1 508:2 509:3 578:1 820:1 910:2 931:1 1000:1 1068:1 1117:1 1119:2 1162:5 1214:1 1215:2 1218:5 1220:1 1221:1 1222:2 1224:2 1230:2 1232:1 1233:1 1235:2 1238:3 1242:6
-1 928:1 1240:1 1242:3
-1 928:1 1240:1 1242:3
-1 928:1 1240:1 1242:3
-1 928:1 1240:1 1242:3
-1 928:1 1240:1 1242:2
-1 928:1 1240:1 1242:2
-1 166:1 509:1 910:2 1119:2 1162:2 1218:2 1222:2 1230:2 1232:1 1238:1 1242:6
-1 928:1 1240:1 1242:2
-1 928:1 1240:1 1242:4
-1 928:1 1240:1 1242:2
-1 166:1 178:1 347:1 508:1 509:1 820:1 910:1 1119:1 1162:1 1215:1 1218:1 1220:1 1222:1 1224:1 1230:1 1232:1 1235:1 1238:1 1242:5
-1 166:1 178:1 347:1 508:1 509:1 820:1 910:1 1119:1 1162:1 1215:1 1218:1 1220:1 1222:1 1224:1 1230:1 1232:1 1235:1 1238:1 1242:5
-1 458:1 508:1 645:1 668:1 799:1 910:1 1119:1 1162:1 1218:1 1222:1 1230:1 1235:1 1242:2
-1 116:1 204:1 347:1 509:1 751:1 1066:1 1119:1 1162:1 1218:1 1222:1 1224:1 1238:1 1242:1 1244:1
-1 388:1 423:1 457:1 681:1 710:1 746:1 773:1 869:1 950:1 1069:1 1081:1 1162:1 1218:1 1242:1
-1 178:1 238:1 241:1 403:1 496:1 629:1 650:1 831:1 855:1 910:1 1042:1 1080:1 1119:1 1127:1 1128:1 1162:1 1191:1 1215:1 1218:1 1219:1 1222:1 1223:1 1227:1 1230:1 1234:1 1237:1 1241:1 1242:3
-1 166:1 178:1 347:1 508:1 578:1 645:1 881:1 910:1 1119:1 1162:1 1215:1 1218:1 1222:1 1224:1 1230:1 1232:1 1233:1 1235:1 1242:1
-1 156:1 192:1 265:1 307:1 330:1 348:1 362:1 426:1 509:1 516:1 540:1 551:1 617:1 657:1 712:1 740:1 821:1 823:1 844:1 848:1 893:1 999:1 1021:1 1090:1 1109:1 1115:1 1117:1 1163:1 1204:1 1221:1 1238:1 1242:3
-1 166:1 178:1 508:1 578:1 910:1 970:1 976:1 1119:1 1162:1 1215:1 1218:1 1222:1 1225:1 1230:1 1232:1 1233:1 1235:1 1242:3 1244:123
-1 137:1 162:1 169:1 192:1 264:1 347:1 426:1 509:1 516:1 542:1 551:1 740:1 755:1 785:1 823:1 844:1 848:1 893:1 999:1 1090:1 1109:1 1115:1 1117:1 1119:1 1162:1 1163:1 1218:1 1221:1 1222:1 1224:1 1238:1 1242:1
-1 166:1 178:2 347:1 451:1 479:1 508:1 509:3 556:1 703:1 820:1 910:2 1023:1 1035:1 1119:3 1162:4 1215:2 1218:4 1220:1 1222:3 1224:1 1230:2 1232:1 1235:1 1238:3 1242:4 1244:1
-1 166:1 347:1 508:1 509:3 820:1 910:2 1119:2 1162:4 1218:4 1220:1 1222:2 1224:1 1230:2 1232:1 1235:1 1238:3 1242:6
-1 166:1 178:1 347:1 421:1 508:1 509:3 820:1 910:2 943:1 1119:2 1162:4 1215:1 1218:4 1220:1 1222:2 1224:1 1230:2 1232:1 1235:1 1238:3 1242:6
-1 122:1 178:1 408:1 508:1 703:1 885:1 910:1 1045:1 1119:1 1121:1 1162:1 1215:1 1218:1 1222:1 1230:1 1235:1 1242:4
-1 166:1 347:1 421:1 508:1 509:3 578:1 820:1 910:2 1119:2 1162:4 1218:4 1220:1 1222:2 1224:1 1230:2 1232:1 1233:1 1235:1 1238:3 1242:6
-1 928:1 1240:1 1242:2
-1 178:1 434:1 823:1 910:1 1117:1 1119:1 1162:1 1215:1 1218:1 1221:1 1222:1 1230:1 1242:2
-1 426:1 509:1 557:1 910:1 1117:1 1119:1 1162:1 1218:1 1221:1 1222:1 1230:1 1238:1 1242:1
-1 156:1 166:1 178:1 192:1 218:1 232:1 265:1 294:1 314:1 347:1 348:1 362:1 381:1 383:1 426:1 438:1 440:1 508:1 509:1 516:1 540:1 551:1 612:1 615:1 617:1 623:1 639:1 643:1 661:1 740:1 755:1 785:1 822:1 823:1 844:1 848:1 884:1 893:1 972:1 976:1 985:1 1090:1 1109:1 1115:1 1117:1 1119:1 1128:1 1151:1 1163:1 1177:1 1204:1 1209:1 1215:1 1221:1 1222:1 1224:1 1232:1 1235:1 1238:1 1242:1
-1 278:1 508:1 1119:1 1162:1 1218:1 1222:1 1235:1 1242:3
-1 508:1 578:1 820:1 910:1 1119:1 1162:1 1218:1 1220:1 1222:1 1230:1 1233:1 1235:1 1242:1
-1 347:1 823:1 910:1 1117:1 1162:1 1218:1 1221:1 1224:1 1230:1 1242:1
-1 645:1 1064:1 1162:1 1218:1 1242:1
-1 471:1 645:1 1162:1 1218:1 1242:1
-1 166:1 509:1 910:2 1119:2 1162:2 1218:2 1222:2 1230:2 1232:1 1238:1 1242:7
-1 1162:1 1184:1 1218:1 1242:3
-1 156:1 162:1 192:1 265:1 330:1 348:1 352:1 362:1 363:1 426:1 464:1 509:1 516:1 551:1 579:1 617:1 712:1 740:1 785:1 844:1 848:1 875:1 893:1 999:1 1021:1 1048:1 1090:1 1109:1 1115:1 1117:1 1151:1 1163:1 1204:1 1221:1 1238:1 1242:3
-1 137:1 145:1 156:1 162:1 192:1 193:1 264:1 265:1 307:1 330:1 348:1 352:1 362:1 363:1 426:1 464:1 477:1 501:1 507:1 509:1 516:1 540:1 551:1 612:1 617:1 623:1 637:1 639:1 712:1 740:1 755:1 785:1 822:1 823:1 844:1 848:1 875:1 893:1 999:1 1015:1 1021:1 1025:1 1085:1 1109:1 1115:1 1117:1 1163:1 1204:1 1212:1 1221:1 1238:1 1242:1
-1 928:1 1240:1 1242:5
-1 156:1 162:1 192:1 265:1 330:1 348:1 352:1 362:1 363:1 426:1 464:1 477:1 509:1 516:1 540:1 551:1 579:1 617:1 639:1 712:1 740:1 785:1 810:1 844:1 848:1 875:1 893:1 999:1 1021:1 1048:1 1085:1 1090:1 1109:1 1115:1 1117:1 1151:1 1163:1 1177:1 1204:1 1221:1 1238:1 1242:3
-1 156:1 192:1 193:1 215:1 265:1 291:1 300:1 348:1 352:1 407:1 426:1 449:1 464:1 516:1 540:1 551:1 557:1 608:1 617:1 631:1 634:1 637:1 639:1 640:1 740:1 750:1 780:1 803:1 822:1 823:1 841:1 844:1 848:1 893:1 905:1 999:1 1021:1 1083:1 1097:1 1109:1 1117:1 1163:1 1212:1 1221:1 1242:2 1244:2
-1 162:1 192:1 259:1 348:1 516:1 551:1 617:1 657:1 740:1 844:1 848:1 893:1 1015:1 1021:1 1090:1 1109:1 1115:1 1117:1 1163:1 1221:1 1242:3
-1 367:1 823:1 910:1 1050:1 1117:1 1119:1 1162:1 1218:1 1221:1 1222:1 1230:1 1242:2
-1 192:1 347:1 348:1 449:1 464:1 516:1 551:1 740:1 750:1 822:1 848:1 893:1 999:1 1083:1 1109:1 1117:1 1162:1 1163:1 1218:1 1221:1 1224:1 1242:1 1244:2
-1 928:1 1240:1 1242:2
-1 166:1 509:2 910:3 1119:2 1162:4 1218:4 1222:2 1230:3 1232:1 1238:2 1242:6
-1 167:1 168:1 1117:2 1162:1 1218:1 1221:2 1242:2
-1 1045:1 1119:1 1121:1 1142:1 1162:1 1218:1 1222:1 1242:2
-1 903:1 1162:1 1218:1 1242:3
-1 676:1 910:1 1119:1 1162:1 1218:1 1222:1 1230:1 1242:3
-1 178:1 233:1 347:1 421:1 508:1 509:1 578:1 910:1 1068:1 1117:2 1119:1 1162:1 1215:1 1218:1 1221:2 1222:1 1224:1 1230:1 1233:1 1235:1 1238:1 1242:2 1244:2
-1 166:1 178:1 347:1 508:1 509:3 578:1 820:1 910:2 1117:1 1119:3 1162:4 1215:1 1218:4 1220:1 1221:1 1222:3 1224:1 1230:2 1232:1 1233:1 1235:1 1238:3 1242:5
-1 233:1 1162:1 1218:1 1242:2
-1 314:1 347:1 509:1 629:1 860:1 894:1 910:1 911:1 995:1 1050:1 1119:1 1162:1 1218:1 1222:1 1223:1 1224:1 1230:1 1231:1 1238:1 1239:1 1242:1
-1 178:1 215:1 314:1 347:1 557:1 629:1 650:1 823:1 860:1 894:1 910:1 911:1 995:1 1162:1 1215:1 1218:1 1223:1 1224:1 1230:1 1231:1 1234:1 1239:1 1242:1
-1 137:1 192:1 193:1 264:1 265:1 348:1 352:1 407:1 416:1 426:1 449:1 464:1 501:1 516:1 540:1 551:1 612:1 622:1 623:1 740:1 755:1 821:1 823:1 844:1 848:1 893:1 999:1 1015:1 1083:1 1090:1 1109:1 1115:1 1117:1 1163:1 1177:1 1221:1 1242:1
-1 509:1 1119:1 1162:1 1218:1 1222:1 1238:1 1242:4
-1 928:1 1240:1 1242:3
-1 928:1 1240:1 1242:2
-1 928:1 1240:1 1242:3
-1 928:1 1240:1 1242:2
-1 928:1 1240:1 1242:3
-1 388:1 423:1 457:1 681:1 710:1 746:1 773:1 869:1 950:1 1069:1 1081:1 1162:1 1218:1 1242:1
-1 1066:1 1162:1 1218:1 1242:2
-1 928:1 1240:1 1242:3
-1 714:1 869:1 1162:1 1218:1 1242:2
-1 347:1 509:1 807:1 820:1 910:1 1119:1 1162:1 1218:1 1220:1 1222:1 1224:1 1230:1 1238:1 1242:1
-1 127:1 162:1 192:1 193:1 201:1 265:1 294:1 348:1 352:1 378:1 516:1 551:1 557:1 617:1 623:1 657:1 740:1 785:1 821:1 823:1 843:1 844:1 848:1 893:1 999:1 1021:1 1090:1 1109:1 1115:1 1163:1 1242:1
-1 347:1 509:1 910:1 994:1 1008:1 1117:1 1119:1 1128:1 1162:1 1218:1 1221:1 1222:1 1224:1 1230:1 1238:1 1242:2
-1 166:1 440:1 508:1 509:1 592:1 910:1 1119:1 1128:1 1162:1 1218:1 1222:1 1230:1 1232:1 1235:1 1238:1 1242:2
-1 508:1 1117:1 1119:1 1162:1 1218:1 1221:1 1222:1 1235:1 1242:2
-1 178:1 347:1 509:1 823:1 888:1 910:1 976:1 1008:1 1117:1 1119:1 1128:1 1136:1 1162:1 1215:1 1218:1 1221:1 1222:1 1224:1 1230:1 1238:1 1242:2
-1 138:1 166:1 347:1 358:1 508:1 509:1 578:1 910:1 1119:1 1162:1 1218:1 1222:1 1224:1 1230:1 1232:1 1233:1 1235:1 1238:1 1242:2
-1 1117:2 1119:1 1162:1 1218:1 1221:2 1222:1 1242:3
-1 192:1 348:1 419:1 516:1 551:1 603:1 617:1 657:1 737:1 740:1 806:1 823:1 844:1 893:1 999:1 1109:1 1115:1 1117:1 1128:1 1162:1 1163:1 1218:1 1221:1 1242:2
-1 145:1 162:1 187:1 192:1 193:1 206:1 265:1 307:1 330:1 348:1 352:1 383:1 407:1 416:1 426:1 449:1 464:1 477:1 478:1 501:1 516:1 551:1 554:1 617:1 637:1 639:1 740:1 785:1 821:1 822:1 823:1 844:1 848:1 893:1 905:1 975:1 999:1 1015:1 1021:1 1083:1 1090:1 1109:1 1115:1 1117:1 1163:1 1177:1 1204:1 1212:1 1221:1 1242:1
-1 178:1 347:1 508:1 509:1 578:1 820:1 910:1 1119:1 1162:1 1215:1 1218:1 1220:1 1222:1 1224:1 1230:1 1233:1 1235:1 1238:1 1242:3
-1 509:1 910:2 1119:2 1162:2 1218:2 1222:2 1230:2 1238:1 1242:7
-1 178:1 314:1 347:1 462:1 508:1 931:1 1119:1 1124:1 1162:1 1214:1 1215:1 1218:1 1222:1 1224:1 1229:1 1235:1 1242:2 1244:2
-1 178:1 347:1 508:1 1119:1 1162:1 1215:1 1218:1 1222:1 1224:1 1235:1 1242:2
-1 508:1 910:1 1119:1 1162:1 1218:1 1222:1 1230:1 1235:1 1242:2 1244:2
-1 178:1 347:1 509:1 820:1 910:1 1119:1 1162:1 1215:1 1218:1 1220:1 1222:1 1224:1 1230:1 1238:1 1242:1
-1 178:1 347:1 508:1 509:1 578:1 820:1 910:1 1119:1 1162:1 1215:1 1218:1 1220:1 1222:1 1224:1 1230:1 1233:1 1235:1 1238:1 1242:3
-1 178:1 347:1 508:1 1119:1 1162:1 1215:1 1218:1 1222:1 1224:1 1235:1 1242:2
-1 166:1 509:1 910:2 1119:2 1162:2 1218:2 1222:2 1230:2 1232:1 1238:1 1242:7
-1 1058:1 1228:1 1242:2
-1 166:1 509:1 910:3 1119:2 1162:4 1218:4 1222:2 1230:3 1232:1 1238:1 1242:5
-1 166:1 178:1 347:1 508:1 820:1 910:1 1119:1 1162:1 1215:1 1218:1 1220:1 1222:1 1224:1 1230:1 1232:1 1235:1 1242:3
-1 178:1 314:1 347:1 462:1 508:1 931:1 1119:1 1124:1 1162:1 1214:1 1215:1 1218:1 1222:1 1224:1 1229:1 1235:1 1242:1 1244:2
-1 178:1 347:1 508:1 509:1 578:1 820:1 910:1 1119:1 1162:1 1215:1 1218:1 1220:1 1222:1 1224:1 1230:1 1233:1 1235:1 1238:1 1242:3
-1 178:1 347:1 508:1 509:1 578:1 820:1 910:1 1119:1 1162:1 1215:1 1218:1 1220:1 1222:1 1224:1 1230:1 1233:1 1235:1 1238:1 1242:1
-1 166:1 509:2 910:3 1119:2 1162:4 1218:4 1222:2 1230:3 1232:1 1238:2 1242:6
-1 178:1 347:1 508:1 1119:1 1162:1 1215:1 1218:1 1222:1 1224:1 1235:1 1242:1
-1 178:1 314:1 347:1 462:1 508:1 931:1 1119:1 1124:1 1162:1 1214:1 1215:1 1218:1 1222:1 1224:1 1229:1 1235:1 1242:1 1244:2
-1 178:1 347:1 508:1 1119:1 1162:1 1215:1 1218:1 1222:1 1224:1 1235:1 1242:2
-1 178:1 314:1 347:1 462:1 508:1 931:1 1119:1 1124:1 1162:1 1214:1 1215:1 1218:1 1222:1 1224:1 1229:1 1235:1 1242:1 1244:2
-1 178:1 347:1 508:1 1119:1 1162:1 1215:1 1218:1 1222:1 1224:1 1235:1 1242:2
-1 178:1 347:1 508:1 1119:1 1162:1 1215:1 1218:1 1222:1 1224:1 1235:1 1242:2
-1 178:1 347:1 508:1 1119:1 1162:1 1215:1 1218:1 1222:1 1224:1 1235:1 1242:2
-1 820:1 910:1 1119:1 1162:1 1218:1 1220:1 1222:1 1230:1 1242:1
-1 509:1 910:2 1119:2 1162:2 1218:2 1222:2 1230:2 1238:1 1242:7
-1 823:1 1242:2
-1 166:1 178:1 508:1 787:1 910:1 1119:1 1162:1 1215:1 1218:1 1222:1 1230:1 1232:1 1235:1 1242:2
-1 178:1 347:1 508:1 1119:1 1162:1 1215:1 1218:1 1222:1 1224:1 1235:1 1242:2
-1 166:1 509:1 910:2 1119:2 1162:2 1218:2 1222:2 1230:2 1232:1 1238:1 1242:7
-1 178:1 347:1 508:1 1119:1 1162:1 1215:1 1218:1 1222:1 1224:1 1235:1 1242:2
-1 166:1 178:1 347:1 508:1 820:1 910:1 1119:1 1162:1 1215:1 1218:1 1220:1 1222:1 1224:1 1230:1 1232:1 1235:1 1242:3
-1 166:1 509:1 910:2 1119:2 1162:2 1218:2 1222:2 1230:2 1232:1 1238:1 1242:7
-1 166:1 509:1 910:2 1119:2 1162:2 1218:2 1222:2 1230:2 1232:1 1238:1 1242:7
-1 166:1 178:1 347:1 508:1 820:1 910:1 1119:1 1162:1 1215:1 1218:1 1220:1 1222:1 1224:1 1230:1 1232:1 1235:1 1242:3
-1 166:1 509:1 910:2 1119:2 1162:2 1218:2 1222:2 1230:2 1232:1 1238:1 1242:7
-1 166:1 178:1 347:1 508:1 820:1 910:1 1119:1 1162:1 1215:1 1218:1 1220:1 1222:1 1224:1 1230:1 1232:1 1235:1 1242:2
-1 166:1 347:1 1119:1 1162:1 1218:1 1222:1 1224:1 1232:1 1242:2
-1 192:1 265:1 348:1 383:1 426:1 440:1 540:1 551:1 557:1 617:1 623:1 740:1 823:1 844:1 848:1 893:1 946:1 999:1 1021:1 1090:1 1097:1 1109:1 1117:1 1151:1 1163:1 1221:1 1242:1
-1 178:1 347:1 508:1 509:1 578:1 820:1 910:1 1119:1 1162:1 1215:1 1218:1 1220:1 1222:1 1224:1 1230:1 1233:1 1235:1 1238:1 1242:2
-1 1162:1 1218:1 1242:1
-1 178:1 347:1 508:1 1119:1 1162:1 1215:1 1218:1 1222:1 1224:1 1235:1 1242:2
-1 178:1 314:1 347:1 462:1 508:1 931:1 1119:1 1124:1 1162:1 1214:1 1215:1 1218:1 1222:1 1224:1 1229:1 1235:1 1242:2 1244:2
-1 166:1 509:1 910:2 1119:2 1162:2 1218:2 1222:2 1230:2 1232:1 1238:1 1242:7
-1 166:1 178:1 274:1 314:1 319:1 347:1 439:1 462:1 508:1 509:1 633:1 703:1 727:1 820:1 883:1 910:1 931:1 1050:1 1117:1 1119:1 1128:1 1162:1 1214:1 1215:1 1218:1 1220:1 1221:1 1222:1 1224:1 1230:1 1232:1 1235:1 1238:1 1242:1
-1 178:1 347:1 508:1 1119:1 1162:1 1215:1 1218:1 1222:1 1224:1 1235:1 1242:2
-1 178:1 347:1 508:1 1119:1 1162:1 1215:1 1218:1 1222:1 1224:1 1235:1 1242:2
-1 192:1 233:1 265:1 307:1 330:1 348:1 362:1 516:1 551:1 617:1 657:1 712:1 740:1 821:1 823:1 844:1 848:1 867:1 884:1 893:1 999:1 1021:1 1109:1 1115:1 1117:1 1163:1 1221:1 1242:3
-1 426:1 509:1 803:1 820:1 823:1 910:1 1117:1 1162:1 1218:1 1220:1 1221:1 1230:1 1238:1 1242:2
-1 166:1 178:1 347:1 508:1 557:1 578:1 910:1 1119:1 1162:1 1215:1 1218:1 1222:1 1224:1 1230:1 1232:1 1233:1 1235:1 1242:1
-1 166:1 178:1 347:1 421:1 508:1 509:1 820:1 910:2 1119:2 1162:3 1215:1 1218:3 1220:1 1222:2 1224:1 1230:2 1232:1 1235:1 1238:1 1242:6
-1 138:1 166:1 178:1 347:1 508:1 509:1 578:1 910:1 1119:1 1128:1 1147:1 1162:1 1215:1 1218:1 1222:1 1224:1 1230:1 1232:1 1233:1 1235:1 1238:1 1242:1
-1 166:1 508:1 509:2 820:1 910:2 1119:2 1162:4 1218:4 1220:1 1222:2 1230:2 1232:1 1235:1 1238:2 1242:6
-1 166:1 508:1 509:1 578:1 820:1 910:1 1119:1 1162:1 1218:1 1220:1 1222:1 1230:1 1232:1 1233:1 1235:1 1238:1 1242:5
-1 1084:1 1117:1 1119:1 1162:1 1218:1 1221:1 1222:1 1242:1
-1 166:1 421:1 508:1 910:1 1119:1 1147:1 1162:1 1218:1 1222:1 1230:1 1232:1 1235:1 1242:1
-1 928:1 1240:1 1242:3
-1 166:1 178:1 218:1 263:1 265:1 347:1 508:1 509:1 557:1 823:1 1008:1 1117:1 1119:1 1128:1 1162:1 1215:1 1218:1 1221:1 1222:1 1224:1 1232:1 1235:1 1238:1 1242:1
-1 303:1 508:1 710:1 1081:1 1117:2 1119:1 1162:1 1218:1 1221:2 1222:1 1235:1 1242:2
-1 928:1 1240:1 1242:3
-1 166:1 178:1 233:1 440:1 508:1 509:1 578:1 592:1 910:1 1119:1 1162:1 1215:1 1218:1 1222:1 1230:1 1232:1 1233:1 1235:1 1238:1 1242:1
-1 928:1 1240:1 1242:3
-1 928:1 1240:1 1242:2
-1 928:1 1240:1 1242:4
-1 192:1 300:1 348:1 352:1 426:1 449:1 464:1 516:1 540:1 551:1 740:1 750:1 822:1 848:1 893:1 999:1 1021:1 1083:1 1109:1 1117:1 1163:1 1221:1 1242:2
-1 178:1 347:1 433:1 508:1 578:1 820:1 910:1 1119:1 1124:1 1162:1 1215:1 1218:1 1220:1 1222:1 1224:1 1226:1 1229:1 1230:1 1233:1 1235:1 1242:1
-1 928:1 1240:1 1242:3
-1 506:1 645:1 1162:1 1218:1 1242:1
-1 166:1 178:1 347:1 508:1 509:1 578:1 820:1 1119:1 1162:1 1215:1 1218:1 1220:1 1222:1 1224:1 1232:1 1233:1 1235:1 1238:1 1242:6
-1 178:1 347:1 509:1 1117:1 1119:1 1162:1 1215:1 1218:1 1221:1 1222:1 1224:1 1238:1 1242:3
-1 166:1 170:1 178:1 336:1 347:1 421:1 508:1 509:1 663:1 703:1 820:1 910:1 931:1 970:1 1066:1 1073:1 1119:1 1128:1 1162:1 1214:1 1215:1 1218:1 1220:1 1222:1 1224:1 1225:1 1230:1 1232:1 1235:1 1238:1 1242:1
-1 166:1 509:1 910:2 1119:2 1162:2 1218:2 1222:2 1230:2 1232:1 1238:1 1242:7
-1 166:1 178:1 233:1 276:1 419:1 426:1 508:1 872:1 910:1 1117:1 1119:1 1162:1 1186:1 1215:1 1218:1 1221:1 1222:1 1230:1 1232:1 1235:1 1242:1
-1 162:1 192:1 551:1 740:1 823:1 910:1 1109:1 1117:1 1162:1 1163:1 1218:1 1221:1 1230:1 1242:3
-1 166:1 347:1 508:1 509:1 687:1 910:1 1117:1 1119:1 1162:1 1218:1 1221:1 1222:1 1224:1 1230:1 1232:1 1235:1 1238:1 1242:2
-1 166:1 178:1 179:1 219:1 274:1 314:1 347:1 401:1 508:1 509:1 703:1 823:1 883:1 910:1 976:1 1117:1 1119:1 1128:1 1162:1 1215:1 1218:1 1221:1 1222:1 1224:1 1230:1 1232:1 1235:1 1238:1 1242:2 1244:1
-1 178:1 314:1 319:1 347:1 508:1 509:1 578:1 651:1 820:1 910:1 911:1 1119:1 1128:1 1162:1 1215:1 1218:1 1220:1 1222:1 1224:1 1230:1 1231:1 1233:1 1235:1 1236:1 1238:1 1242:1
-1 1058:1 1228:1 1242:1
-1 166:1 508:1 578:1 910:1 1117:2 1119:1 1162:1 1218:1 1221:2 1222:1 1230:1 1232:1 1233:1 1235:1 1242:3
-1 233:1 281:1 422:1 1162:1 1218:1 1242:2
-1 166:1 178:1 314:1 319:1 439:1 508:1 820:1 910:1 1117:1 1119:1 1128:1 1162:1 1215:1 1218:1 1220:1 1221:1 1222:1 1230:1 1232:1 1235:1 1242:2
-1 162:1 192:1 265:1 307:1 314:1 348:1 352:1 362:1 383:1 426:1 464:1 509:1 516:1 540:1 551:1 557:1 617:1 629:1 639:1 643:1 651:1 661:1 736:1 740:1 821:1 838:1 844:1 848:1 860:1 875:1 893:1 894:1 911:1 999:1 1015:1 1021:1 1090:1 1109:1 1115:1 1163:1 1177:1 1187:1 1204:1 1209:1 1223:1 1231:1 1236:1 1238:1 1242:2
-1 192:1 193:1 348:1 352:1 410:1 426:1 455:1 464:1 478:1 516:1 551:1 605:1 740:1 785:1 848:1 893:1 1090:1 1109:1 1115:1 1117:1 1163:1 1177:1 1221:1 1242:1
-1 1117:1 1162:1 1218:1 1221:1 1242:3
-1 346:1 1045:1 1121:1 1162:1 1218:1 1242:3
-1 1117:2 1162:1 1218:1 1221:2 1242:2
-1 928:1 1240:1 1242:3
-1 166:1 508:1 509:2 820:1 910:2 1119:2 1162:5 1218:5 1220:1 1222:2 1230:2 1232:1 1235:1 1238:2 1242:6
-1 121:1 436:1 710:1 764:1 943:1 1029:1 1079:1 1081:1 1162:1 1218:1 1242:3 1244:30
-1 928:1 1240:1 1242:3
-1 928:1 1240:1 1242:3
-1 928:1 1240:1 1242:2
-1 928:1 1240:1 1242:3
-1 928:1 1240:1 1242:3
-1 121:1 663:1 710:1 1066:1 1162:1 1169:1 1218:1 1242:2
-1 166:1 508:1 509:2 820:1 910:2 1119:2 1162:5 1218:5 1220:1 1222:2 1230:2 1232:1 1235:1 1238:2 1242:6
-1 166:1 508:1 509:2 820:1 910:2 1119:2 1162:5 1218:5 1220:1 1222:2 1230:2 1232:1 1235:1 1238:2 1242:6
-1 1117:1 1162:1 1218:1 1221:1 1242:3
-1 564:1 710:1 1081:1 1117:1 1162:1 1218:1 1221:1 1242:2
-1 166:1 508:1 509:2 578:1 820:1 910:2 1119:2 1162:4 1218:4 1220:1 1222:2 1230:2 1232:1 1233:1 1235:1 1238:2 1242:6
-1 166:1 178:1 233:1 347:1 508:1 509:1 578:1 910:1 1068:1 1117:1 1119:1 1162:1 1215:1 1218:1 1221:1 1222:1 1224:1 1230:1 1232:1 1233:1 1235:1 1238:1 1242:4
-1 138:1 166:1 198:1 347:1 421:1 439:1 508:1 509:1 578:1 910:1 1119:1 1128:1 1162:1 1218:1 1222:1 1224:1 1230:1 1232:1 1233:1 1235:1 1238:1 1242:1
-1 138:1 178:1 198:1 215:1 233:1 347:1 421:1 483:1 508:1 509:1 578:1 633:1 703:1 888:1 910:1 970:1 976:1 1068:1 1119:1 1128:1 1147:1 1162:1 1215:1 1218:1 1222:1 1224:1 1225:1 1230:1 1233:1 1235:1 1238:1 1242:6
-1 138:1 166:1 178:1 198:1 347:1 421:1 508:1 509:1 703:1 888:1 910:1 970:1 976:1 1068:1 1119:1 1128:1 1162:1 1215:1 1218:1 1222:1 1224:1 1225:1 1230:1 1232:1 1235:1 1238:1 1242:4
-1 138:1 166:1 178:1 198:1 233:1 347:1 421:1 508:1 509:1 703:1 710:1 888:1 910:1 931:1 970:1 976:1 1068:1 1081:1 1119:1 1128:1 1162:1 1214:1 1215:1 1218:1 1222:1 1224:1 1225:1 1230:1 1232:1 1235:1 1238:1 1242:4
-1 138:1 166:1 178:1 347:1 508:1 509:1 578:1 703:1 820:1 910:1 1119:1 1128:1 1162:1 1215:1 1218:1 1220:1 1222:1 1224:1 1230:1 1232:1 1233:1 1235:1 1238:1 1242:1
-1 192:1 426:1 551:1 740:1 893:1 1068:1 1109:1 1117:1 1162:1 1163:1 1218:1 1221:1 1242:3
-1 924:1 1119:1 1162:1 1196:1 1218:1 1222:1 1242:2
-1 178:1 192:1 208:1 232:1 347:1 426:1 509:1 551:1 557:1 740:1 758:1 823:1 910:1 1109:1 1117:1 1119:1 1162:1 1163:1 1215:1 1218:1 1221:1 1222:1 1224:1 1230:1 1238:1 1242:1
-1 166:1 178:1 347:1 421:1 508:1 509:1 578:1 703:1 888:1 910:1 931:1 970:1 1068:1 1119:1 1124:1 1128:1 1162:1 1214:1 1215:1 1218:1 1222:1 1224:1 1225:1 1229:1 1230:1 1232:1 1233:1 1235:1 1238:1 1242:1
-1 145:1 162:1 192:1 193:1 233:1 246:1 251:1 256:1 265:1 271:1 314:1 319:1 348:1 352:1 367:1 407:1 414:1 416:1 419:1 426:1 449:1 464:1 484:1 516:1 551:1 600:1 617:1 629:1 639:1 650:1 661:1 736:1 740:1 747:1 757:1 785:1 821:1 822:1 823:1 830:1 838:1 844:1 848:1 860:1 875:1 893:1 894:1 975:1 991:1 995:1 999:1 1015:1 1021:1 1043:1 1083:1 1090:1 1109:1 1115:1 1151:1 1163:1 1177:1 1223:1 1234:1 1239:1 1242:3
-1 166:1 178:1 192:1 265:1 426:1 551:1 740:1 893:1 910:1 1109:1 1117:1 1119:1 1162:1 1163:1 1215:1 1218:1 1221:1 1222:1 1230:1 1232:1 1242:2
-1 166:1 178:1 347:1 508:1 820:1 910:1 1119:1 1162:1 1215:1 1218:1 1220:1 1222:1 1224:1 1230:1 1232:1 1235:1 1242:3
-1 238:1 403:1 496:1 629:1 855:1 1080:1 1162:1 1218:1 1219:1 1223:1 1227:1 1237:1 1241:1 1242:3
-1 1117:2 1162:1 1218:1 1221:2 1242:5 1244:8
-1 198:1 421:1 492:1 508:1 578:1 1092:1 1119:1 1162:1 1218:1 1222:1 1233:1 1235:1 1242:2
-1 166:1 509:2 910:3 1119:2 1162:4 1218:4 1222:2 1230:3 1232:1 1238:2 1242:6
-1 823:1 1242:1
-1 928:1 1240:1 1242:2
-1 910:1 1117:1 1119:1 1162:1 1218:1 1221:1 1222:1 1230:1 1242:2
-1 928:1 1240:1 1242:3
-1 928:1 1240:1 1242:3
-1 166:1 178:1 265:1 347:1 401:1 508:1 509:1 703:1 823:1 976:1 1068:1 1117:1 1119:1 1128:1 1162:1 1215:1 1218:1 1221:1 1222:1 1224:1 1232:1 1235:1 1238:1 1242:3
-1 166:1 178:1 347:1 401:1 508:1 509:1 578:1 703:1 823:1 842:1 888:1 910:1 976:1 1117:1 1119:1 1128:1 1162:1 1215:1 1218:1 1221:1 1222:1 1224:1 1230:1 1232:1 1233:1 1235:1 1238:1 1242:1
-1 233:1 910:1 1117:1 1162:1 1218:1 1221:1 1230:1 1242:2
-1 928:1 1240:1 1242:3
-1 1162:1 1184:1 1218:1 1242:3
-1 178:1 910:1 924:1 1119:1 1162:1 1215:1 1218:1 1222:1 1230:1 1242:2
-1 928:1 1240:1 1242:3
-1 166:1 174:1 178:1 198:1 208:1 222:1 232:1 347:1 421:1 462:1 508:1 509:1 703:1 823:1 888:1 910:1 1117:1 1119:1 1128:1 1147:1 1162:1 1215:1 1218:1 1221:1 1222:1 1224:1 1230:1 1232:1 1235:1 1238:1 1242:2
-1 1117:2 1162:1 1218:1 1221:2 1242:2
-1 1117:2 1162:1 1218:1 1221:2 1242:2
-1 1162:1 1218:1 1242:2
-1 823:1 910:1 1117:1 1162:1 1218:1 1221:1 1230:1 1242:2
-1 928:1 1240:1 1242:3
-1 233:1 1162:1 1218:1 1242:2
-1 1058:1 1228:1 1242:1
-1 166:1 178:1 347:1 421:1 508:1 509:1 910:1 976:1 1117:1 1119:1 1128:1 1162:1 1215:1 1218:1 1221:1 1222:1 1224:1 1230:1 1232:1 1235:1 1238:1 1242:1
-1 200:1 421:1 1117:2 1119:1 1162:1 1218:1 1221:2 1222:1 1242:4
-1 178:1 347:1 439:1 509:1 557:1 592:1 754:1 823:1 910:1 1117:1 1119:1 1128:1 1162:1 1215:1 1218:1 1221:1 1222:1 1224:1 1230:1 1238:1 1242:1
-1 928:1 1240:1 1242:3
-1 928:1 1240:1 1242:3
-1 166:1 178:1 347:1 421:1 508:1 509:1 710:1 910:1 931:1 943:1 1081:1 1092:1 1117:1 1119:1 1162:1 1214:1 1215:1 1218:1 1221:1 1222:1 1224:1 1230:1 1232:1 1235:1 1238:1 1242:7
-1 192:1 352:1 426:1 551:1 623:1 690:1 740:1 844:1 848:1 893:1 1021:1 1109:1 1115:1 1117:1 1163:1 1221:1 1242:2
-1 928:1 1240:1 1242:3
-1 910:1 1117:1 1162:1 1218:1 1221:1 1230:1 1242:2
-1 166:1 178:1 508:1 578:1 903:1 943:1 1119:1 1162:1 1215:1 1218:1 1222:1 1232:1 1233:1 1235:1 1242:3
-1 134:1 166:1 178:1 185:1 255:1 347:1 421:1 486:1 492:1 508:1 578:1 774:1 910:1 1092:1 1119:1 1162:1 1215:1 1218:1 1222:1 1224:1 1230:1 1232:1 1233:1 1235:1 1242:4
-1 178:1 233:1 347:1 439:1 508:1 509:1 703:1 737:1 910:1 911:1 931:1 1073:1 1119:1 1128:1 1162:1 1214:1 1215:1 1218:1 1222:1 1224:1 1230:1 1231:1 1235:1 1238:1 1242:2
-1 166:1 178:1 232:1 347:1 508:1 509:1 820:1 831:1 910:1 931:1 970:1 1038:1 1050:1 1119:1 1128:1 1162:1 1214:1 1215:1 1218:1 1220:1 1222:1 1224:1 1225:1 1230:1 1232:1 1235:1 1238:1 1242:1 1244:4
-1 178:1 232:1 233:1 347:1 508:1 509:1 557:1 820:1 831:1 910:1 931:1 1050:1 1068:1 1073:1 1119:1 1128:1 1162:1 1214:1 1215:1 1218:1 1220:1 1222:1 1224:1 1230:1 1235:1 1238:1 1242:2 1244:12
-1 1171:1 1242:1
-1 178:1 233:1 421:1 508:1 578:1 910:1 1119:1 1162:1 1215:1 1218:1 1222:1 1230:1 1233:1 1235:1 1242:2
-1 166:1 508:1 578:1 1119:1 1120:1 1162:1 1218:1 1222:1 1232:1 1233:1 1235:1 1242:2
-1 508:1 578:1 846:1 1117:1 1119:1 1162:1 1218:1 1221:1 1222:1 1233:1 1235:1 1242:2
-1 192:1 265:1 348:1 352:1 407:1 426:1 449:1 464:1 509:1 516:1 551:1 617:1 654:1 740:1 785:1 821:1 823:1 830:1 841:1 844:1 848:1 893:1 911:1 1109:1 1117:1 1163:1 1221:1 1231:1 1238:1 1242:1
-1 192:1 234:1 265:1 348:1 352:1 407:1 426:1 449:1 464:1 516:1 540:1 551:1 637:1 740:1 798:1 822:1 841:1 848:1 893:1 969:1 995:1 1021:1 1083:1 1090:1 1109:1 1115:1 1117:1 1163:1 1177:1 1221:1 1239:1 1242:1
-1 166:1 178:1 218:1 347:1 508:1 509:1 703:1 823:1 910:1 1008:1 1117:1 1119:1 1128:1 1162:1 1215:1 1218:1 1221:1 1222:1 1224:1 1230:1 1232:1 1235:1 1238:1 1242:2
-1 166:1 178:1 347:1 508:1 509:3 578:1 820:1 910:2 1068:1 1119:2 1162:4 1215:1 1218:4 1220:1 1222:2 1224:1 1230:2 1232:1 1233:1 1235:1 1238:3 1242:6
-1 928:1 1240:1 1242:3
-1 928:1 1240:1 1242:2
-1 166:1 174:1 178:1 198:1 208:1 222:1 232:1 347:1 421:1 462:1 508:1 509:1 703:1 823:1 888:1 910:1 1117:1 1119:1 1128:1 1147:1 1162:1 1215:1 1218:1 1221:1 1222:1 1224:1 1230:1 1232:1 1235:1 1238:1 1242:2
-1 928:1 1240:1 1242:2
-1 166:1 508:1 509:2 820:1 910:2 1119:2 1162:5 1218:5 1220:1 1222:2 1230:2 1232:1 1235:1 1238:2 1242:6
-1 166:1 347:1 421:1 508:1 509:1 578:1 710:1 910:2 1119:2 1162:3 1218:3 1222:2 1224:1 1230:2 1232:1 1233:1 1235:1 1238:1 1242:6
-1 928:1 1240:1 1242:3
-1 928:1 1240:1 1242:3
-1 137:1 192:1 265:1 348:1 464:1 501:1 551:1 557:1 639:1 643:1 657:1 740:1 823:1 844:1 848:1 893:1 995:1 999:1 1021:1 1090:1 1097:1 1109:1 1115:1 1117:1 1119:1 1151:1 1162:1 1163:1 1218:1 1221:1 1222:1 1239:1 1242:1 1244:222
-1 178:1 192:1 233:1 347:1 426:1 446:1 509:1 551:1 557:1 740:1 893:1 910:1 1097:1 1109:1 1117:1 1162:1 1163:1 1215:1 1218:1 1221:1 1224:1 1230:1 1238:1 1242:2
-1 192:1 215:1 314:1 347:1 376:1 383:1 426:1 509:1 551:1 557:1 740:1 821:1 823:1 910:1 995:1 1117:1 1162:1 1218:1 1221:1 1224:1 1230:1 1238:1 1239:1 1242:2
-1 166:1 178:1 204:1 347:1 462:1 508:1 509:1 751:1 910:1 1066:1 1119:1 1162:1 1215:1 1218:1 1222:1 1224:1 1230:1 1232:1 1235:1 1238:1 1242:1 1244:1
-1 178:1 204:1 347:1 509:1 751:1 1066:1 1119:1 1162:1 1215:1 1218:1 1222:1 1224:1 1238:1 1242:1 1244:1
-1 178:1 204:1 347:1 509:1 751:1 1066:1 1119:1 1162:1 1215:1 1218:1 1222:1 1224:1 1238:1 1242:1 1244:5
-1 166:1 508:1 509:2 820:1 910:2 1119:2 1162:5 1218:5 1220:1 1222:2 1230:2 1232:1 1235:1 1238:2 1242:6
-1 1117:2 1162:1 1218:1 1221:2 1242:3
-1 178:1 347:1 508:1 910:1 1066:1 1068:1 1119:1 1162:1 1215:1 1218:1 1222:1 1224:1 1230:1 1235:1 1242:2
-1 380:1 421:1 1117:2 1119:1 1162:1 1218:1 1221:2 1222:1 1242:2
-1 823:1 1242:2
-1 177:1 178:1 347:1 381:1 509:1 636:1 823:1 910:1 972:1 1117:1 1119:1 1162:1 1215:1 1218:1 1221:1 1222:1 1224:1 1230:1 1238:1 1242:2
-1 928:1 1240:1 1242:3
-1 910:1 1117:1 1119:1 1162:1 1218:1 1221:1 1222:1 1230:1 1242:2
-1 928:1 1240:1 1242:3
-1 1058:1 1228:1 1242:1
-1 996:1 1162:1 1218:1 1242:4
-1 910:1 1119:1 1162:1 1218:1 1222:1 1230:1 1242:4
-1 1117:1 1162:1 1218:1 1221:1 1242:5
-1 347:1 509:1 869:1 1119:1 1162:1 1218:1 1222:1 1224:1 1238:1 1242:1
-1 178:1 347:1 508:1 509:1 910:1 1119:1 1162:1 1215:1 1218:1 1222:1 1224:1 1230:1 1235:1 1238:1 1242:3
-1 166:1 509:1 910:3 1119:2 1162:4 1218:4 1222:2 1230:3 1232:1 1238:1 1242:5
-1 178:1 910:1 1119:1 1162:1 1215:1 1218:1 1222:1 1230:1 1242:3
-1 166:1 178:1 347:1 508:1 820:1 910:1 1119:1 1162:1 1215:1 1218:1 1220:1 1222:1 1224:1 1230:1 1232:1 1235:1 1242:4
-1 233:1 1119:1 1162:1 1218:1 1222:1 1242:1
-1 297:1 427:1 831:1 931:1 1162:1 1214:1 1218:1 1242:1
-1 166:1 178:1 233:1 508:1 509:1 831:1 910:1 1119:1 1162:1 1215:1 1218:1 1222:1 1230:1 1232:1 1235:1 1238:1 1242:1 1244:19
-1 297:1 427:1 1162:1 1218:1 1242:1
-1 171:1 331:1 459:1 472:1 1117:2 1162:1 1218:1 1221:2 1242:2
-1 166:1 508:1 509:2 820:1 910:2 1119:2 1162:5 1218:5 1220:1 1222:2 1230:2 1232:1 1235:1 1238:2 1242:6
-1 166:1 178:1 208:1 347:1 401:1 499:1 508:1 509:1 557:1 703:1 823:1 910:1 976:1 1008:1 1117:1 1119:1 1128:1 1162:1 1215:1 1218:1 1221:1 1222:1 1224:1 1230:1 1232:1 1235:1 1238:1 1242:1
-1 166:1 178:4 347:4 358:1 508:1 509:3 578:1 710:1 820:1 910:2 1081:1 1119:2 1162:5 1215:4 1218:5 1220:1 1222:2 1224:4 1230:2 1232:1 1233:1 1235:1 1238:3 1242:5
-1 928:1 1240:1 1242:2
-1 910:1 1128:1 1162:1 1218:1 1230:1 1242:1
-1 928:1 1240:1 1242:3
-1 166:1 509:1 910:2 1119:2 1162:2 1218:2 1222:2 1230:2 1232:1 1238:1 1242:7
-1 508:1 578:1 820:1 910:1 1119:1 1162:1 1218:1 1220:1 1222:1 1230:1 1233:1 1235:1 1242:1
-1 928:1 1240:1 1242:3
-1 943:1 1162:1 1218:1 1242:2
-1 508:1 578:1 820:1 910:1 1119:1 1162:1 1218:1 1220:1 1222:1 1230:1 1233:1 1235:1 1242:1
-1 166:1 509:1 910:2 1119:2 1162:2 1218:2 1222:2 1230:2 1232:1 1238:1 1242:7
-1 178:1 910:1 943:1 1119:1 1162:1 1215:1 1218:1 1222:1 1230:1 1242:2
-1 166:1 509:1 910:2 1119:2 1162:2 1218:2 1222:2 1230:2 1232:1 1238:1 1242:8
-1 166:1 509:1 910:2 1119:2 1162:2 1218:2 1222:2 1230:2 1232:1 1238:1 1242:7
-1 928:1 1240:1 1242:3
-1 227:1 428:1 457:1 869:1 1119:1 1128:1 1162:1 1218:1 1222:1 1242:2
-1 166:1 178:1 347:1 440:1 508:1 509:1 557:1 820:1 910:1 911:1 931:1 943:1 1119:1 1128:1 1162:1 1214:1 1215:1 1218:1 1220:1 1222:1 1224:1 1230:1 1231:1 1232:1 1235:1 1238:1 1242:1
-1 928:1 1240:1 1242:4
-1 1058:1 1228:1 1242:1
-1 508:1 710:1 711:1 1081:1 1119:1 1162:1 1218:1 1222:1 1235:1 1242:2
-1 166:1 508:1 509:2 820:1 910:2 1119:2 1162:5 1218:5 1220:1 1222:2 1230:2 1232:1 1235:1 1238:2 1242:6
-1 137:1 192:1 210:1 264:1 265:1 288:1 348:1 352:1 378:1 516:1 522:1 551:1 557:1 617:1 740:1 823:1 843:1 848:1 893:1 999:1 1021:1 1090:1 1109:1 1115:1 1163:1 1242:3
-1 166:1 178:1 508:1 787:1 910:1 1119:1 1162:1 1215:1 1218:1 1222:1 1230:1 1232:1 1235:1 1242:3
-1 928:1 1240:1 1242:3
-1 423:1 1117:2 1162:1 1218:1 1221:2 1242:3
-1 928:1 1240:1 1242:3
-1 928:1 1240:1 1242:3
-1 928:1 1240:1 1242:3
-1 928:1 1240:1 1242:3
-1 928:1 1240:1 1242:3
-1 928:1 1240:1 1242:3
-1 928:1 1240:1 1242:3
-1 928:1 1240:1 1242:3
-1 928:1 1240:1 1242:3
-1 928:1 1240:1 1242:3
-1 928:1 1240:1 1242:3
-1 928:1 1240:1 1242:3
-1 928:1 1240:1 1242:3
-1 1117:2 1162:1 1218:1 1221:2 1242:3
-1 166:1 178:1 347:1 508:1 509:1 883:1 910:1 1119:1 1124:1 1128:1 1162:1 1215:1 1218:1 1222:1 1224:1 1229:1 1230:1 1232:1 1235:1 1238:1 1242:3
-1 823:1 910:1 1117:1 1119:1 1162:1 1218:1 1221:1 1222:1 1230:1 1242:1
-1 421:1 508:1 681:1 710:1 1119:1 1158:1 1162:1 1218:1 1222:1 1235:1 1242:1 1244:1
-1 928:1 1240:1 1242:2
-1 508:1 578:1 820:1 910:1 1119:1 1162:1 1218:1 1220:1 1222:1 1230:1 1233:1 1235:1 1242:1
-1 347:1 509:1 554:1 723:1 910:1 1117:1 1119:1 1128:1 1162:1 1218:1 1221:1 1222:1 1224:1 1230:1 1238:1 1242:1
-1 331:1 396:1 459:1 472:1 979:1 1117:1 1162:1 1218:1 1221:1 1242:3
-1 459:1 472:1 979:1 1117:1 1162:1 1218:1 1221:1 1242:3
-1 421:1 943:1 1117:1 1162:1 1218:1 1221:1 1242:3
-1 166:1 178:2 347:1 508:2 509:3 578:1 820:1 910:2 1068:1 1117:1 1119:2 1128:1 1162:5 1215:2 1218:5 1220:1 1221:1 1222:2 1224:1 1230:2 1232:1 1233:1 1235:2 1238:3 1242:6
-1 171:1 331:1 357:1 459:1 472:1 979:1 1117:2 1162:1 1218:1 1221:2 1242:3
-1 166:1 178:1 347:1 508:1 509:1 578:1 820:1 1119:1 1162:1 1215:1 1218:1 1220:1 1222:1 1224:1 1232:1 1233:1 1235:1 1238:1 1242:4
-1 192:1 265:1 551:1 740:1 823:1 893:1 910:1 995:1 1078:1 1109:1 1117:1 1119:1 1162:1 1163:1 1218:1 1221:1 1222:1 1230:1 1239:1 1242:2
-1 178:1 1119:1 1162:1 1215:1 1218:1 1222:1 1242:3
-1 232:1 233:1 314:1 347:1 440:1 462:1 508:1 509:1 578:1 592:1 820:1 910:1 1050:1 1119:1 1162:1 1218:1 1220:1 1222:1 1224:1 1230:1 1233:1 1235:1 1238:1 1242:1
-1 166:1 216:1 347:1 412:1 439:1 508:1 509:1 557:1 686:1 823:1 910:1 946:1 1117:1 1119:1 1128:1 1162:1 1218:1 1221:1 1222:1 1224:1 1230:1 1232:1 1235:1 1238:1 1242:1
-1 178:1 347:1 509:1 910:1 946:1 1008:1 1083:1 1117:1 1119:1 1162:1 1215:1 1218:1 1221:1 1222:1 1224:1 1230:1 1238:1 1242:2
-1 1101:1 1117:1 1119:1 1162:1 1218:1 1221:1 1222:1 1242:3
-1 233:1 253:1 426:1 440:1 509:1 820:1 823:1 884:1 910:1 1117:1 1119:1 1128:1 1162:1 1218:1 1220:1 1221:1 1222:1 1230:1 1238:1 1242:2
-1 192:1 551:1 740:1 893:1 1109:1 1117:1 1163:1 1221:1 1242:3
-1 192:1 551:1 740:1 893:1 1109:1 1117:1 1163:1 1221:1 1242:3
-1 192:1 551:1 740:1 893:1 1109:1 1117:1 1163:1 1221:1 1242:3
-1 192:1 551:1 740:1 893:1 1109:1 1117:1 1163:1 1221:1 1242:3
-1 192:1 551:1 740:1 893:1 1109:1 1117:1 1162:1 1163:1 1218:1 1221:1 1242:3
-1 192:1 551:1 740:1 893:1 1109:1 1117:1 1163:1 1221:1 1242:3
-1 192:1 551:1 740:1 893:1 1109:1 1117:1 1163:1 1221:1 1242:3
-1 178:1 245:1 314:1 319:1 347:1 527:1 820:1 823:1 910:1 946:1 1008:1 1083:1 1117:1 1119:1 1128:1 1162:1 1215:1 1218:1 1220:1 1221:1 1222:1 1224:1 1230:1 1242:2
-1 823:1 910:1 1117:1 1162:1 1218:1 1221:1 1230:1 1242:2
-1 178:1 192:1 264:1 291:1 314:1 347:1 352:1 367:1 383:1 407:1 419:1 439:1 449:1 501:1 508:1 509:1 551:1 603:1 612:1 639:1 712:1 740:1 755:1 795:1 823:1 893:1 999:1 1008:1 1021:1 1063:1 1076:1 1083:1 1085:1 1090:1 1109:1 1113:1 1115:1 1117:1 1119:1 1128:1 1162:1 1163:1 1215:1 1218:1 1221:1 1222:1 1224:1 1235:1 1238:1 1242:3
-1 192:1 193:1 251:1 265:1 330:1 348:1 464:1 516:1 551:1 637:1 697:1 740:1 822:1 848:1 893:1 999:1 1021:1 1090:1 1109:1 1115:1 1117:1 1163:1 1177:1 1221:1 1242:2
-1 178:1 192:1 265:1 407:1 449:1 464:1 551:1 639:1 740:1 823:1 893:1 1109:1 1117:1 1128:1 1163:1 1215:1 1221:1 1242:3
-1 178:1 192:1 426:1 551:1 740:1 893:1 910:1 1008:1 1109:1 1117:1 1119:1 1128:1 1162:1 1163:1 1215:1 1218:1 1221:1 1222:1 1230:1 1242:3
-1 166:1 178:1 508:1 509:1 910:1 1119:1 1128:1 1162:1 1215:1 1218:1 1222:1 1230:1 1232:1 1235:1 1238:1 1242:2
-1 192:1 551:1 740:1 893:1 1109:1 1117:1 1119:1 1162:1 1163:1 1218:1 1221:1 1222:1 1242:2
-1 166:1 178:1 508:1 910:1 1119:1 1162:1 1215:1 1218:1 1222:1 1230:1 1232:1 1235:1 1242:2
-1 421:1 831:1 910:1 1119:1 1162:1 1218:1 1222:1 1230:1 1242:1 1244:2
-1 508:1 1119:1 1162:1 1218:1 1222:1 1235:1 1242:3
-1 166:1 347:1 508:1 1119:1 1162:1 1218:1 1222:1 1224:1 1232:1 1235:1 1242:2
-1 158:1 178:1 192:1 265:1 348:1 501:1 508:1 551:1 617:1 623:1 740:1 823:1 844:1 848:1 893:1 1068:1 1090:1 1109:1 1117:1 1119:1 1144:1 1162:1 1163:1 1215:1 1218:1 1221:1 1222:1 1235:1 1242:2
-1 928:1 1240:1 1242:4
-1 928:1 1240:1 1242:2
-1 166:1 508:1 820:1 910:1 1119:1 1162:1 1218:1 1220:1 1222:1 1230:1 1232:1 1235:1 1242:2
-1 166:1 178:1 200:1 233:1 279:1 347:1 379:1 421:1 508:1 509:1 578:1 628:1 820:1 910:1 1119:1 1162:1 1215:1 1218:1 1220:1 1222:1 1224:1 1230:1 1232:1 1233:1 1235:1 1238:1 1242:5
-1 192:1 348:1 540:1 551:1 617:1 740:1 848:1 893:1 1021:1 1109:1 1117:1 1163:1 1221:1 1242:4
-1 192:1 265:1 348:1 416:1 464:1 516:1 540:1 551:1 617:1 637:1 639:1 740:1 821:1 823:1 844:1 848:1 893:1 999:1 1015:1 1021:1 1090:1 1109:1 1115:1 1117:1 1119:1 1162:1 1163:1 1218:1 1221:1 1222:1 1242:2
-1 1162:1 1184:1 1218:1 1242:2
-1 1117:2 1162:1 1218:1 1221:2 1242:2
-1 928:1 1240:1 1242:3
-1 178:1 347:1 440:1 508:1 509:1 1119:1 1162:1 1215:1 1218:1 1222:1 1224:1 1235:1 1238:1 1242:5
-1 1101:1 1117:1 1119:1 1162:1 1218:1 1221:1 1222:1 1242:3
-1 1162:1 1218:1 1242:1
-1 192:1 348:1 362:1 516:1 540:1 551:1 617:1 657:1 740:1 820:1 823:1 844:1 848:1 884:1 893:1 999:1 1021:1 1077:1 1090:1 1109:1 1115:1 1117:1 1119:1 1128:1 1151:1 1163:1 1197:1 1220:1 1221:1 1222:1 1242:3
-1 178:1 180:1 233:1 388:1 557:1 692:1 710:1 711:1 910:1 1119:1 1162:1 1215:1 1218:1 1222:1 1230:1 1242:2
-1 421:1 1117:1 1162:1 1218:1 1221:1 1242:3
-1 910:1 946:1 1117:1 1162:1 1218:1 1221:1 1230:1 1242:2
-1 178:1 1119:1 1162:1 1215:1 1218:1 1222:1 1242:3
-1 166:1 509:1 910:2 1119:2 1162:2 1218:2 1222:2 1230:2 1232:1 1238:1 1242:7
-1 162:1 192:1 265:1 348:1 383:1 426:1 464:1 509:1 551:1 557:1 637:1 740:1 823:1 848:1 893:1 1021:1 1090:1 1109:1 1115:1 1117:1 1163:1 1221:1 1238:1 1242:2
-1 233:1 253:1 419:1 426:1 440:1 509:1 820:1 823:1 884:1 910:1 993:1 1117:1 1119:1 1128:1 1162:1 1186:1 1218:1 1220:1 1221:1 1222:1 1230:1 1238:1 1242:2
-1 233:1 253:1 419:1 426:1 440:1 509:1 820:1 823:1 884:1 910:1 993:1 1117:1 1119:1 1128:1 1162:1 1186:1 1218:1 1220:1 1221:1 1222:1 1230:1 1238:1 1242:2
-1 156:1 166:1 178:1 192:1 201:1 265:1 332:1 348:1 352:1 372:1 383:1 414:1 416:1 433:1 464:1 508:1 509:1 516:1 540:1 551:1 585:1 617:1 623:1 637:1 639:1 738:1 740:1 780:1 785:1 788:1 821:1 823:1 844:1 848:1 875:1 886:1 893:1 975:1 976:1 994:1 999:1 1008:1 1015:1 1021:1 1090:1 1094:1 1109:1 1115:1 1117:1 1119:1 1128:1 1162:1 1163:1 1204:1 1215:1 1218:1 1221:1 1222:1 1226:1 1232:1 1235:1 1238:1 1242:2
-1 166:1 178:1 233:1 347:1 421:1 459:1 508:1 509:1 578:1 652:1 910:1 1117:2 1119:1 1162:1 1215:1 1218:1 1221:2 1222:1 1224:1 1230:1 1232:1 1233:1 1235:1 1238:1 1242:2
-1 910:1 957:1 1117:1 1119:1 1162:1 1218:1 1221:1 1222:1 1230:1 1242:2
-1 137:1 192:1 264:1 348:1 551:1 557:1 740:1 823:1 893:1 1109:1 1117:1 1163:1 1221:1 1242:2
-1 166:1 178:1 233:1 508:1 509:1 578:1 820:1 831:1 910:1 1073:1 1119:1 1162:1 1215:1 1218:1 1220:1 1222:1 1230:1 1232:1 1233:1 1235:1 1238:1 1242:1
-1 166:1 178:1 233:1 347:1 508:1 509:1 578:1 820:1 831:1 910:1 1073:1 1119:1 1162:1 1215:1 1218:1 1220:1 1222:1 1224:1 1230:1 1232:1 1233:1 1235:1 1238:1 1242:1
-1 192:1 348:1 352:1 426:1 449:1 464:1 501:1 516:1 551:1 629:1 650:1 661:1 740:1 750:1 822:1 823:1 848:1 860:1 893:1 894:1 1083:1 1109:1 1163:1 1223:1 1234:1 1242:1
-1 481:1 646:1 663:1 1066:1 1119:1 1162:1 1218:1 1222:1 1242:3
-1 928:1 1240:1 1242:3
-1 928:1 1240:1 1242:2
-1 1162:1 1218:1 1242:1
-1 392:1 509:1 1162:1 1218:1 1238:1 1242:1
-1 166:1 509:1 910:2 1119:2 1162:2 1218:2 1222:2 1230:2 1232:1 1238:1 1242:7
-1 423:1 578:1 1117:1 1162:1 1218:1 1221:1 1233:1 1242:3
-1 509:2 910:1 1119:2 1162:4 1218:4 1222:2 1230:1 1238:2 1242:6
-1 393:1 1117:1 1162:1 1218:1 1221:1 1242:3
-1 393:1 1117:1 1162:1 1218:1 1221:1 1242:3
-1 393:1 1117:1 1162:1 1218:1 1221:1 1242:3
-1 223:1 233:1 281:1 347:1 421:1 509:1 1119:1 1162:1 1218:1 1222:1 1224:1 1238:1 1242:1 1244:75
-1 155:1 1117:1 1221:1 1242:3
-1 1058:1 1228:1 1242:1
-1 1117:1 1162:1 1218:1 1221:1 1242:2
-1 1117:1 1119:1 1162:1 1218:1 1221:1 1222:1 1242:3
-1 347:1 508:1 509:1 1117:1 1119:1 1162:1 1218:1 1221:1 1222:1 1224:1 1235:1 1238:1 1242:2
-1 1117:1 1119:1 1162:1 1218:1 1221:1 1222:1 1242:2
-1 1117:1 1119:1 1162:1 1218:1 1221:1 1222:1 1242:3
-1 155:1 1117:1 1221:1 1242:1
-1 508:1 578:1 910:1 1119:1 1162:1 1218:1 1222:1 1230:1 1233:1 1235:1 1242:1
-1 166:1 178:1 347:1 508:1 820:1 910:1 1119:1 1162:1 1215:1 1218:1 1220:1 1222:1 1224:1 1230:1 1232:1 1235:1 1242:3
-1 155:1 1117:1 1221:1 1242:3
-1 166:1 167:1 196:1 347:1 508:1 703:1 970:1 1101:1 1117:1 1119:1 1162:1 1218:1 1221:1 1222:1 1224:1 1225:1 1232:1 1235:1 1242:2
-1 928:1 1240:1 1242:3
-1 996:1 1162:1 1218:1 1242:4 1244:3
-1 178:1 347:1 508:1 910:1 943:1 1117:2 1119:1 1162:1 1215:1 1218:1 1221:2 1222:1 1224:1 1230:1 1235:1 1242:3
-1 1058:1 1228:1 1242:1
-1 928:1 1240:1 1242:3
-1 166:1 178:1 347:1 508:1 509:1 578:1 910:1 1117:1 1119:1 1162:1 1215:1 1218:1 1221:1 1222:1 1224:1 1230:1 1232:1 1233:1 1235:1 1238:1 1242:4
-1 506:1 645:1 1162:1 1218:1 1242:1
-1 166:1 509:1 910:2 1119:2 1162:2 1218:2 1222:2 1230:2 1232:1 1238:1 1242:6
-1 928:1 1240:1 1242:3
-1 303:1 497:1 508:1 710:1 1081:1 1117:2 1119:1 1162:1 1218:1 1221:2 1222:1 1235:1 1242:2
-1 508:1 710:1 1117:2 1119:1 1162:1 1218:1 1221:2 1222:1 1235:1 1242:2 1244:26
-1 928:1 1240:1 1242:3
-1 928:1 1240:1 1242:3
-1 928:1 1240:1 1242:2
-1 1117:1 1162:1 1218:1 1221:1 1242:3
-1 166:1 178:1 347:1 421:1 508:1 509:1 578:1 820:1 910:1 1073:1 1119:1 1162:1 1215:1 1218:1 1220:1 1222:1 1224:1 1230:1 1232:1 1233:1 1235:1 1238:1 1242:2
-1 166:1 509:1 1119:1 1162:1 1218:1 1222:1 1232:1 1238:1 1242:2
-1 178:1 347:1 508:1 910:1 943:1 1117:2 1119:1 1162:1 1215:1 1218:1 1221:2 1222:1 1224:1 1230:1 1235:1 1242:2
-1 166:1 508:1 655:1 943:1 970:1 1119:1 1121:1 1162:1 1218:1 1222:1 1225:1 1232:1 1235:1 1242:3
-1 167:1 564:1 710:1 764:1 1081:1 1117:1 1162:1 1218:1 1221:1 1242:2
-1 166:1 509:1 910:2 1119:2 1162:2 1218:2 1222:2 1230:2 1232:1 1238:1 1242:7
-1 145:1 192:1 307:1 509:1 551:1 740:1 910:1 1015:1 1109:1 1117:1 1119:1 1162:1 1163:1 1218:1 1221:1 1222:1 1230:1 1238:1 1242:3
-1 178:1 508:1 561:1 910:1 1032:1 1117:1 1119:1 1162:1 1182:1 1215:1 1218:1 1221:1 1222:1 1230:1 1235:1 1242:2
-1 166:1 178:1 347:1 508:1 820:1 910:1 1119:1 1162:1 1215:1 1218:1 1220:1 1222:1 1224:1 1230:1 1232:1 1235:1 1242:3
-1 137:1 192:1 193:1 264:1 265:1 332:1 352:1 383:1 426:1 509:1 516:1 536:1 540:1 551:1 617:1 623:1 643:1 740:1 785:1 823:1 844:1 848:1 893:1 999:1 1021:1 1025:1 1090:1 1109:1 1117:1 1151:1 1163:1 1187:1 1209:1 1221:1 1238:1 1242:2
-1 162:1 217:1 244:1 267:1 330:1 444:1 480:1 493:1 553:1 557:1 558:1 562:1 567:1 594:1 651:1 742:1 823:1 845:1 848:1 893:1 916:1 961:1 995:1 999:1 1004:1 1048:1 1109:1 1117:1 1194:1 1221:1 1236:1 1239:1 1242:2
-1 928:1 1240:1 1242:3
-1 233:1 820:1 823:1 1117:1 1119:1 1128:1 1162:1 1218:1 1220:1 1221:1 1222:1 1242:2
-1 421:1 910:1 943:1 1117:2 1119:1 1162:1 1218:1 1221:2 1222:1 1230:1 1242:2
-1 167:1 910:1 1117:1 1128:1 1162:1 1218:1 1221:1 1230:1 1242:2
-1 166:1 178:1 347:1 421:1 508:1 578:1 910:1 943:1 1117:2 1119:1 1162:1 1215:1 1218:1 1221:2 1222:1 1224:1 1230:1 1232:1 1233:1 1235:1 1242:2
-1 171:1 331:1 459:1 472:1 1117:2 1162:1 1218:1 1221:2 1242:2
-1 217:1 244:1 265:1 267:1 417:1 474:1 493:1 553:1 562:1 567:1 594:1 742:1 743:1 845:1 848:1 893:1 916:1 961:1 1048:1 1109:1 1117:1 1176:1 1177:1 1194:1 1221:1 1242:2
-1 1058:1 1228:1 1242:1
-1 192:1 352:1 551:1 740:1 823:1 848:1 893:1 931:1 1021:1 1090:1 1109:1 1115:1 1117:1 1163:1 1177:1 1214:1 1221:1 1242:2
-1 1054:1 1162:1 1218:1 1242:2
-1 1054:1 1162:1 1218:1 1242:2
-1 178:1 910:1 1117:1 1119:1 1162:1 1215:1 1218:1 1221:1 1222:1 1230:1 1242:1
-1 166:1 178:1 508:1 578:1 592:1 910:1 1117:1 1119:1 1162:1 1215:1 1218:1 1221:1 1222:1 1230:1 1232:1 1233:1 1235:1 1242:2
-1 1058:1 1228:1 1242:1
-1 166:1 178:1 347:1 508:1 509:1 557:1 787:1 820:1 910:1 1119:1 1162:1 1215:1 1218:1 1220:1 1222:1 1224:1 1230:1 1232:1 1235:1 1238:1 1242:2
-1 166:1 178:1 347:1 508:1 509:1 578:1 820:1 910:1 1119:1 1162:1 1215:1 1218:1 1220:1 1222:1 1224:1 1230:1 1232:1 1233:1 1235:1 1238:1 1242:5
-1 1162:1 1218:1 1242:1
-1 166:1 178:1 426:1 509:1 578:1 823:1 884:1 910:1 995:1 1068:1 1117:1 1119:1 1162:1 1215:1 1218:1 1221:1 1222:1 1230:1 1232:1 1233:1 1238:1 1239:1 1242:2
-1 192:1 347:1 426:1 464:1 551:1 629:1 661:1 740:1 823:1 860:1 894:1 910:1 995:1 1109:1 1162:1 1163:1 1218:1 1223:1 1224:1 1230:1 1239:1 1242:1
-1 192:1 348:1 383:1 426:1 439:1 464:1 509:1 551:1 557:1 629:1 639:1 661:1 740:1 741:1 823:1 844:1 860:1 894:1 910:1 975:1 995:1 1090:1 1099:1 1109:1 1115:1 1119:1 1162:1 1163:1 1177:1 1218:1 1222:1 1223:1 1230:1 1238:1 1239:1 1242:1
-1 156:1 192:1 215:1 233:1 265:1 348:1 362:1 426:1 509:1 516:1 551:1 617:1 633:1 639:1 657:1 677:1 740:1 821:1 822:1 823:1 844:1 848:1 875:1 893:1 993:1 999:1 1002:1 1048:1 1065:1 1077:1 1109:1 1115:1 1117:1 1151:1 1163:1 1177:1 1187:1 1204:1 1212:1 1221:1 1238:1 1242:1
-1 192:1 233:1 348:1 516:1 551:1 617:1 657:1 740:1 823:1 844:1 893:1 999:1 1073:1 1109:1 1115:1 1117:1 1163:1 1221:1 1242:1
-1 1058:1 1228:1 1242:1
-1 1058:1 1228:1 1242:1
-1 1119:1 1162:1 1218:1 1222:1 1242:1
-1 928:1 1240:1 1242:3
-1 166:1 509:1 910:3 1119:2 1162:4 1218:4 1222:2 1230:3 1232:1 1238:1 1242:4
-1 138:1 166:1 178:1 347:1 508:1 509:1 888:1 910:1 976:1 1119:1 1128:1 1162:1 1215:1 1218:1 1222:1 1224:1 1230:1 1232:1 1235:1 1238:1 1242:1
-1 347:1 751:1 1066:1 1119:1 1162:1 1218:1 1222:1 1224:1 1242:1 1244:1
-1 178:1 347:1 508:1 509:1 910:1 1119:1 1162:1 1215:1 1218:1 1222:1 1224:1 1230:1 1235:1 1238:1 1242:1
-1 423:1 1117:1 1162:1 1218:1 1221:1 1242:4
-1 166:1 178:1 347:1 439:1 508:1 509:1 578:1 910:1 1119:1 1162:1 1215:1 1218:1 1222:1 1224:1 1230:1 1232:1 1233:1 1235:1 1238:1 1242:1
-1 281:1 1162:1 1218:1 1242:2
-1 217:1 244:1 265:1 267:1 352:1 417:1 474:1 480:1 493:1 553:1 562:1 567:1 594:1 610:1 612:1 712:1 742:1 743:1 755:1 823:1 845:1 848:1 893:1 961:1 1100:1 1109:1 1117:1 1176:1 1185:1 1194:1 1204:1 1221:1 1242:1
-1 943:1 1162:1 1218:1 1242:2
-1 1084:1 1117:1 1119:1 1162:1 1218:1 1221:1 1222:1 1242:2
-1 1084:1 1117:1 1119:1 1162:1 1218:1 1221:1 1222:1 1242:2
-1 166:1 509:1 910:2 1119:2 1162:2 1218:2 1222:2 1230:2 1232:1 1238:1 1242:6
-1 1162:1 1218:1 1242:2
-1 1084:1 1117:1 1119:1 1162:1 1218:1 1221:1 1222:1 1242:2
-1 943:1 1162:1 1218:1 1242:2
-1 1162:1 1218:1 1242:2
-1 943:1 1162:1 1218:1 1242:2
-1 347:1 509:1 910:1 1117:1 1119:1 1162:1 1218:1 1221:1 1222:1 1224:1 1230:1 1238:1 1242:1
-1 347:1 509:1 910:1 1117:1 1119:1 1128:1 1162:1 1218:1 1221:1 1222:1 1224:1 1230:1 1238:1 1242:1
-1 166:1 509:1 910:2 1119:2 1162:2 1218:2 1222:2 1230:2 1232:1 1238:1 1242:7
-1 170:1 185:1 198:1 347:1 421:1 508:1 571:1 665:1 1119:1 1162:1 1218:1 1222:1 1224:1 1235:1 1242:2
-1 170:1 185:1 198:1 347:1 421:1 508:1 571:1 665:1 1119:1 1162:1 1218:1 1222:1 1224:1 1235:1 1242:2
-1 170:1 185:1 198:1 347:1 421:1 508:1 571:1 665:1 1119:1 1162:1 1218:1 1222:1 1224:1 1235:1 1242:2
-1 1058:1 1228:1 1242:1
-1 166:1 178:1 232:1 233:1 508:1 820:1 910:1 1119:1 1162:1 1215:1 1218:1 1220:1 1222:1 1230:1 1232:1 1235:1 1242:3
-1 224:1 442:1 710:1 1081:1 1162:1 1218:1 1242:1
-1 121:1 224:1 710:1 1081:1 1162:1 1218:1 1242:1
-1 421:1 578:1 703:1 1119:1 1162:1 1218:1 1222:1 1233:1 1242:1
-1 224:1 710:1 1137:1 1162:1 1218:1 1242:1
-1 121:1 224:1 710:1 1081:1 1162:1 1218:1 1242:1
-1 224:1 423:1 710:1 1081:1 1162:1 1218:1 1242:1
-1 224:1 421:1 508:1 710:1 1081:1 1119:1 1162:1 1218:1 1222:1 1235:1 1242:1
-1 121:1 224:1 710:1 1162:1 1218:1 1242:1
-1 166:1 178:1 347:1 421:1 508:1 578:1 910:1 943:1 1117:2 1119:1 1162:1 1215:1 1218:1 1221:2 1222:1 1224:1 1230:1 1232:1 1233:1 1235:1 1242:2
-1 178:1 347:1 421:1 508:1 578:1 910:1 943:1 1117:2 1119:1 1162:1 1215:1 1218:1 1221:2 1222:1 1224:1 1230:1 1233:1 1235:1 1242:2
-1 508:1 1117:1 1119:1 1162:1 1218:1 1221:1 1222:1 1235:1 1242:2
-1 166:1 509:1 910:3 1119:2 1162:4 1218:4 1222:2 1230:3 1232:1 1238:1 1242:5
-1 192:1 265:1 348:1 516:1 540:1 551:1 617:1 633:1 639:1 657:1 740:1 821:1 844:1 848:1 893:1 999:1 1077:1 1090:1 1109:1 1115:1 1117:1 1163:1 1204:1 1221:1 1242:2
-1 166:1 509:1 910:2 1119:2 1162:2 1218:2 1222:2 1230:2 1232:1 1238:1 1242:6
-1 166:1 509:1 910:2 1119:2 1162:2 1218:2 1222:2 1230:2 1232:1 1238:1 1242:7
-1 928:1 1240:1 1242:2
-1 192:1 265:1 272:1 348:1 352:1 516:1 551:1 617:1 657:1 740:1 844:1 848:1 875:1 893:1 999:1 1090:1 1109:1 1115:1 1117:1 1151:1 1163:1 1204:1 1221:1 1242:2
-1 170:1 198:1 421:1 665:1 943:1 1119:1 1162:1 1218:1 1222:1 1242:2
-1 192:1 206:1 294:1 348:1 362:1 464:1 516:1 540:1 551:1 617:1 740:1 823:1 844:1 848:1 875:1 893:1 999:1 1090:1 1109:1 1115:1 1151:1 1163:1 1242:1
-1 166:1 508:1 509:2 820:1 910:2 1104:1 1119:2 1162:4 1218:4 1220:1 1222:2 1230:2 1232:1 1235:1 1238:2 1242:6
-1 233:1 1117:1 1162:1 1218:1 1221:1 1242:2
-1 928:1 1240:1 1242:2
-1 928:1 1240:1 1242:2
-1 928:1 1240:1 1242:2
-1 928:1 1240:1 1242:2
-1 178:1 192:1 232:1 508:1 551:1 821:1 823:1 830:1 910:1 1082:1 1084:1 1109:1 1117:1 1119:1 1128:1 1162:1 1163:1 1215:1 1218:1 1221:1 1222:1 1230:1 1235:1 1242:3
-1 365:1 429:1 511:1 604:1 672:1 700:1 924:1 1162:1 1196:1 1218:1 1242:1 1244:30
-1 166:1 178:1 347:1 440:1 508:1 509:1 578:1 910:1 1119:1 1128:1 1162:1 1215:1 1218:1 1222:1 1224:1 1230:1 1232:1 1233:1 1235:1 1238:1 1242:2
-1 1117:1 1162:1 1218:1 1221:1 1242:2
-1 171:1 331:1 347:1 357:1 459:1 472:1 979:1 1117:2 1119:1 1162:1 1218:1 1221:2 1222:1 1224:1 1242:4
-1 1119:1 1162:1 1218:1 1222:1 1242:4 1244:5
-1 903:1 1162:1 1218:1 1242:4
-1 166:2 178:2 347:2 440:1 508:1 509:4 578:1 820:1 910:3 970:1 1119:2 1162:4 1215:2 1218:4 1220:1 1222:2 1224:2 1225:1 1230:3 1232:2 1233:1 1235:1 1238:4 1242:5
-1 166:1 178:1 347:1 508:1 820:1 910:1 1119:1 1162:1 1215:1 1218:1 1220:1 1222:1 1224:1 1230:1 1232:1 1235:1 1242:3
-1 166:1 178:1 347:1 508:1 820:1 910:1 931:1 1073:1 1119:1 1128:1 1162:1 1214:1 1215:1 1218:1 1220:1 1222:1 1224:1 1230:1 1232:1 1235:1 1242:3
-1 1162:1 1218:1 1242:1
-1 192:1 265:1 315:1 348:1 352:1 478:1 516:1 551:1 617:1 647:1 657:1 712:1 740:1 844:1 848:1 867:1 893:1 999:1 1090:1 1109:1 1115:1 1117:1 1163:1 1221:1 1242:2
-1 166:1 178:1 347:1 508:1 509:1 578:1 820:1 910:1 1119:1 1128:1 1162:1 1215:1 1218:1 1220:1 1222:1 1224:1 1230:1 1232:1 1233:1 1235:1 1238:1 1242:1
-1 166:1 178:1 347:1 508:1 509:1 578:1 820:1 910:1 1119:1 1128:1 1162:1 1215:1 1218:1 1220:1 1222:1 1224:1 1230:1 1232:1 1233:1 1235:1 1238:1 1242:1
-1 166:1 178:1 347:1 508:1 509:1 578:1 820:1 910:1 1119:1 1128:1 1162:1 1215:1 1218:1 1220:1 1222:1 1224:1 1230:1 1232:1 1233:1 1235:1 1238:1 1242:1
-1 172:1 365:1 429:1 672:1 982:1 1162:1 1218:1 1242:1 1244:1
-1 924:1 1162:1 1218:1 1242:2
-1 924:1 1119:1 1162:1 1218:1 1222:1 1242:2
-1 869:1 1162:1 1218:1 1242:2
-1 178:1 910:1 1119:1 1162:1 1215:1 1218:1 1222:1 1230:1 1242:1
-1 178:1 347:1 509:1 820:1 910:1 1117:1 1119:1 1128:1 1162:1 1215:1 1218:1 1220:1 1221:1 1222:1 1224:1 1230:1 1238:1 1242:1
-1 1119:1 1162:1 1218:1 1222:1 1242:2
-1 910:1 1119:1 1162:1 1218:1 1222:1 1230:1 1242:1
-1 166:1 509:1 910:2 1119:2 1162:2 1218:2 1222:2 1230:2 1232:1 1238:1 1242:7
-1 955:1 1117:2 1162:1 1218:1 1221:2 1242:2
-1 166:1 178:1 508:1 910:1 943:1 1117:1 1119:1 1162:1 1215:1 1218:1 1221:1 1222:1 1230:1 1232:1 1235:1 1242:2
-1 928:1 1240:1 1242:3
-1 166:1 347:1 508:1 509:3 578:1 820:1 910:2 1119:2 1162:4 1218:4 1220:1 1222:2 1224:1 1230:2 1232:1 1233:1 1235:1 1238:3 1242:6
-1 508:1 910:1 1119:1 1162:1 1218:1 1222:1 1230:1 1235:1 1242:1
-1 192:1 347:1 407:1 426:1 449:1 551:1 726:1 740:1 823:1 893:1 910:1 1109:1 1117:1 1119:1 1162:1 1163:1 1218:1 1221:1 1222:1 1224:1 1230:1 1242:3
-1 178:1 232:1 347:1 509:1 820:1 910:1 1119:1 1162:1 1215:1 1218:1 1220:1 1222:1 1224:1 1230:1 1238:1 1242:1
-1 192:1 208:1 265:1 348:1 352:1 426:1 484:1 509:1 516:1 551:1 557:1 736:1 740:1 822:1 875:1 893:1 1109:1 1115:1 1117:1 1163:1 1221:1 1238:1 1242:2
-1 192:1 265:1 330:1 348:1 426:1 540:1 551:1 617:1 712:1 740:1 823:1 844:1 848:1 875:1 893:1 999:1 1021:1 1109:1 1117:1 1163:1 1221:1 1242:3
-1 1117:1 1162:1 1218:1 1221:1 1242:4
-1 903:1 1162:1 1218:1 1242:3
-1 166:1 508:1 578:1 910:1 1117:1 1119:1 1162:1 1218:1 1221:1 1222:1 1230:1 1232:1 1233:1 1235:1 1242:3
-1 192:1 407:1 426:1 449:1 551:1 740:1 893:1 1083:1 1109:1 1117:1 1119:1 1128:1 1162:1 1163:1 1218:1 1221:1 1222:1 1242:3
-1 162:1 192:1 265:1 330:1 348:1 383:1 464:1 551:1 617:1 629:1 661:1 712:1 740:1 823:1 844:1 848:1 893:1 894:1 1021:1 1109:1 1115:1 1163:1 1223:1 1242:3
-1 192:1 407:1 426:1 449:1 551:1 740:1 893:1 910:1 1083:1 1109:1 1117:1 1119:1 1162:1 1163:1 1218:1 1221:1 1222:1 1230:1 1242:1
-1 192:1 265:1 348:1 426:1 464:1 516:1 551:1 740:1 841:1 848:1 893:1 1109:1 1117:1 1163:1 1221:1 1242:1
-1 1117:1 1162:1 1218:1 1221:1 1242:3
-1 166:1 178:1 347:1 823:1 888:1 910:1 994:1 1008:1 1085:1 1117:1 1119:1 1162:1 1215:1 1218:1 1221:1 1222:1 1224:1 1230:1 1232:1 1242:2
-1 928:1 1240:1 1242:4
-1 166:1 178:1 347:1 508:1 509:1 820:1 910:1 1119:1 1162:1 1215:1 1218:1 1220:1 1222:1 1224:1 1230:1 1232:1 1235:1 1238:1 1242:3
-1 509:2 910:1 1117:1 1119:2 1162:4 1218:4 1221:1 1222:2 1230:1 1238:2 1242:5
-1 1117:2 1162:1 1218:1 1221:2 1242:2
-1 167:1 910:1 1101:1 1117:1 1162:1 1218:1 1221:1 1230:1 1242:3
-1 166:1 178:1 347:1 508:1 820:1 910:1 1119:1 1162:1 1215:1 1218:1 1220:1 1222:1 1224:1 1230:1 1232:1 1235:1 1242:3
-1 121:1 710:1 1081:1 1162:1 1218:1 1242:2
-1 119:1 192:1 314:1 348:1 516:1 532:1 551:1 617:1 657:1 740:1 823:1 844:1 893:1 999:1 1050:1 1090:1 1109:1 1115:1 1117:1 1163:1 1177:1 1221:1 1242:2
-1 136:1 347:1 509:1 820:1 831:1 910:1 928:1 937:1 1119:1 1128:1 1162:1 1218:1 1220:1 1222:1 1224:1 1230:1 1238:1 1240:1 1242:1 1244:1
-1 910:1 1117:1 1119:1 1162:1 1218:1 1221:1 1222:1 1230:1 1242:2
-1 910:1 1117:1 1119:1 1162:1 1218:1 1221:1 1222:1 1230:1 1242:2
-1 166:1 509:1 1119:1 1162:1 1218:1 1222:1 1232:1 1238:1 1242:2
-1 178:1 314:1 319:1 347:1 508:1 509:1 557:1 651:1 820:1 910:1 931:1 1119:1 1124:1 1162:1 1214:1 1215:1 1218:1 1220:1 1222:1 1224:1 1229:1 1230:1 1235:1 1236:1 1238:1 1242:2
-1 178:1 314:1 319:1 347:1 508:1 509:1 557:1 651:1 820:1 910:1 931:1 1119:1 1124:1 1162:1 1214:1 1215:1 1218:1 1220:1 1222:1 1224:1 1229:1 1230:1 1235:1 1236:1 1238:1 1242:2
-1 1119:1 1162:1 1218:1 1222:1 1242:3
-1 166:1 178:1 347:1 508:1 820:1 910:1 1119:1 1162:1 1215:1 1218:1 1220:1 1222:1 1224:1 1230:1 1232:1 1235:1 1242:4
-1 910:1 1117:1 1119:1 1162:1 1218:1 1221:1 1222:1 1230:1 1242:2
-1 137:1 192:1 264:1 265:1 274:1 294:1 348:1 352:1 439:1 464:1 516:1 540:1 551:1 612:1 617:1 623:1 639:1 669:1 712:1 740:1 755:1 785:1 823:1 844:1 848:1 875:1 893:1 984:1 999:1 1021:1 1090:1 1109:1 1115:1 1117:1 1119:1 1163:1 1221:1 1222:1 1242:1 1244:142
-1 274:1 347:1 669:1 910:1 1117:1 1119:1 1162:1 1218:1 1221:1 1222:1 1224:1 1230:1 1242:2 1244:2
-1 1119:1 1162:1 1218:1 1222:1 1242:3
-1 1058:1 1228:1 1242:1
-1 1058:1 1228:1 1242:1
-1 347:1 1117:1 1162:1 1218:1 1221:1 1224:1 1242:3
-1 1117:1 1119:1 1162:1 1218:1 1221:1 1222:1 1242:1
-1 162:1 192:1 265:1 332:1 352:1 362:1 516:1 521:1 551:1 617:1 623:1 657:1 740:1 823:1 844:1 848:1 875:1 893:1 999:1 1021:1 1090:1 1109:1 1115:1 1117:1 1163:1 1221:1 1242:3
-1 178:1 314:1 319:1 578:1 820:1 823:1 872:1 910:1 981:1 1117:1 1119:1 1162:1 1215:1 1218:1 1220:1 1221:1 1222:1 1230:1 1233:1 1242:1
-1 820:1 981:1 1162:1 1218:1 1220:1 1242:1
-1 166:1 1119:1 1162:1 1218:1 1222:1 1232:1 1242:2
-1 928:1 1240:1 1242:3
-1 1119:1 1128:1 1162:1 1218:1 1222:1 1242:4
-1 347:1 421:1 1117:2 1119:1 1162:1 1218:1 1221:2 1222:1 1224:1 1242:3
-1 928:1 1240:1 1242:2
-1 178:1 508:1 578:1 831:1 1117:2 1119:1 1162:1 1215:1 1218:1 1221:2 1222:1 1233:1 1235:1 1242:3
-1 166:1 178:1 1066:1 1119:1 1162:1 1215:1 1218:1 1222:1 1232:1 1242:3
-1 1058:1 1228:1 1242:1
-1 1058:1 1228:1 1242:1
-1 166:1 178:1 347:1 421:1 440:1 492:1 508:1 509:1 578:1 786:1 820:1 883:1 910:1 931:1 970:1 1000:1 1066:1 1092:1 1119:1 1128:1 1162:1 1214:1 1215:1 1218:1 1220:1 1222:1 1224:1 1225:1 1230:1 1232:1 1233:1 1235:1 1238:1 1242:1 1244:1025
-1 166:1 178:1 347:1 421:1 451:1 479:1 508:1 509:3 556:1 578:1 703:1 820:1 910:2 1023:1 1035:1 1114:1 1119:3 1147:1 1162:6 1213:1 1215:1 1218:6 1220:1 1222:3 1224:1 1230:2 1232:1 1233:1 1235:1 1238:3 1242:4 1244:1
-1 166:1 178:1 347:1 358:1 508:1 509:1 578:1 820:1 910:1 1000:1 1119:1 1162:1 1215:1 1218:1 1220:1 1222:1 1224:1 1230:1 1232:1 1233:1 1235:1 1238:1 1242:5
-1 166:1 178:1 578:1 910:1 1117:2 1119:1 1162:1 1215:1 1218:1 1221:2 1222:1 1230:1 1232:1 1233:1 1242:3
-1 178:1 347:1 509:1 1117:1 1119:1 1162:1 1215:1 1218:1 1221:1 1222:1 1224:1 1238:1 1242:2
-1 388:1 423:1 457:1 533:1 681:1 710:1 746:1 773:1 869:1 950:1 1069:1 1081:1 1162:1 1218:1 1242:2
-1 1058:1 1228:1 1242:1
-1 166:1 178:2 347:1 421:1 451:1 479:1 508:2 509:3 534:1 703:1 820:1 833:1 910:2 943:1 1023:1 1035:1 1114:2 1117:1 1119:3 1162:6 1213:1 1215:2 1218:6 1220:1 1221:1 1222:3 1224:1 1230:2 1232:1 1235:2 1238:3 1242:4 1244:1
-1 388:1 423:1 457:1 681:1 710:1 746:1 773:1 869:1 950:1 1069:1 1081:1 1162:1 1218:1 1242:1
-1 476:1 645:1 1119:1 1162:1 1218:1 1222:1 1242:1
-1 166:1 178:1 347:1 508:1 820:1 910:1 1119:1 1162:1 1215:1 1218:1 1220:1 1222:1 1224:1 1230:1 1232:1 1235:1 1242:3
-1 910:1 1117:2 1119:1 1162:1 1218:1 1221:2 1222:1 1230:1 1242:3
-1 134:1 166:1 178:1 185:1 255:1 347:1 421:1 492:1 508:1 578:1 774:1 910:1 1092:1 1119:1 1162:1 1215:1 1218:1 1222:1 1224:1 1230:1 1232:1 1233:1 1235:1 1242:2
-1 166:1 178:1 185:1 347:1 421:1 492:1 508:1 509:1 578:1 910:1 1092:1 1119:1 1162:1 1215:1 1218:1 1222:1 1224:1 1230:1 1232:1 1233:1 1235:1 1238:1 1242:4
-1 134:1 166:1 178:1 185:1 255:1 347:1 421:1 492:1 508:1 578:1 774:1 910:1 1092:1 1119:1 1162:1 1215:1 1218:1 1222:1 1224:1 1230:1 1232:1 1233:1 1235:1 1242:2
-1 134:1 166:1 178:1 185:1 255:1 347:1 421:1 486:1 492:1 508:1 578:1 774:1 910:1 1092:1 1119:1 1162:1 1215:1 1218:1 1222:1 1224:1 1230:1 1232:1 1233:1 1235:1 1242:4
-1 928:1 1240:1 1242:3
-1 166:1 178:1 347:1 358:1 421:1 508:1 509:1 578:1 820:1 910:1 970:1 976:1 1092:1 1119:1 1162:1 1215:1 1218:1 1220:1 1222:1 1224:1 1225:1 1230:1 1232:1 1233:1 1235:1 1238:1 1242:2
-1 928:1 1240:1 1242:3
-1 178:1 185:1 421:1 508:1 578:1 710:1 910:1 943:1 1101:1 1117:1 1119:1 1162:1 1215:1 1218:1 1221:1 1222:1 1230:1 1233:1 1235:1 1242:2 1244:202
-1 166:1 178:1 347:1 508:1 820:1 910:1 1119:1 1162:1 1215:1 1218:1 1220:1 1222:1 1224:1 1230:1 1232:1 1235:1 1242:3
-1 423:1 509:1 1119:1 1162:1 1218:1 1222:1 1238:1 1242:4
-1 166:1 178:1 508:1 509:2 578:1 820:1 910:2 1068:1 1119:2 1162:5 1215:1 1218:5 1220:1 1222:2 1230:2 1232:1 1233:1 1235:1 1238:2 1242:7
-1 928:1 1240:1 1242:3
-1 928:1 1240:1 1242:2
-1 178:1 645:1 880:1 881:1 910:1 1119:1 1162:1 1215:1 1218:1 1222:1 1230:1 1242:1
-1 588:1 1117:1 1162:1 1218:1 1221:1 1242:7
-1 233:1 421:1 1117:2 1119:1 1162:1 1218:1 1221:2 1222:1 1242:3
-1 166:1 178:1 347:1 508:1 509:1 578:1 703:1 820:1 910:1 1119:1 1128:1 1162:1 1215:1 1218:1 1220:1 1222:1 1224:1 1230:1 1232:1 1233:1 1235:1 1238:1 1242:1
-1 178:1 347:1 421:1 508:1 910:1 943:1 970:1 1117:2 1119:1 1162:1 1215:1 1218:1 1221:2 1222:1 1224:1 1225:1 1230:1 1235:1 1242:2
-1 166:1 178:1 347:1 508:1 820:1 910:1 1119:1 1162:1 1215:1 1218:1 1220:1 1222:1 1224:1 1230:1 1232:1 1235:1 1242:3
-1 160:1 166:1 178:1 347:1 430:1 494:1 508:1 509:1 578:1 606:1 645:1 699:1 873:1 881:1 910:1 988:1 1027:1 1119:1 1162:1 1215:1 1218:1 1222:1 1224:1 1230:1 1232:1 1233:1 1235:1 1238:1 1242:1 1244:1
-1 178:1 347:1 509:1 645:1 910:1 1119:1 1162:1 1215:1 1218:1 1222:1 1224:1 1230:1 1238:1 1242:1
-1 314:1 319:1 645:1 910:1 1162:1 1218:1 1230:1 1242:2
-1 233:1 645:1 831:1 910:1 988:1 1050:1 1162:1 1218:1 1230:1 1242:3
-1 160:1 166:1 178:1 347:1 430:1 494:1 508:1 509:1 578:1 606:1 621:1 645:1 699:1 703:1 873:1 881:1 910:1 930:1 976:1 988:1 1119:1 1128:1 1160:1 1162:1 1215:1 1218:1 1222:1 1224:1 1230:1 1232:1 1233:1 1235:1 1238:1 1242:2
-1 160:1 166:1 178:1 347:1 430:1 494:1 508:1 509:1 606:1 645:1 699:1 873:1 881:1 988:1 1119:1 1162:1 1215:1 1218:1 1222:1 1224:1 1232:1 1235:1 1238:1 1242:2
-1 178:1 232:1 233:1 314:1 347:1 421:1 439:1 508:1 509:1 645:1 910:1 1119:1 1162:1 1215:1 1218:1 1222:1 1224:1 1230:1 1235:1 1238:1 1242:1 1244:30
-1 347:1 509:1 645:1 881:1 910:1 1119:1 1162:1 1218:1 1222:1 1224:1 1230:1 1238:1 1242:1
-1 166:1 178:1 347:1 508:1 509:1 645:1 703:1 881:1 910:1 1119:1 1128:1 1162:1 1215:1 1218:1 1222:1 1224:1 1230:1 1232:1 1235:1 1238:1 1242:1
-1 160:1 178:1 347:1 401:1 494:1 508:1 509:1 645:1 699:1 703:1 873:1 881:1 910:1 976:1 988:1 1119:1 1128:1 1162:1 1215:1 1218:1 1222:1 1224:1 1230:1 1235:1 1238:1 1242:1 1244:11
-1 178:1 233:1 314:1 347:1 509:1 645:1 910:1 943:1 1119:1 1162:1 1215:1 1218:1 1222:1 1224:1 1230:1 1238:1 1242:1
-1 928:1 1240:1 1242:4
-1 166:1 178:1 347:1 439:1 508:1 509:1 703:1 910:1 970:1 1119:1 1128:1 1162:1 1215:1 1218:1 1222:1 1224:1 1225:1 1230:1 1232:1 1235:1 1238:1 1242:1
-1 928:1 1240:1 1242:2
-1 1058:1 1228:1 1242:1
-1 166:1 178:1 421:1 508:1 509:1 578:1 888:1 910:1 1119:1 1128:1 1162:1 1215:1 1218:1 1222:1 1230:1 1232:1 1233:1 1235:1 1238:1 1242:6
-1 508:1 578:1 820:1 910:1 1119:1 1162:1 1218:1 1220:1 1222:1 1230:1 1233:1 1235:1 1242:1
-1 167:1 178:1 200:1 486:1 834:1 910:1 1117:1 1162:1 1215:1 1218:1 1221:1 1230:1 1242:2
-1 166:1 421:1 508:1 509:2 578:1 710:2 910:2 1081:1 1119:2 1162:4 1218:4 1222:2 1230:2 1232:1 1233:1 1235:1 1238:2 1242:6
-1 166:1 178:1 347:1 508:1 820:1 910:1 1119:1 1162:1 1215:1 1218:1 1220:1 1222:1 1224:1 1230:1 1232:1 1235:1 1242:3
-1 166:1 509:1 910:2 1119:2 1162:2 1218:2 1222:2 1230:2 1232:1 1238:1 1242:6
-1 347:1 461:1 910:1 943:1 1119:1 1162:1 1218:1 1222:1 1224:1 1230:1 1242:3
-1 347:1 461:1 910:1 943:1 1119:1 1162:1 1218:1 1222:1 1224:1 1230:1 1242:3
-1 388:1 423:1 457:1 681:1 710:1 773:1 869:1 950:1 1081:1 1162:1 1218:1 1242:2
-1 180:1 281:1 331:1 472:1 904:1 1162:1 1218:1 1242:1
-1 180:1 198:1 277:1 347:1 421:1 443:1 692:1 901:1 1119:1 1140:1 1162:1 1218:1 1222:1 1224:1 1242:2
-1 928:1 1240:1 1242:2
-1 347:1 509:1 972:1 1162:1 1218:1 1224:1 1238:1 1242:2
-1 178:1 347:1 509:1 910:1 1119:1 1128:1 1162:1 1215:1 1218:1 1222:1 1224:1 1230:1 1238:1 1242:1
-1 178:1 232:1 820:1 831:1 910:1 1050:1 1128:1 1162:1 1215:1 1218:1 1220:1 1230:1 1242:1
-1 178:1 1117:1 1119:1 1162:1 1215:1 1218:1 1221:1 1222:1 1242:2
-1 166:1 178:1 347:1 508:1 509:3 578:1 820:1 910:2 1119:2 1162:1 1215:1 1218:1 1220:1 1222:2 1224:1 1230:2 1232:1 1233:1 1235:1 1238:3 1242:12
-1 1119:1 1162:1 1218:1 1222:1 1242:1
-1 192:1 243:1 274:1 426:1 500:1 509:1 551:1 740:1 910:1 972:1 1051:1 1117:1 1162:1 1163:1 1218:1 1221:1 1230:1 1238:1 1242:1
-1 137:1 190:1 192:1 234:1 243:1 265:1 330:1 348:1 352:1 416:1 426:1 509:1 516:1 540:1 551:1 557:1 589:1 597:1 617:1 623:1 643:1 712:1 740:1 822:1 823:1 844:1 848:1 875:1 893:1 972:1 985:1 999:1 1021:1 1090:1 1100:1 1109:1 1115:1 1117:1 1163:1 1204:1 1221:1 1238:1 1242:1
-1 178:1 281:1 347:1 508:1 509:1 683:1 910:1 928:1 1119:1 1128:1 1162:1 1215:1 1218:1 1222:1 1224:1 1230:1 1235:1 1238:1 1240:1 1242:1
-1 166:1 178:2 347:1 421:1 508:1 509:3 578:1 820:1 888:1 910:2 1092:1 1119:2 1162:4 1215:2 1218:4 1220:1 1222:2 1224:1 1230:2 1232:1 1233:1 1235:1 1238:3 1242:6
-1 223:1 281:1 347:1 421:1 423:1 509:1 943:1 1119:1 1162:1 1218:1 1222:1 1224:1 1238:1 1242:1 1244:75
-1 421:1 564:1 1162:1 1218:1 1242:2
-1 508:1 649:1 1119:1 1162:1 1218:1 1222:1 1235:1 1242:1
-1 137:1 156:1 162:1 192:1 233:1 264:1 265:1 330:1 348:1 414:1 419:1 478:1 516:1 551:1 603:1 612:1 617:1 657:1 740:1 755:1 806:1 844:1 848:1 867:1 893:1 995:1 999:1 1021:1 1073:1 1090:1 1109:1 1115:1 1117:1 1163:1 1177:1 1204:1 1221:1 1239:1 1242:2
-1 928:1 1240:1 1242:3
-1 1119:1 1162:1 1218:1 1222:1 1242:1
-1 166:1 178:1 347:1 508:1 820:1 910:1 1119:1 1162:1 1215:1 1218:1 1220:1 1222:1 1224:1 1230:1 1232:1 1235:1 1242:2
-1 178:1 508:1 910:1 1117:1 1119:1 1128:1 1162:1 1215:1 1218:1 1221:1 1222:1 1230:1 1235:1 1242:3
-1 166:1 178:1 347:1 509:1 823:1 910:1 1117:1 1119:1 1128:1 1162:1 1215:1 1218:1 1221:1 1222:1 1224:1 1230:1 1232:1 1238:1 1242:2
-1 928:1 1240:1 1242:3
-1 166:1 178:1 508:1 509:2 820:1 910:2 1119:2 1162:4 1215:1 1218:4 1220:1 1222:2 1230:2 1232:1 1235:1 1238:2 1242:6
-1 166:1 508:1 509:1 910:2 1119:2 1162:3 1218:3 1222:2 1230:2 1232:1 1235:1 1238:1 1242:6
-1 233:1 419:1 440:1 820:1 823:1 884:1 1117:1 1119:1 1128:1 1162:1 1186:1 1218:1 1220:1 1221:1 1222:1 1242:2
-1 166:1 509:1 910:2 1119:2 1162:2 1218:2 1222:2 1230:2 1232:1 1238:1 1242:8
-1 178:1 910:1 1117:1 1119:1 1162:1 1215:1 1218:1 1221:1 1222:1 1230:1 1242:4
-1 178:1 1119:1 1162:1 1215:1 1218:1 1222:1 1242:2
-1 192:1 426:1 551:1 740:1 893:1 1109:1 1117:1 1162:1 1163:1 1218:1 1221:1 1242:2
-1 166:1 178:1 347:1 508:1 578:1 910:1 943:1 1066:1 1119:1 1162:1 1215:1 1218:1 1222:1 1224:1 1230:1 1232:1 1233:1 1235:1 1242:2
-1 166:1 178:1 823:1 910:1 1117:1 1119:1 1162:1 1215:1 1218:1 1221:1 1222:1 1230:1 1232:1 1242:2
-1 1121:1 1162:1 1218:1 1242:3
-1 1117:2 1162:1 1218:1 1221:2 1242:2
-1 1117:2 1162:1 1218:1 1221:2 1242:2
-1 166:1 509:1 910:2 1119:2 1162:2 1218:2 1222:2 1230:2 1232:1 1238:1 1242:7
-1 1117:2 1162:1 1218:1 1221:2 1242:2
-1 1117:2 1162:1 1218:1 1221:2 1242:2
-1 188:1 191:1 710:1 715:1 1117:2 1162:1 1218:1 1221:2 1242:6
-1 185:1 1117:1 1162:1 1218:1 1221:1 1242:3
-1 178:1 347:1 509:3 910:1 1119:2 1162:6 1215:1 1218:6 1222:2 1224:1 1230:1 1238:3 1242:5
-1 178:1 347:1 421:1 508:1 710:1 910:1 1081:1 1101:1 1117:1 1119:1 1162:1 1215:1 1218:1 1221:1 1222:1 1224:1 1230:1 1235:1 1242:2
-1 1121:1 1162:1 1218:1 1242:3
-1 347:1 433:1 439:1 509:1 557:1 823:1 910:1 1117:1 1119:1 1162:1 1218:1 1221:1 1222:1 1224:1 1226:1 1230:1 1238:1 1242:1
-1 192:1 347:1 348:1 426:1 509:1 516:1 542:1 551:1 740:1 848:1 893:1 999:1 1090:1 1109:1 1115:1 1117:1 1119:1 1162:1 1163:1 1218:1 1221:1 1222:1 1224:1 1238:1 1242:1
-1 215:1 218:1 347:1 381:1 439:1 509:1 557:1 592:1 597:1 823:1 889:1 910:1 972:1 985:1 995:1 1117:1 1119:1 1162:1 1218:1 1221:1 1222:1 1224:1 1230:1 1238:1 1239:1 1242:1 1244:18
-1 1171:1 1242:1
-1 1162:1 1218:1 1242:1
-1 662:1 1117:1 1119:1 1162:1 1218:1 1221:1 1222:1 1242:2
-1 166:1 508:1 910:1 1119:1 1162:1 1218:1 1222:1 1230:1 1232:1 1235:1 1242:4
-1 166:1 178:1 347:1 508:1 820:1 910:1 1119:1 1162:1 1215:1 1218:1 1220:1 1222:1 1224:1 1230:1 1232:1 1235:1 1242:2
-1 192:1 551:1 639:1 740:1 781:1 893:1 1109:1 1117:1 1163:1 1221:1 1242:2
-1 131:1 148:1 178:1 233:1 255:1 421:1 679:1 920:1 1119:1 1162:1 1215:1 1218:1 1222:1 1242:1
-1 166:1 178:1 347:1 508:1 820:1 910:1 1119:1 1162:1 1215:1 1218:1 1220:1 1222:1 1224:1 1230:1 1232:1 1235:1 1242:3
-1 166:1 509:1 910:2 1119:2 1162:2 1218:2 1222:2 1230:2 1232:1 1238:1 1242:6
-1 166:1 508:1 509:2 578:1 910:2 943:1 1119:2 1162:4 1218:4 1222:2 1230:2 1232:1 1233:1 1235:1 1238:2 1242:6
-1 178:1 347:1 508:1 578:1 820:1 910:1 1119:1 1162:1 1215:1 1218:1 1220:1 1222:1 1224:1 1230:1 1233:1 1235:1 1242:2
-1 928:1 1240:1 1242:3
-1 192:1 214:1 348:1 383:1 426:1 464:1 516:1 551:1 617:1 657:1 712:1 740:1 823:1 844:1 848:1 893:1 999:1 1021:1 1109:1 1115:1 1117:1 1163:1 1204:1 1221:1 1242:2
-1 162:1 192:1 193:1 218:1 234:1 263:1 265:1 307:1 319:1 348:1 352:1 362:1 414:1 416:1 437:1 464:1 501:1 516:1 551:1 557:1 605:1 612:1 617:1 639:1 643:1 653:1 671:1 740:1 755:1 785:1 821:1 823:1 844:1 848:1 867:1 875:1 893:1 993:1 995:1 999:1 1021:1 1090:1 1109:1 1115:1 1117:1 1163:1 1177:1 1190:1 1204:1 1209:1 1221:1 1239:1 1242:4
-1 192:1 193:1 265:1 294:1 307:1 348:1 352:1 416:1 464:1 551:1 617:1 653:1 740:1 821:1 823:1 844:1 848:1 875:1 893:1 993:1 999:1 1021:1 1109:1 1117:1 1163:1 1190:1 1221:1 1242:4
-1 162:1 192:1 206:1 218:1 265:1 348:1 414:1 426:1 464:1 509:1 526:1 540:1 551:1 579:1 617:1 740:1 785:1 823:1 844:1 848:1 875:1 893:1 1021:1 1090:1 1109:1 1115:1 1117:1 1163:1 1221:1 1238:1 1242:4
-1 166:1 178:1 421:1 508:1 509:1 578:1 820:1 910:1 1119:1 1162:1 1215:1 1218:1 1220:1 1222:1 1230:1 1232:1 1233:1 1235:1 1238:1 1242:5
-1 162:1 192:1 265:1 348:1 383:1 414:1 426:1 509:1 516:1 551:1 557:1 617:1 657:1 712:1 740:1 823:1 844:1 848:1 867:1 875:1 893:1 995:1 999:1 1021:1 1090:1 1109:1 1115:1 1117:1 1151:1 1163:1 1177:1 1204:1 1221:1 1238:1 1239:1 1242:1
-1 166:1 508:1 651:1 820:1 910:1 1117:1 1119:1 1162:1 1218:1 1220:1 1221:1 1222:1 1230:1 1232:1 1235:1 1236:1 1242:2
-1 166:1 178:1 233:1 274:1 314:1 347:1 421:1 433:1 508:1 509:1 578:1 703:1 823:1 872:1 910:1 976:1 1117:1 1119:1 1128:1 1162:1 1215:1 1218:1 1221:1 1222:1 1224:1 1226:1 1230:1 1232:1 1233:1 1235:1 1238:1 1242:1
-1 233:1 508:1 910:1 943:1 1117:1 1119:1 1162:1 1218:1 1221:1 1222:1 1230:1 1235:1 1242:2
-1 233:1 820:1 823:1 1117:1 1119:1 1128:1 1162:1 1218:1 1220:1 1221:1 1222:1 1242:2
-1 1162:1 1218:1 1242:1
-1 233:1 367:1 419:1 589:1 820:1 823:1 884:1 910:1 1117:1 1119:1 1128:1 1162:1 1218:1 1220:1 1221:1 1222:1 1230:1 1242:1
-1 233:1 508:1 578:1 820:1 910:1 1119:1 1162:1 1218:1 1220:1 1222:1 1230:1 1233:1 1235:1 1242:1
-1 178:1 347:1 508:1 509:1 513:1 910:1 1117:1 1119:1 1128:1 1162:1 1215:1 1218:1 1221:1 1222:1 1224:1 1230:1 1235:1 1238:1 1242:1
-1 928:1 1240:1 1242:5
-1 928:1 1240:1 1242:3
-1 162:1 192:1 193:1 265:1 314:1 348:1 351:1 352:1 383:1 407:1 426:1 449:1 464:1 490:1 501:1 509:1 516:1 532:1 540:1 551:1 557:1 617:1 622:1 623:1 740:1 807:1 822:1 823:1 844:1 848:1 867:1 875:1 887:1 893:1 911:1 953:1 975:1 999:1 1021:1 1073:1 1083:1 1090:1 1109:1 1115:1 1117:1 1129:1 1150:1 1163:1 1177:1 1221:1 1231:1 1238:1 1242:2
-1 162:1 192:1 265:1 330:1 348:1 495:1 516:1 551:1 557:1 617:1 623:1 639:1 651:1 740:1 785:1 823:1 844:1 848:1 875:1 893:1 995:1 999:1 1021:1 1090:1 1109:1 1115:1 1117:1 1151:1 1163:1 1221:1 1236:1 1239:1 1242:2
-1 508:1 710:1 955:1 1081:1 1119:1 1162:1 1218:1 1222:1 1235:1 1242:3
-1 166:1 509:1 910:3 1119:2 1162:4 1218:4 1222:2 1230:3 1232:1 1238:1 1242:5
-1 1117:1 1119:1 1162:1 1218:1 1221:1 1222:1 1242:5
-1 166:1 178:1 347:1 421:1 508:1 509:1 578:1 910:1 1117:1 1119:1 1162:1 1215:1 1218:1 1221:1 1222:1 1224:1 1230:1 1232:1 1233:1 1235:1 1238:1 1242:2
-1 928:1 1240:1 1242:3
-1 192:1 251:1 265:1 348:1 407:1 426:1 449:1 464:1 516:1 551:1 740:1 822:1 848:1 893:1 1083:1 1109:1 1117:1 1163:1 1221:1 1242:2
-1 166:1 178:1 347:1 508:1 820:1 910:1 1119:1 1162:1 1215:1 1218:1 1220:1 1222:1 1224:1 1230:1 1232:1 1235:1 1242:3
-1 166:1 178:1 347:1 508:1 820:1 910:1 1119:1 1162:1 1215:1 1218:1 1220:1 1222:1 1224:1 1230:1 1232:1 1235:1 1242:2
-1 137:1 162:1 192:1 265:1 348:1 352:1 362:1 383:1 414:1 426:1 501:1 509:1 516:1 540:1 551:1 557:1 617:1 623:1 639:1 740:1 755:1 823:1 844:1 848:1 893:1 985:1 999:1 1021:1 1090:1 1105:1 1109:1 1115:1 1117:1 1163:1 1209:1 1221:1 1238:1 1242:2
-1 166:1 178:1 347:1 508:1 820:1 910:1 1119:1 1162:1 1215:1 1218:1 1220:1 1222:1 1224:1 1230:1 1232:1 1235:1 1242:3
-1 138:1 166:1 178:1 347:1 508:1 509:1 578:1 910:1 1119:1 1128:1 1162:1 1215:1 1218:1 1222:1 1224:1 1230:1 1232:1 1233:1 1235:1 1238:1 1242:2
-1 1117:1 1119:1 1162:1 1218:1 1221:1 1222:1 1242:5
-1 928:1 1240:1 1242:4
-1 178:1 347:1 557:1 651:1 820:1 823:1 831:1 910:1 1117:1 1119:1 1128:1 1162:1 1215:1 1218:1 1220:1 1221:1 1222:1 1224:1 1230:1 1236:1 1242:2
-1 166:1 178:1 314:1 319:1 347:1 462:1 509:1 592:1 820:1 823:1 831:1 872:1 883:1 910:1 931:1 1050:1 1060:1 1117:1 1119:1 1128:1 1162:1 1214:1 1215:1 1218:1 1220:1 1221:1 1222:1 1224:1 1230:1 1232:1 1238:1 1242:1
-1 166:1 508:1 820:1 910:1 1117:1 1119:1 1162:1 1218:1 1220:1 1221:1 1222:1 1230:1 1232:1 1235:1 1242:2
-1 192:1 347:1 407:1 426:1 509:1 551:1 740:1 823:1 841:1 893:1 1008:1 1109:1 1117:1 1119:1 1162:1 1163:1 1218:1 1221:1 1222:1 1224:1 1238:1 1242:2
-1 928:1 1240:1 1242:4
-1 928:1 1240:1 1242:2
-1 928:1 1240:1 1242:3
-1 928:1 1240:1 1242:2
-1 138:1 166:1 178:1 347:1 508:1 509:1 578:1 888:1 910:1 1119:1 1128:1 1162:1 1215:1 1218:1 1222:1 1224:1 1230:1 1232:1 1233:1 1235:1 1238:1 1242:2
-1 192:1 352:1 383:1 407:1 449:1 551:1 740:1 893:1 1109:1 1117:1 1163:1 1221:1 1242:2
-1 192:1 265:1 348:1 426:1 464:1 516:1 551:1 740:1 841:1 848:1 893:1 1109:1 1117:1 1163:1 1221:1 1242:1
-1 1117:1 1119:1 1162:1 1218:1 1221:1 1222:1 1242:4
-1 928:1 1240:1 1242:3
-1 166:1 178:1 347:1 508:1 820:1 910:1 1119:1 1162:1 1215:1 1218:1 1220:1 1222:1 1224:1 1230:1 1232:1 1235:1 1242:3
-1 928:1 1240:1 1242:3
-1 347:1 509:1 1117:1 1162:1 1218:1 1221:1 1224:1 1238:1 1242:2
-1 166:1 178:1 347:1 508:1 910:1 1117:1 1119:1 1162:1 1215:1 1218:1 1221:1 1222:1 1224:1 1230:1 1232:1 1235:1 1242:2
-1 166:1 347:1 508:1 910:1 1117:1 1119:1 1162:1 1218:1 1221:1 1222:1 1224:1 1230:1 1232:1 1235:1 1242:2
-1 166:1 178:1 347:1 508:1 910:1 1066:1 1119:1 1162:1 1215:1 1218:1 1222:1 1224:1 1230:1 1232:1 1235:1 1242:2
-1 166:1 281:1 347:1 508:1 910:1 1119:1 1162:1 1218:1 1222:1 1224:1 1230:1 1232:1 1235:1 1242:2
-1 166:1 178:1 347:1 508:1 910:1 1119:1 1162:1 1215:1 1218:1 1222:1 1224:1 1230:1 1232:1 1235:1 1242:1
-1 166:1 178:1 347:1 421:1 440:1 508:1 509:1 578:1 820:1 910:1 943:1 1119:1 1162:1 1215:1 1218:1 1220:1 1222:1 1224:1 1230:1 1232:1 1233:1 1235:1 1238:1 1242:4
-1 178:1 347:1 509:1 1117:1 1119:1 1162:1 1215:1 1218:1 1221:1 1222:1 1224:1 1238:1 1242:2
-1 178:1 233:1 347:1 508:1 509:1 910:1 1119:1 1128:1 1162:1 1215:1 1218:1 1222:1 1224:1 1230:1 1235:1 1238:1 1242:2
-1 1242:2
-1 156:1 162:1 187:1 192:1 193:1 234:1 248:1 264:1 265:1 294:1 321:1 348:1 360:1 383:1 416:1 464:1 516:1 532:1 540:1 551:1 557:1 612:1 617:1 637:1 643:1 712:1 740:1 755:1 780:1 795:1 821:1 823:1 844:1 848:1 875:1 886:1 893:1 980:1 995:1 999:1 1021:1 1048:1 1082:1 1090:1 1109:1 1115:1 1117:1 1151:1 1163:1 1204:1 1209:1 1221:1 1239:1 1242:1
-1 170:1 200:1 399:1 508:1 509:1 703:1 1117:2 1119:1 1162:1 1218:1 1221:2 1222:1 1235:1 1238:1 1242:2
-1 192:1 348:1 426:1 516:1 542:1 551:1 617:1 657:1 740:1 823:1 844:1 848:1 893:1 999:1 1021:1 1109:1 1117:1 1163:1 1221:1 1242:3
-1 138:1 166:1 178:1 233:1 347:1 421:1 508:1 509:1 578:1 703:1 888:1 910:1 970:1 1068:1 1119:1 1128:1 1162:1 1215:1 1218:1 1222:1 1224:1 1225:1 1230:1 1232:1 1233:1 1235:1 1238:1 1242:1
-1 1058:1 1228:1 1242:1
-1 928:1 1240:1 1242:4
-1 166:1 178:1 508:1 578:1 910:1 976:1 1119:1 1162:1 1215:1 1218:1 1222:1 1230:1 1232:1 1233:1 1235:1 1242:1
-1 166:1 178:2 347:1 508:1 509:2 578:1 820:1 910:2 1119:2 1162:4 1215:2 1218:4 1220:1 1222:2 1224:1 1230:2 1232:1 1233:1 1235:1 1238:2 1242:6
-1 166:1 178:1 347:1 508:1 509:1 578:1 820:1 910:1 1119:1 1162:1 1215:1 1218:1 1220:1 1222:1 1224:1 1230:1 1232:1 1233:1 1235:1 1238:1 1242:5
-1 166:1 178:1 347:1 508:1 509:1 578:1 910:1 976:1 1119:1 1128:1 1162:1 1215:1 1218:1 1222:1 1224:1 1230:1 1232:1 1233:1 1235:1 1238:1 1242:2
-1 1117:1 1128:1 1162:1 1218:1 1221:1 1242:2
-1 1242:2
-1 162:1 192:1 197:1 250:1 348:1 383:1 417:1 480:1 617:1 623:1 657:1 848:1 893:1 916:1 973:1 999:1 1021:1 1048:1 1077:1 1109:1 1117:1 1221:1 1242:2 1244:2
-1 162:1 192:1 197:1 348:1 383:1 417:1 474:1 617:1 657:1 848:1 893:1 916:1 973:1 1021:1 1077:1 1109:1 1117:1 1221:1 1242:3
-1 178:1 212:1 237:1 249:1 347:1 421:1 439:1 508:1 509:1 557:1 703:1 803:1 820:1 823:1 910:1 1117:1 1119:1 1128:1 1162:1 1215:1 1218:1 1220:1 1221:1 1222:1 1224:1 1230:1 1235:1 1238:1 1242:2
-1 166:1 509:1 910:3 1119:2 1162:4 1218:4 1222:2 1230:3 1232:1 1238:1 1242:4
-1 1058:1 1228:1 1242:1
-1 928:1 1240:1 1242:3
-1 166:1 178:1 347:1 508:1 820:1 910:1 1119:1 1162:1 1215:1 1218:1 1220:1 1222:1 1224:1 1230:1 1232:1 1235:1 1242:3
-1 178:1 347:1 509:1 910:1 1119:1 1128:1 1162:1 1215:1 1218:1 1222:1 1224:1 1230:1 1238:1 1242:2
-1 178:1 192:1 551:1 740:1 893:1 1109:1 1117:1 1119:1 1162:1 1163:1 1215:1 1218:1 1221:1 1222:1 1242:2
-1 166:1 509:1 910:2 1119:2 1162:2 1218:2 1222:2 1230:2 1232:1 1238:1 1242:7
-1 645:1 910:1 1162:1 1218:1 1230:1 1242:2 1244:3
-1 166:1 178:1 347:1 508:1 509:1 1119:1 1128:1 1162:1 1215:1 1218:1 1222:1 1224:1 1232:1 1235:1 1238:1 1242:2
-1 178:1 508:1 578:1 1117:2 1119:1 1162:1 1215:1 1218:1 1221:2 1222:1 1233:1 1235:1 1242:3
-1 1117:1 1156:1 1162:1 1218:1 1221:1 1242:3
-1 178:1 314:1 347:1 456:1 509:1 823:1 910:1 931:1 1117:1 1119:1 1128:1 1162:1 1214:1 1215:1 1218:1 1221:1 1222:1 1224:1 1230:1 1238:1 1242:2
-1 166:1 178:1 314:1 347:1 351:1 509:1 910:1 931:1 1117:1 1119:1 1128:1 1162:1 1214:1 1215:1 1218:1 1221:1 1222:1 1224:1 1230:1 1232:1 1238:1 1242:2
-1 192:1 265:1 348:1 383:1 540:1 551:1 637:1 740:1 823:1 844:1 848:1 893:1 1021:1 1090:1 1109:1 1115:1 1117:1 1163:1 1221:1 1242:2
-1 178:1 192:1 347:1 407:1 426:1 449:1 551:1 557:1 740:1 823:1 884:1 893:1 910:1 1008:1 1109:1 1117:1 1119:1 1162:1 1163:1 1215:1 1218:1 1221:1 1222:1 1224:1 1230:1 1242:3
-1 162:1 192:1 265:1 330:1 348:1 362:1 383:1 426:1 464:1 516:1 542:1 551:1 617:1 643:1 657:1 712:1 740:1 823:1 844:1 848:1 893:1 999:1 1021:1 1090:1 1109:1 1115:1 1117:1 1163:1 1177:1 1221:1 1242:2 1244:191
-1 162:1 192:1 253:1 265:1 307:1 330:1 348:1 362:1 464:1 516:1 540:1 551:1 617:1 657:1 712:1 740:1 844:1 848:1 893:1 999:1 1021:1 1025:1 1048:1 1073:1 1077:1 1090:1 1109:1 1115:1 1117:1 1163:1 1221:1 1242:1
-1 162:1 192:1 265:1 348:1 352:1 467:1 516:1 540:1 542:1 551:1 617:1 637:1 740:1 823:1 848:1 875:1 893:1 999:1 1021:1 1090:1 1109:1 1115:1 1117:1 1163:1 1195:1 1221:1 1242:1
-1 233:1 279:1 390:1 423:1 641:1 764:1 910:1 1162:1 1218:1 1230:1 1242:2
-1 735:1 764:1 910:1 942:1 1162:1 1218:1 1230:1 1242:2
-1 347:1 1117:1 1162:1 1218:1 1221:1 1224:1 1242:2
-1 260:1 347:1 401:1 407:1 449:1 499:1 508:1 509:1 703:1 803:1 888:1 910:1 975:1 976:1 1083:1 1117:1 1119:1 1126:1 1162:1 1218:1 1221:1 1222:1 1224:1 1230:1 1235:1 1238:1 1242:3
-1 162:1 178:1 232:1 347:1 508:1 509:1 554:1 592:1 823:1 910:1 943:1 1050:1 1073:1 1117:1 1119:1 1128:1 1162:1 1215:1 1218:1 1221:1 1222:1 1224:1 1230:1 1235:1 1238:1 1242:1
-1 910:1 1117:1 1162:1 1218:1 1221:1 1230:1 1242:3
-1 178:1 347:1 508:1 509:1 910:1 1117:1 1119:1 1162:1 1215:1 1218:1 1221:1 1222:1 1224:1 1230:1 1235:1 1238:1 1242:1
-1 1117:1 1162:1 1218:1 1221:1 1242:3
-1 347:1 508:1 509:1 703:1 910:1 1117:1 1119:1 1128:1 1162:1 1218:1 1221:1 1222:1 1224:1 1230:1 1235:1 1238:1 1242:2 1244:1
-1 166:1 509:1 910:2 1119:2 1162:2 1218:2 1222:2 1230:2 1232:1 1238:1 1242:6
-1 1242:1
-1 166:1 178:1 215:1 347:1 421:1 508:1 509:1 554:1 557:1 578:1 823:1 872:1 883:1 910:1 1117:1 1119:1 1128:1 1162:1 1215:1 1218:1 1221:1 1222:1 1224:1 1230:1 1232:1 1233:1 1235:1 1238:1 1242:1
-1 928:1 1240:1 1242:3
-1 178:1 426:1 509:1 654:1 802:1 910:1 1117:1 1162:1 1215:1 1218:1 1221:1 1230:1 1238:1 1242:1
-1 166:1 508:1 509:2 820:1 910:2 1119:2 1162:5 1218:5 1220:1 1222:2 1230:2 1232:1 1235:1 1238:2 1242:6
-1 143:1 231:1 233:1 292:1 299:1 487:1 831:1 910:1 1119:1 1162:1 1206:1 1218:1 1222:1 1230:1 1242:1
-1 178:1 192:1 352:1 407:1 426:1 449:1 464:1 478:1 516:1 551:1 617:1 629:1 650:1 661:1 673:1 740:1 823:1 828:1 860:1 893:1 894:1 910:1 1050:1 1068:1 1083:1 1090:1 1109:1 1128:1 1151:1 1162:1 1163:1 1215:1 1218:1 1223:1 1230:1 1234:1 1242:2
-1 162:1 192:1 193:1 206:1 265:1 348:1 352:1 407:1 426:1 449:1 464:1 516:1 551:1 617:1 629:1 661:1 740:1 823:1 844:1 848:1 860:1 893:1 894:1 999:1 1021:1 1090:1 1109:1 1115:1 1163:1 1177:1 1204:1 1223:1 1242:2
-1 192:1 265:1 347:1 352:1 426:1 449:1 540:1 551:1 740:1 750:1 822:1 823:1 848:1 893:1 1047:1 1083:1 1109:1 1117:1 1163:1 1221:1 1224:1 1242:1 1244:3
-1 178:1 347:1 439:1 509:1 910:1 1117:1 1119:1 1128:1 1162:1 1215:1 1218:1 1221:1 1222:1 1224:1 1230:1 1238:1 1242:2
-1 651:1 1117:1 1119:1 1162:1 1218:1 1221:1 1222:1 1236:1 1242:2
-1 192:1 197:1 211:1 228:1 265:1 348:1 417:1 464:1 474:1 480:1 509:1 617:1 821:1 823:1 848:1 893:1 916:1 973:1 999:1 1015:1 1109:1 1117:1 1194:1 1204:1 1209:1 1221:1 1238:1 1242:1
-1 1117:1 1156:1 1162:1 1218:1 1221:1 1242:3
-1 166:1 178:1 347:1 508:1 910:1 1119:1 1162:1 1215:1 1218:1 1222:1 1224:1 1230:1 1232:1 1235:1 1242:2
-1 943:1 1162:1 1218:1 1242:2
-1 178:1 314:1 319:1 440:1 910:1 943:1 1119:1 1128:1 1162:1 1215:1 1218:1 1222:1 1230:1 1242:1
-1 910:1 943:1 1119:1 1128:1 1162:1 1218:1 1222:1 1230:1 1242:1
-1 166:1 178:1 347:1 508:1 509:1 910:1 1119:1 1128:1 1162:1 1215:1 1218:1 1222:1 1224:1 1230:1 1232:1 1235:1 1238:1 1242:3
-1 178:1 1117:1 1162:1 1215:1 1218:1 1221:1 1242:2
-1 1117:1 1162:1 1218:1 1221:1 1242:3
-1 928:1 1240:1 1242:2
-1 178:1 192:1 407:1 426:1 449:1 551:1 740:1 893:1 1047:1 1109:1 1117:1 1128:1 1162:1 1163:1 1215:1 1218:1 1221:1 1242:2
-1 347:1 509:1 820:1 910:1 1117:1 1119:1 1162:1 1218:1 1220:1 1221:1 1222:1 1224:1 1230:1 1238:1 1242:1 1244:1
-1 162:1 192:1 250:1 348:1 383:1 417:1 464:1 474:1 893:1 916:1 973:1 1021:1 1109:1 1117:1 1194:1 1221:1 1242:2 1244:81
-1 192:1 265:1 352:1 437:1 540:1 551:1 617:1 643:1 740:1 823:1 844:1 848:1 893:1 1015:1 1021:1 1109:1 1117:1 1162:1 1163:1 1209:1 1218:1 1221:1 1242:3
-1 166:1 178:2 347:2 440:1 451:1 508:1 509:2 578:1 703:1 820:1 910:2 943:1 970:1 1119:2 1162:4 1215:2 1218:4 1220:1 1222:2 1224:2 1225:1 1230:2 1232:1 1233:1 1235:1 1238:2 1242:5
-1 178:1 347:1 407:1 449:1 677:1 910:1 1117:1 1162:1 1215:1 1218:1 1221:1 1224:1 1230:1 1242:2
-1 166:1 178:1 347:1 508:1 1119:1 1128:1 1162:1 1215:1 1218:1 1222:1 1224:1 1232:1 1235:1 1242:2
-1 178:1 347:1 509:1 910:1 1119:1 1128:1 1162:1 1215:1 1218:1 1222:1 1224:1 1230:1 1238:1 1242:1
-1 943:1 1117:2 1162:1 1218:1 1221:2 1242:3
-1 145:1 192:1 193:1 348:1 426:1 551:1 740:1 848:1 893:1 1109:1 1117:1 1163:1 1221:1 1242:2
-1 192:1 348:1 383:1 426:1 551:1 617:1 740:1 893:1 999:1 1109:1 1117:1 1163:1 1221:1 1242:3
-1 190:1 192:1 193:1 265:1 294:1 348:1 352:1 378:1 383:1 426:1 551:1 557:1 617:1 622:1 623:1 740:1 823:1 843:1 844:1 848:1 875:1 893:1 907:1 1090:1 1109:1 1115:1 1163:1 1177:1 1242:3 1244:1
-1 166:1 178:1 232:1 306:1 426:1 508:1 509:1 823:1 910:1 1117:1 1119:1 1128:1 1162:1 1215:1 1218:1 1221:1 1222:1 1230:1 1232:1 1235:1 1238:1 1242:2
-1 162:1 175:1 192:1 193:1 251:1 265:1 307:1 348:1 352:1 383:1 416:1 464:1 516:1 551:1 555:1 617:1 697:1 740:1 741:1 755:1 781:1 822:1 823:1 844:1 848:1 875:1 893:1 975:1 999:1 1019:1 1021:1 1083:1 1085:1 1090:1 1109:1 1115:1 1117:1 1163:1 1221:1 1242:1
-1 166:1 509:1 910:3 1119:2 1162:4 1218:4 1222:2 1230:3 1232:1 1238:1 1242:5
-1 166:1 172:1 178:1 207:1 347:1 508:1 578:1 772:1 777:1 910:1 982:1 1119:1 1162:1 1215:1 1218:1 1222:1 1224:1 1230:1 1232:1 1233:1 1235:1 1242:2
-1 166:1 509:1 910:3 1119:2 1162:4 1218:4 1222:2 1230:3 1232:1 1238:1 1242:5
-1 166:1 509:1 910:2 1119:2 1162:2 1218:2 1222:2 1230:2 1232:1 1238:1 1242:7
-1 166:1 167:1 178:1 347:1 508:1 578:1 910:1 1072:1 1117:1 1119:1 1162:1 1215:1 1218:1 1221:1 1222:1 1224:1 1230:1 1232:1 1233:1 1235:1 1242:2
-1 178:1 910:1 931:1 1117:1 1119:1 1162:1 1214:1 1215:1 1218:1 1221:1 1222:1 1230:1 1242:1
-1 166:1 178:1 233:1 347:1 508:1 509:1 578:1 820:1 910:1 943:1 1119:1 1162:1 1215:1 1218:1 1220:1 1222:1 1224:1 1230:1 1232:1 1233:1 1235:1 1238:1 1242:5
-1 421:1 943:1 1117:1 1162:1 1218:1 1221:1 1242:4
-1 1117:2 1162:1 1218:1 1221:2 1242:2
-1 775:1 1117:1 1162:1 1218:1 1221:1 1242:5
-1 166:1 178:1 347:1 508:1 509:3 578:1 592:1 820:1 910:3 1117:1 1119:3 1162:5 1215:1 1218:5 1220:1 1221:1 1222:3 1224:1 1230:3 1232:1 1233:1 1235:1 1238:3 1242:4 1244:3
-1 192:1 265:1 348:1 464:1 516:1 551:1 557:1 740:1 823:1 848:1 893:1 1090:1 1109:1 1115:1 1117:1 1163:1 1221:1 1242:1
-1 928:1 1240:1 1242:2
-1 192:1 348:1 394:1 551:1 617:1 643:1 740:1 823:1 844:1 866:1 893:1 1109:1 1117:1 1163:1 1221:1 1242:2
-1 166:1 178:1 421:1 508:1 910:1 970:1 1117:1 1119:1 1162:1 1215:1 1218:1 1221:1 1222:1 1225:1 1230:1 1232:1 1235:1 1242:4
-1 166:1 178:1 421:1 508:1 910:1 970:1 1117:1 1119:1 1162:1 1215:1 1218:1 1221:1 1222:1 1225:1 1230:1 1232:1 1235:1 1242:4
-1 178:1 199:1 347:1 508:1 509:1 645:1 910:1 1119:1 1162:1 1211:1 1215:1 1218:1 1222:1 1224:1 1230:1 1235:1 1238:1 1242:2 1244:4
-1 1242:2
-1 1162:1 1218:1 1242:1
-1 943:1 1117:2 1162:1 1218:1 1221:2 1242:3
-1 910:1 943:1 1117:2 1162:1 1218:1 1221:2 1230:1 1242:3 1244:256
-1 1014:1 1117:1 1221:1 1242:2
-1 910:1 1117:1 1119:1 1162:1 1218:1 1221:1 1222:1 1230:1 1242:2
-1 910:1 1117:2 1162:1 1218:1 1221:2 1230:1 1242:3
-1 928:1 1240:1 1242:3
-1 928:1 1240:1 1242:3
-1 928:1 1240:1 1242:3
-1 166:1 178:1 347:1 508:1 820:1 910:1 1119:1 1162:1 1215:1 1218:1 1220:1 1222:1 1224:1 1230:1 1232:1 1235:1 1242:2
-1 928:1 1240:1 1242:2
-1 910:1 1162:1 1218:1 1230:1 1242:3 1244:46
-1 120:1 166:1 178:1 333:1 347:1 367:1 376:1 419:1 421:1 508:1 703:1 823:1 910:1 1117:1 1119:1 1162:1 1215:1 1216:1 1218:1 1221:1 1222:1 1224:1 1230:1 1232:1 1235:1 1242:1
-1 166:1 509:1 910:2 1119:2 1162:2 1218:2 1222:2 1230:2 1232:1 1238:1 1242:7
-1 928:1 1240:1 1242:3
-1 502:1 910:1 1032:1 1117:1 1119:1 1162:1 1182:1 1218:1 1221:1 1222:1 1230:1 1242:2
-1 185:1 492:1 508:1 910:1 1101:1 1117:1 1119:1 1162:1 1218:1 1221:1 1222:1 1230:1 1235:1 1242:2
-1 192:1 206:1 265:1 330:1 383:1 426:1 464:1 509:1 516:1 522:1 551:1 712:1 740:1 893:1 999:1 1109:1 1115:1 1117:1 1119:1 1163:1 1221:1 1222:1 1238:1 1242:1
-1 1117:1 1119:1 1162:1 1218:1 1221:1 1222:1 1242:6
-1 166:1 178:1 347:1 508:1 509:1 578:1 820:1 910:1 1000:1 1119:1 1162:1 1215:1 1218:1 1220:1 1222:1 1224:1 1230:1 1232:1 1233:1 1235:1 1238:1 1242:5
-1 1058:1 1228:1 1242:1
-1 1119:1 1162:1 1218:1 1222:1 1242:3
-1 166:1 178:1 347:1 508:1 820:1 910:1 1119:1 1162:1 1215:1 1218:1 1220:1 1222:1 1224:1 1230:1 1232:1 1235:1 1242:2
-1 645:1 1162:1 1218:1 1242:2
-1 166:1 509:1 910:2 1119:2 1162:2 1218:2 1222:2 1230:2 1232:1 1238:1 1242:7
-1 138:1 166:1 178:1 347:1 421:1 508:1 509:1 703:1 710:1 888:1 910:1 970:1 976:1 1068:1 1119:1 1128:1 1162:1 1215:1 1218:1 1222:1 1224:1 1225:1 1230:1 1232:1 1235:1 1238:1 1242:3
-1 1058:1 1228:1 1242:1
-1 166:1 178:1 347:1 508:1 820:1 910:1 1119:1 1162:1 1215:1 1218:1 1220:1 1222:1 1224:1 1230:1 1232:1 1235:1 1242:2
-1 910:1 1119:1 1162:1 1218:1 1222:1 1230:1 1242:1
-1 928:1 1240:1 1242:4
-1 1058:1 1228:1 1242:1
-1 166:1 509:1 910:2 1119:2 1162:2 1218:2 1222:2 1230:2 1232:1 1238:1 1242:7
-1 166:1 178:1 347:1 508:1 820:1 910:1 1119:1 1162:1 1215:1 1218:1 1220:1 1222:1 1224:1 1230:1 1232:1 1235:1 1242:3
