1 1107:1 1232:1 1248:8
1 1107:1 1232:1 1248:8
1 934:1 965:1 1107:1 1220:1 1232:1 1242:1 1248:4
1 1107:1 1232:1 1248:8
1 1107:1 1232:1 1248:7
1 519:1 1244:1 1248:4
1 1107:1 1232:1 1248:8
1 934:1 965:1 1107:1 1220:1 1232:1 1242:1 1248:3
1 680:1 934:1 965:1 1056:1 1079:1 1107:1 1218:1 1220:1 1232:1 1241:1 1242:1 1247:1 1248:2
1 1107:1 1232:1 1248:8
1 1107:1 1232:1 1248:8
1 519:1 1244:1 1248:5
1 1107:1 1232:1 1248:8
1 1107:1 1232:1 1248:8
1 1107:1 1232:1 1248:8
1 519:1 1244:1 1248:4
1 680:1 934:1 965:1 1107:1 1218:1 1220:1 1232:1 1242:1 1248:2
1 934:1 965:1 1056:1 1079:1 1107:1 1220:1 1232:1 1241:1 1242:1 1247:1 1248:1
1 1107:1 1232:1 1248:8
1 1107:1 1232:1 1248:8
1 1107:1 1232:1 1248:8
1 1107:1 1232:1 1248:8
1 965:1 1056:1 1107:1 1220:1 1232:1 1241:1 1248:1
1 1107:1 1232:1 1248:8
1 519:1 1244:1 1248:4
1 519:1 1244:1 1248:3
1 1107:1 1232:1 1248:5
1 680:1 934:1 965:1 1056:1 1079:1 1107:1 1218:1 1220:1 1232:1 1241:1 1242:1 1247:1 1248:1
1 1107:1 1232:1 1248:6
1 1107:1 1232:1 1248:8
1 1107:1 1232:1 1248:8
1 1107:1 1232:1 1248:8
1 1107:1 1232:1 1248:8
1 1107:1 1232:1 1248:8
1 1107:1 1232:1 1248:7
1 1107:1 1232:1 1248:8
1 965:1 1220:1 1248:4
1 1107:1 1232:1 1248:8
1 1107:1 1232:1 1248:7
1 1107:1 1232:1 1248:8
1 519:1 1244:1 1248:5
1 1107:1 1232:1 1248:8
1 1107:1 1232:1 1248:8
1 1107:1 1232:1 1248:8
1 389:1 1219:1 1248:3
1 1107:1 1232:1 1248:8
1 934:1 965:1 1056:1 1107:1 1220:1 1232:1 1241:1 1242:1 1248:1
1 519:1 1244:1 1248:3
1 1107:1 1232:1 1248:8
1 519:1 1244:1 1248:4
1 1107:1 1232:1 1248:6
1 1107:1 1232:1 1248:6
1 389:1 1107:1 1219:1 1232:1 1248:4
1 1107:1 1232:1 1248:8
1 1107:1 1232:1 1248:8
1 1107:1 1232:1 1248:8
1 519:1 1244:1 1248:4
1 1107:1 1232:1 1248:7
1 1107:1 1232:1 1248:8
1 519:1 1244:1 1248:4
1 1107:1 1232:1 1248:8
1 1107:1 1232:1 1248:8
1 1107:1 1232:1 1248:8
1 1107:1 1232:1 1248:8
1 1107:1 1232:1 1248:8
1 1107:1 1232:1 1248:8
1 1107:1 1232:1 1248:8
1 1107:1 1232:1 1248:8
1 1107:1 1232:1 1248:8
1 1107:1 1232:1 1248:8
1 934:1 965:1 1056:1 1079:1 1107:1 1220:1 1232:1 1241:1 1242:1 1247:1 1248:1
1 1107:1 1232:1 1248:8
1 965:1 1107:1 1220:1 1232:1 1248:2
1 389:1 934:1 947:1 965:1 1056:1 1079:1 1107:1 1166:1 1219:1 1220:1 1228:1 1232:1 1241:1 1242:1 1245:1 1247:1 1248:7
1 389:1 1219:1 1248:4
1 1107:1 1232:1 1248:8
1 1107:1 1232:1 1248:8
1 934:1 965:1 1056:1 1107:1 1220:1 1232:1 1241:1 1242:1 1248:1
1 1107:1 1232:1 1248:8
1 1107:1 1232:1 1248:8
1 1107:1 1232:1 1248:8
1 1107:1 1232:1 1248:8
1 1107:1 1232:1 1248:8
1 713:1 965:1 1107:1 1220:1 1232:1 1237:1 1248:2
1 519:1 1244:1 1248:4
1 1107:1 1232:1 1248:8
1 1107:1 1232:1 1248:8
1 1107:1 1232:1 1248:8
1 519:1 1244:1 1248:4
1 1107:1 1232:1 1248:8
1 1107:1 1232:1 1248:8
1 519:1 1244:1 1248:4
1 1107:1 1232:1 1248:8
1 1107:1 1232:1 1248:8
1 519:1 1244:1 1248:4
1 464:1 934:2 947:3 965:2 1010:1 1056:1 1079:1 1107:4 1166:1 1216:1 1220:2 1228:1 1232:4 1241:1 1242:2 1245:3 1246:1 1247:1 1248:6
1 1107:1 1232:1 1248:8
1 1107:1 1232:1 1248:8
1 1107:1 1232:1 1248:7
1 1107:1 1232:1 1248:8
1 519:1 1244:1 1248:4
1 1107:1 1232:1 1248:8
1 934:1 1010:1 1056:1 1107:1 1232:1 1241:1 1242:1 1246:1 1248:2
1 1107:1 1232:1 1248:8
1 1107:1 1232:1 1248:8
1 965:1 1107:1 1220:1 1232:1 1248:2
1 1107:1 1232:1 1248:8
1 1107:1 1232:1 1248:8
1 519:1 1244:1 1248:4
1 1107:1 1232:1 1248:8
1 1107:1 1232:1 1248:8
1 519:1 1244:1 1248:3
1 1107:1 1232:1 1248:8
1 1107:1 1232:1 1248:8
1 1107:1 1232:1 1248:8
1 1107:1 1232:1 1248:8
1 259:1 680:1 965:1 1056:1 1107:1 1218:1 1220:1 1222:1 1232:1 1241:1 1248:3
1 1107:1 1232:1 1248:8
1 1107:1 1232:1 1248:8
1 1107:1 1232:1 1248:7
1 1107:1 1232:1 1248:8
1 1107:1 1232:1 1248:6
1 1107:1 1232:1 1248:8
1 1107:1 1232:1 1248:8
1 680:1 965:1 1010:1 1107:1 1218:1 1220:1 1232:1 1246:1 1248:3
1 1107:1 1232:1 1248:8
1 1107:1 1232:1 1248:8
1 1107:1 1232:1 1248:8
1 1107:1 1232:1 1248:8
1 1107:1 1232:1 1248:8
1 965:1 1107:1 1220:1 1232:1 1248:2
1 1107:1 1232:1 1248:7
1 680:1 965:1 1107:1 1218:1 1220:1 1232:1 1248:2
1 1107:1 1232:1 1248:8
1 1107:1 1232:1 1248:8
1 1107:1 1232:1 1248:8
1 680:1 934:1 965:1 1056:1 1079:1 1107:1 1218:1 1220:1 1232:1 1241:1 1242:1 1247:1 1248:1
1 1107:1 1232:1 1248:8
1 1107:1 1232:1 1248:8
1 1107:1 1232:1 1248:6
1 1107:1 1232:1 1248:8
1 1107:1 1232:1 1248:8
1 1107:1 1232:1 1248:8
1 1107:1 1232:1 1248:8
1 965:1 1056:1 1107:1 1220:1 1232:1 1241:1 1248:1
1 1107:1 1232:1 1248:8
1 1107:1 1232:1 1248:8
1 1107:1 1232:1 1248:7
1 1107:1 1232:1 1248:8
1 680:1 965:1 1056:1 1107:1 1218:1 1220:1 1232:1 1241:1 1248:3
1 965:1 1107:1 1220:1 1232:1 1248:2
1 1107:1 1232:1 1248:8
1 1107:1 1232:1 1248:8
1 1107:1 1232:1 1248:8
1 1107:1 1232:1 1248:8
1 1107:1 1232:1 1248:8
1 680:1 934:1 965:1 1010:1 1056:1 1079:1 1107:1 1218:1 1220:1 1232:1 1241:1 1242:1 1246:1 1247:1 1248:2
1 1107:1 1232:1 1248:8
1 965:1 1010:1 1056:1 1107:1 1220:1 1232:1 1241:1 1246:1 1248:2
1 1107:1 1232:1 1248:8
1 1107:1 1232:1 1248:8
1 1107:1 1232:1 1248:8
1 519:1 1244:1 1248:4
1 519:1 1244:1 1248:3
1 965:1 1107:1 1220:1 1232:1 1248:2
1 519:1 1244:1 1248:4
1 1107:1 1232:1 1248:8
1 934:1 965:1 1056:1 1079:1 1107:1 1220:1 1232:1 1241:1 1242:1 1247:1 1248:2
1 1107:1 1232:1 1248:8
1 680:1 934:1 965:1 1056:1 1079:1 1107:1 1218:1 1220:1 1232:1 1241:1 1242:1 1247:1 1248:2
1 519:1 1244:1 1248:4
1 1107:1 1232:1 1248:6
1 519:1 1244:1 1248:4
1 965:1 1056:1 1079:1 1107:1 1220:1 1232:1 1241:1 1247:1 1248:1
1 1107:1 1232:1 1248:8
1 1107:1 1232:1 1248:7
1 1107:1 1232:1 1248:8
1 1107:1 1232:1 1248:8
1 1107:1 1232:1 1248:8
1 1107:1 1232:1 1248:7
1 1107:1 1232:1 1248:8
1 1107:1 1232:1 1248:8
1 1107:1 1232:1 1248:8
1 519:1 1244:1 1248:4
1 519:1 1244:1 1248:3
1 1107:1 1232:1 1248:8
1 259:1 680:1 965:1 1107:1 1218:1 1220:1 1222:1 1232:1 1248:2
1 1107:1 1232:1 1248:8
1 1107:1 1232:1 1248:6
1 389:1 464:1 934:1 965:1 1056:1 1107:1 1153:1 1166:1 1216:1 1217:1 1219:1 1220:1 1228:1 1232:1 1241:1 1242:1 1248:2
1 1107:1 1232:1 1248:8
1 389:1 1219:1 1248:4
1 519:1 1244:1 1248:4
1 389:1 1219:1 1248:5
1 1107:1 1232:1 1248:6
1 1107:1 1232:1 1248:8
1 519:1 1244:1 1248:4
1 1107:1 1232:1 1248:8
1 1107:1 1232:1 1248:8
1 1107:1 1232:1 1248:8
1 1107:1 1232:1 1248:8
1 1107:1 1232:1 1248:8
1 965:1 1107:1 1220:1 1232:1 1248:2
1 519:1 1244:1 1248:4
1 1107:1 1232:1 1248:8
1 1107:1 1232:1 1248:7
1 965:1 1107:1 1220:1 1232:1 1248:2
1 965:1 1107:1 1220:1 1232:1 1248:3
1 519:1 1244:1 1248:4
1 965:1 1107:1 1220:1 1232:1 1248:3
1 1107:1 1232:1 1248:8
1 1107:1 1232:1 1248:8
1 1107:1 1232:1 1248:8
1 1107:1 1232:1 1248:8
1 519:1 1244:1 1248:4
1 1107:1 1232:1 1248:8
1 1107:1 1232:1 1248:8
1 1107:1 1232:1 1248:8
1 1107:1 1232:1 1248:8
1 519:1 1244:1 1248:4
1 1107:1 1232:1 1248:8
1 519:1 1244:1 1248:4
1 965:1 1056:1 1107:1 1220:1 1232:1 1241:1 1248:1
1 1107:1 1232:1 1248:5
1 1107:1 1232:1 1248:8
1 1107:1 1232:1 1248:7
1 1107:1 1232:1 1248:2
1 1107:1 1232:1 1248:8
1 389:1 1219:1 1248:5
1 1107:1 1232:1 1248:5
1 1107:1 1232:1 1248:8
1 680:1 934:1 965:1 1107:1 1218:1 1220:1 1232:1 1242:1 1248:2
1 1107:1 1232:1 1248:6
1 1107:1 1232:1 1248:6
1 1107:1 1232:1 1248:7
1 1107:1 1232:1 1248:8
1 519:1 1244:1 1248:4
1 1107:1 1232:1 1248:8
1 519:1 1244:1 1248:4
1 1107:1 1232:1 1248:8
1 1107:1 1232:1 1248:8
1 934:1 965:1 1056:1 1079:1 1107:1 1220:1 1232:1 1241:1 1242:1 1247:1 1248:1
1 1107:1 1232:1 1248:8
1 965:1 1107:1 1220:1 1232:1 1248:2
1 1107:1 1232:1 1248:8
1 1107:1 1232:1 1248:2
1 519:1 1244:1 1248:4
1 1107:1 1232:1 1248:8
1 680:1 934:1 965:1 1056:1 1079:1 1107:1 1218:1 1220:1 1232:1 1241:1 1242:1 1247:1 1248:2
1 519:1 1244:1 1248:3
1 519:1 1244:1 1248:4
1 519:1 1244:1 1248:3
1 1107:1 1232:1 1248:7
1 934:1 965:1 1107:1 1220:1 1232:1 1242:1 1248:2
1 434:1 671:1 840:1 1056:1 1107:1 1161:1 1214:1 1215:1 1223:1 1227:1 1232:1 1240:1 1241:1 1248:2
1 259:1 680:1 934:1 1010:1 1056:1 1107:1 1218:1 1222:1 1232:1 1241:1 1242:1 1246:1 1248:3
1 1107:1 1232:1 1248:8
1 1107:1 1232:1 1248:8
1 1107:1 1232:1 1248:8
1 1107:1 1232:1 1248:6
1 519:1 1244:1 1248:5
1 934:1 965:1 1056:1 1107:1 1220:1 1232:1 1241:1 1242:1 1248:2
1 519:1 1244:1 1248:3
1 1107:1 1232:1 1248:8
1 1107:1 1232:1 1248:8
1 680:1 934:1 965:1 1010:1 1056:1 1079:1 1107:1 1218:1 1220:1 1232:1 1241:1 1242:1 1246:1 1247:1 1248:2
1 1107:1 1232:1 1248:8
1 1107:1 1232:1 1248:6
1 1107:1 1232:1 1248:8
1 1107:1 1232:1 1248:7
1 1107:1 1232:1 1248:8
1 1107:1 1232:1 1248:8
1 1107:1 1232:1 1248:6
1 1107:1 1232:1 1248:8
1 1107:1 1232:1 1248:8
1 1107:1 1232:1 1248:6
1 1107:1 1232:1 1248:8
1 1107:1 1232:1 1248:8
1 1107:1 1232:1 1248:8
1 1107:1 1232:1 1248:7
1 1107:1 1232:1 1248:8
1 1107:1 1232:1 1248:6
1 1107:1 1232:1 1248:8
1 965:1 1107:1 1220:1 1232:1 1248:2
1 1107:1 1232:1 1248:8
1 1107:1 1232:1 1248:8
1 1107:1 1232:1 1248:8
1 1107:1 1232:1 1248:8
1 519:1 1244:1 1248:3
1 1107:1 1232:1 1248:8
1 1107:1 1232:1 1248:8
1 519:1 1244:1 1248:4
1 519:1 1244:1 1248:3
1 1107:1 1232:1 1248:8
1 519:1 1244:1 1248:3
1 965:1 1107:1 1220:1 1232:1 1248:2
1 965:1 1056:1 1107:1 1220:1 1232:1 1241:1 1248:1
1 965:1 1107:1 1220:1 1232:1 1248:2
1 1107:1 1232:1 1248:8
1 1107:1 1232:1 1248:6
1 1107:1 1232:1 1248:8
1 519:1 1244:1 1248:5
1 464:1 934:2 947:3 965:2 1010:1 1056:1 1079:1 1107:4 1166:1 1216:1 1220:2 1228:1 1232:4 1241:1 1242:2 1245:3 1246:1 1247:1 1248:6
1 519:1 1244:1 1248:3
1 519:1 1244:1 1248:3
1 519:1 1244:1 1248:4
1 1107:1 1232:1 1248:8
1 1107:1 1232:1 1248:8
1 1107:1 1232:1 1248:8
1 1107:1 1232:1 1248:8
1 1107:1 1232:1 1248:8
1 1107:1 1232:1 1248:8
1 1107:1 1232:1 1248:7
1 1107:1 1232:1 1248:8
1 519:1 1244:1 1248:4
1 1107:1 1232:1 1248:8
1 1107:1 1232:1 1248:8
1 519:1 1244:1 1248:4
1 389:1 934:1 947:1 965:1 1056:1 1079:1 1107:1 1166:1 1219:1 1220:1 1228:1 1232:1 1241:1 1242:1 1245:1 1247:1 1248:7
1 1107:1 1232:1 1248:8
1 519:1 1244:1 1248:3
1 1107:1 1232:1 1248:8
1 1107:1 1232:1 1248:5
1 1107:1 1232:1 1248:8
1 965:1 1010:1 1056:1 1107:1 1220:1 1232:1 1241:1 1246:1 1248:2
1 519:1 1244:1 1248:4
1 1107:1 1232:1 1248:7
1 1107:1 1232:1 1248:8
1 1107:1 1232:1 1248:8
1 1107:1 1232:1 1248:8
1 1107:1 1232:1 1248:6
1 1107:1 1232:1 1248:7
1 1107:1 1232:1 1248:8
1 1107:1 1232:1 1248:8
1 1107:1 1232:1 1248:8
1 1107:1 1232:1 1248:8
1 1107:1 1232:1 1248:8
1 934:1 965:1 1107:1 1220:1 1232:1 1242:1 1248:3
1 965:1 1056:1 1107:1 1220:1 1232:1 1241:1 1248:2
1 1107:1 1232:1 1248:7
1 1107:1 1232:1 1248:8
1 1107:1 1232:1 1248:8
1 965:1 1056:1 1107:1 1220:1 1232:1 1241:1 1248:1
1 464:1 934:2 947:3 965:2 1010:1 1056:1 1079:1 1107:4 1166:1 1216:1 1220:2 1228:1 1232:4 1241:1 1242:2 1245:3 1246:1 1247:1 1248:6
1 1107:1 1232:1 1248:8
1 1107:1 1232:1 1248:8
1 1107:1 1232:1 1248:8
1 680:1 1107:1 1218:1 1232:1 1248:2
1 1107:1 1232:1 1248:8
1 1107:1 1232:1 1248:8
1 389:1 1219:1 1248:4
1 1107:1 1232:1 1248:8
1 1107:1 1232:1 1248:8
1 1107:1 1232:1 1248:8
1 1107:1 1232:1 1248:4
1 1107:1 1232:1 1248:6
1 965:1 1107:1 1220:1 1232:1 1248:2
1 1107:1 1232:1 1248:8
1 1107:1 1232:1 1248:8
1 1107:1 1232:1 1248:8
1 1107:1 1232:1 1248:8
1 934:1 1010:1 1056:1 1107:1 1232:1 1241:1 1242:1 1246:1 1248:2
1 1107:1 1232:1 1248:8
1 1107:1 1232:1 1248:7
1 1107:1 1232:1 1248:8
1 1107:1 1232:1 1248:8
1 1107:1 1232:1 1248:6
1 680:1 965:1 1107:1 1218:1 1220:1 1232:1 1248:2
1 934:1 965:1 1056:1 1107:1 1220:1 1232:1 1241:1 1242:1 1248:1
1 1107:1 1232:1 1248:8
1 1107:1 1232:1 1248:8
1 519:1 1244:1 1248:3
1 1107:1 1232:1 1248:8
1 1107:1 1232:1 1248:8
1 965:1 1107:1 1220:1 1232:1 1248:3
1 1107:1 1232:1 1248:8
1 965:1 1107:1 1220:1 1232:1 1248:2
1 1107:1 1232:1 1248:7
1 519:1 1244:1 1248:3
1 519:1 1244:1 1248:3
1 389:1 1219:1 1248:4
1 1107:1 1232:1 1248:8
1 1107:1 1232:1 1248:8
1 519:1 1244:1 1248:3
1 1107:1 1232:1 1248:7
1 1107:1 1232:1 1248:8
1 1107:1 1232:1 1248:8
1 1107:1 1232:1 1248:8
1 1107:1 1232:1 1248:8
1 519:1 1244:1 1248:4
1 1107:1 1232:1 1248:8
1 1107:1 1232:1 1248:8
1 519:1 1244:1 1248:4
1 1107:1 1232:1 1248:8
1 1107:1 1232:1 1248:8
1 1107:1 1232:1 1248:2
1 1107:1 1232:1 1248:8
1 965:1 1107:1 1220:1 1232:1 1248:6
1 1107:1 1232:1 1248:6
1 1107:1 1232:1 1248:7
1 1107:1 1232:1 1248:8
1 519:1 1244:1 1248:4
1 965:1 1056:1 1107:1 1220:1 1232:1 1241:1 1248:1
1 1107:1 1232:1 1248:8
1 1107:1 1232:1 1248:8
1 1107:1 1232:1 1248:8
1 519:1 1244:1 1248:3
1 1107:1 1232:1 1248:6
1 519:1 1244:1 1248:3
1 965:1 1107:1 1220:1 1232:1 1248:2
1 519:1 1244:1 1248:4
1 1107:1 1232:1 1248:8
1 1107:1 1232:1 1248:7
1 1107:1 1232:1 1248:7
1 1107:1 1232:1 1248:8
1 519:1 1244:1 1248:3
1 1107:1 1232:1 1248:8
1 934:1 965:1 1010:1 1107:1 1220:1 1232:1 1242:1 1246:1 1248:2
1 519:1 1244:1 1248:4
1 389:1 934:1 947:1 965:1 1056:1 1079:1 1107:1 1166:1 1219:1 1220:1 1228:1 1232:1 1241:1 1242:1 1245:1 1247:1 1248:7
1 1107:1 1232:1 1248:8
1 1107:1 1232:1 1248:3
1 1107:1 1232:1 1248:8
1 389:1 614:1 965:2 1107:2 1219:1 1220:2 1221:1 1232:2 1248:8
1 680:1 934:1 965:1 1107:1 1218:1 1220:1 1232:1 1242:1 1248:2
1 1107:1 1232:1 1248:8
1 1107:1 1232:1 1248:8
1 965:1 1107:1 1220:1 1232:1 1248:2
1 965:1 1056:1 1079:1 1107:1 1220:1 1232:1 1241:1 1247:1 1248:1
1 1107:1 1232:1 1248:8
1 965:1 1107:1 1220:1 1232:1 1248:2
1 389:1 934:1 947:1 965:1 1056:1 1079:1 1107:1 1166:1 1219:1 1220:1 1228:1 1232:1 1241:1 1242:1 1245:1 1247:1 1248:7
1 1107:1 1232:1 1248:8
1 1107:1 1232:1 1248:8
1 965:1 1107:1 1220:1 1232:1 1248:2
1 1107:1 1232:1 1248:8
1 1107:1 1232:1 1248:8
1 519:1 1244:1 1248:4
1 680:1 934:1 965:1 1056:1 1107:1 1218:1 1220:1 1232:1 1241:1 1242:1 1248:2
1 389:1 1107:1 1219:1 1232:1 1248:2
1 1107:1 1232:1 1248:8
1 519:1 1244:1 1248:4
1 1107:1 1232:1 1248:7
1 1107:1 1232:1 1248:7
1 519:1 1244:1 1248:3
1 1107:1 1232:1 1248:7
1 934:1 965:1 1056:1 1079:1 1107:1 1220:1 1232:1 1241:1 1242:1 1247:1 1248:1
1 389:1 1219:1 1248:5
1 965:1 1107:1 1220:1 1232:1 1248:2
1 1107:1 1232:1 1248:8
1 934:1 965:1 1056:1 1107:1 1220:1 1232:1 1241:1 1242:1 1248:2
1 1107:1 1232:1 1248:8
1 519:1 1244:1 1248:3
1 519:1 1244:1 1248:4
1 680:1 934:1 965:1 1107:1 1218:1 1220:1 1232:1 1242:1 1248:2
1 934:1 965:1 1010:1 1056:1 1079:1 1107:1 1220:1 1232:1 1241:1 1242:1 1246:1 1247:1 1248:1
1 1107:1 1232:1 1248:8
1 934:1 965:1 1107:1 1220:1 1232:1 1242:1 1248:2
1 1107:1 1232:1 1248:8
1 1107:1 1232:1 1248:8
1 1107:1 1232:1 1248:6
1 1107:1 1232:1 1248:1
1 1107:1 1232:1 1248:8
1 1107:1 1232:1 1248:8
1 1107:1 1232:1 1248:8
1 1107:1 1232:1 1248:8
1 965:1 1056:1 1107:1 1220:1 1232:1 1241:1 1248:2
1 1107:1 1232:1 1248:8
1 389:1 1219:1 1248:5
1 1107:1 1232:1 1248:6
1 1107:1 1232:1 1248:8
1 965:1 1107:1 1220:1 1232:1 1248:3
1 1107:1 1232:1 1248:8
1 1107:1 1232:1 1248:8
1 934:1 965:1 1056:1 1107:1 1220:1 1232:1 1241:1 1242:1 1248:3
1 1107:1 1232:1 1248:8
1 519:1 1244:1 1248:4
1 519:1 1244:1 1248:3
1 965:1 1010:1 1056:1 1107:1 1220:1 1232:1 1241:1 1246:1 1248:3
1 1107:1 1232:1 1248:8
1 1107:1 1232:1 1248:8
1 1107:1 1232:1 1248:8
1 519:1 1244:1 1248:4
1 1107:1 1232:1 1248:8
1 1107:1 1232:1 1248:8
1 1107:1 1232:1 1248:8
1 1107:1 1232:1 1248:8
1 519:1 1244:1 1248:4
1 519:1 1244:1 1248:4
1 1107:1 1232:1 1248:8
1 1107:1 1232:1 1248:8
1 1107:1 1232:1 1248:8
1 1107:1 1232:1 1248:8
1 1107:1 1232:1 1248:8
1 1107:1 1232:1 1248:8
1 934:1 965:1 1107:1 1220:1 1232:1 1242:1 1248:3
1 519:1 1244:1 1248:4
1 1107:1 1232:1 1248:7
1 1107:1 1232:1 1248:8
1 1107:1 1232:1 1248:8
1 1107:1 1232:1 1248:8
1 1107:1 1232:1 1248:6
1 1107:1 1232:1 1248:6
1 1107:1 1232:1 1248:8
1 1107:1 1232:1 1248:8
1 1107:1 1232:1 1248:8
1 1107:1 1232:1 1248:8
1 965:1 1107:1 1220:1 1232:1 1248:2
1 1107:1 1232:1 1248:8
1 1107:1 1232:1 1248:8
1 1107:1 1232:1 1248:8
1 1107:1 1232:1 1248:8
1 1107:1 1232:1 1248:8
1 1107:1 1232:1 1248:8
1 1107:1 1232:1 1248:8
1 1107:1 1232:1 1248:8
1 519:1 1244:1 1248:4
1 1107:1 1232:1 1248:7
1 1107:1 1232:1 1248:8
1 680:1 965:1 1107:1 1218:1 1220:1 1232:1 1248:2
1 934:1 965:1 1010:1 1056:1 1079:1 1107:1 1220:1 1232:1 1241:1 1242:1 1246:1 1247:1 1248:1
1 389:1 464:1 934:1 965:1 1056:1 1107:1 1153:1 1166:1 1216:1 1217:1 1219:1 1220:1 1228:1 1232:1 1241:1 1242:1 1248:2
1 389:1 1219:1 1248:4
1 519:1 1244:1 1248:3
1 1107:1 1232:1 1248:8
1 680:1 965:1 1010:1 1056:1 1107:1 1218:1 1220:1 1232:1 1241:1 1246:1 1248:2
1 1107:1 1232:1 1248:8
1 965:1 1107:1 1220:1 1232:1 1248:2
1 389:1 1219:1 1248:3
1 1107:1 1232:1 1248:8
1 1107:1 1232:1 1248:7
1 519:1 1244:1 1248:4
1 1107:1 1232:1 1248:8
1 1107:1 1232:1 1248:8
1 1107:1 1232:1 1248:7
1 1107:1 1232:1 1248:8
1 1107:1 1232:1 1248:3
1 1107:1 1232:1 1248:8
1 965:1 1107:1 1220:1 1232:1 1248:2
1 680:1 934:1 965:1 1056:1 1079:1 1107:1 1218:1 1220:1 1232:1 1241:1 1242:1 1247:1 1248:1
1 1107:1 1232:1 1248:7
1 680:1 965:1 1107:1 1218:1 1220:1 1232:1 1248:2
1 1107:1 1232:1 1248:7
1 680:1 965:1 1107:1 1218:1 1220:1 1232:1 1248:2
1 519:1 1244:1 1248:5
1 1107:1 1232:1 1248:8
1 1107:1 1232:1 1248:8
1 1107:1 1232:1 1248:8
1 519:1 1244:1 1248:4
1 519:1 1244:1 1248:4
1 1107:1 1232:1 1248:8
1 1107:1 1232:1 1248:7
1 680:1 934:1 965:1 1107:1 1218:1 1220:1 1232:1 1242:1 1248:2
1 519:1 1244:1 1248:2
1 934:1 965:1 1010:1 1056:1 1079:1 1107:1 1220:1 1232:1 1241:1 1242:1 1246:1 1247:1 1248:2
1 965:1 1107:1 1220:1 1232:1 1248:2
1 1107:1 1232:1 1248:8
1 1107:1 1232:1 1248:8
1 1107:1 1232:1 1248:8
1 934:1 965:1 1107:1 1220:1 1232:1 1242:1 1248:4
1 1107:1 1232:1 1248:8
1 519:1 1244:1 1248:3
1 519:1 1244:1 1248:3
1 1107:1 1232:1 1248:8
1 1107:1 1232:1 1248:8
1 519:1 1244:1 1248:4
1 934:1 965:1 1010:1 1056:1 1079:1 1107:1 1220:1 1232:1 1241:1 1242:1 1246:1 1247:1 1248:2
1 1107:1 1232:1 1248:8
1 1107:1 1232:1 1248:8
1 1107:1 1232:1 1248:8
1 965:1 1056:1 1107:1 1220:1 1232:1 1241:1 1248:2
1 1107:1 1232:1 1248:7
1 1107:1 1232:1 1248:8
1 1107:1 1232:1 1248:8
1 519:1 1244:1 1248:3
1 680:1 965:1 1107:1 1218:1 1220:1 1232:1 1248:2
1 934:1 965:1 1107:1 1220:1 1232:1 1242:1 1248:3
1 1107:1 1232:1 1248:8
1 1107:1 1232:1 1248:7
1 1107:1 1232:1 1248:8
1 1107:1 1232:1 1248:8
1 389:1 934:1 947:1 965:1 1056:1 1079:1 1107:1 1166:1 1219:1 1220:1 1228:1 1232:1 1241:1 1242:1 1245:1 1247:1 1248:7
1 519:1 1244:1 1248:4
1 1107:1 1232:1 1248:8
1 1107:1 1232:1 1248:8
1 389:1 1219:1 1248:5
1 1107:1 1232:1 1248:8
1 1107:1 1232:1 1248:8
1 1107:1 1232:1 1248:8
1 1107:1 1232:1 1248:8
1 1107:1 1232:1 1248:8
1 1107:1 1232:1 1248:8
1 519:1 1244:1 1248:3
1 934:1 965:1 1056:1 1107:1 1220:1 1232:1 1241:1 1242:1 1248:1
1 1107:1 1232:1 1248:6
1 519:1 1244:1 1248:4
1 389:1 934:1 947:1 965:1 1056:1 1079:1 1107:1 1166:1 1219:1 1220:1 1228:1 1232:1 1241:1 1242:1 1245:1 1247:1 1248:7
1 680:1 965:1 1056:1 1107:1 1218:1 1220:1 1232:1 1241:1 1248:3
1 1107:1 1232:1 1248:8
1 1107:1 1232:1 1248:8
1 1107:1 1232:1 1248:8
1 519:1 1244:1 1248:4
1 1107:1 1232:1 1248:8
1 1107:1 1232:1 1248:8
1 1107:1 1232:1 1248:8
1 1107:1 1232:1 1248:6
1 389:1 1219:1 1248:4
1 1107:1 1232:1 1248:8
1 1107:1 1232:1 1248:8
1 1107:1 1232:1 1248:8
1 1107:1 1232:1 1248:7
1 1107:1 1232:1 1248:8
1 1107:1 1232:1 1248:8
1 1107:1 1232:1 1248:6
1 1107:1 1232:1 1248:8
1 1107:1 1232:1 1248:7
1 1107:1 1232:1 1248:8
1 1107:1 1232:1 1248:8
1 1107:1 1232:1 1248:8
1 1107:1 1232:1 1248:7
1 965:1 1010:1 1056:1 1107:1 1220:1 1232:1 1241:1 1246:1 1248:2
1 1107:1 1232:1 1248:5
1 1107:1 1232:1 1248:8
1 1107:1 1232:1 1248:8
1 934:1 965:1 1056:1 1107:1 1220:1 1232:1 1241:1 1242:1 1248:1
1 965:1 1056:1 1079:1 1107:1 1220:1 1232:1 1241:1 1247:1 1248:1
1 1107:1 1232:1 1248:7
1 1107:1 1232:1 1248:8
1 1107:1 1232:1 1248:7
1 519:1 1244:1 1248:3
1 1107:1 1232:1 1248:8
1 519:1 1244:1 1248:5
1 1107:1 1232:1 1248:8
1 1107:1 1232:1 1248:8
1 965:1 1107:1 1220:1 1232:1 1248:2
1 1107:1 1232:1 1248:6
1 1107:1 1232:1 1248:8
1 147:1 434:1 496:1 771:1 895:1 934:1 947:1 965:1 982:1 1010:1 1056:1 1079:1 1107:1 1153:1 1166:1 1217:1 1220:1 1224:1 1226:1 1228:1 1232:1 1233:1 1235:1 1236:1 1240:1 1241:1 1242:1 1245:1 1246:1 1247:1 1248:4
1 464:1 934:2 947:3 965:2 1010:1 1056:1 1079:1 1107:4 1166:1 1216:1 1220:2 1228:1 1232:4 1241:1 1242:2 1245:3 1246:1 1247:1 1248:6
1 389:1 1219:1 1248:3
1 934:1 965:1 1107:1 1220:1 1232:1 1242:1 1248:1
1 389:1 1219:1 1248:3
1 1107:1 1232:1 1248:8
1 1107:1 1232:1 1248:8
1 1107:1 1232:1 1248:8
1 1107:1 1232:1 1248:8
1 1107:1 1232:1 1248:8
1 389:1 1219:1 1248:4
1 1107:1 1232:1 1248:5
1 965:1 1107:1 1220:1 1232:1 1248:2
1 389:1 1219:1 1248:3
1 1107:1 1232:1 1248:8
1 519:1 1244:1 1248:4
1 934:1 965:1 1056:1 1107:1 1220:1 1232:1 1241:1 1242:1 1248:2
1 1107:1 1232:1 1248:8
1 389:1 1219:1 1248:4
1 389:1 1219:1 1248:4
1 1107:1 1232:1 1248:6
1 1107:1 1232:1 1248:8
1 1107:1 1232:1 1248:8
1 1107:1 1232:1 1248:8
1 1107:1 1232:1 1248:8
1 1107:1 1232:1 1248:8
1 1107:1 1232:1 1248:8
1 1107:1 1232:1 1248:8
1 965:1 1107:1 1220:1 1232:1 1248:2
1 965:1 1107:1 1220:1 1232:1 1248:2
1 680:1 934:1 965:1 1107:1 1218:1 1220:1 1232:1 1242:1 1248:2
1 1107:1 1232:1 1248:7
1 1107:1 1232:1 1248:8
1 965:1 1107:1 1220:1 1232:1 1248:2
1 1107:1 1232:1 1248:8
1 1107:1 1232:1 1248:8
1 934:1 965:1 1107:1 1220:1 1232:1 1242:1 1248:1
1 1107:1 1232:1 1248:8
1 519:1 1244:1 1248:4
1 1107:1 1232:1 1248:8
1 1107:1 1232:1 1248:8
1 1107:1 1232:1 1248:8
1 519:1 1244:1 1248:3
1 1107:1 1232:1 1248:6
1 1107:1 1232:1 1248:8
1 1107:1 1232:1 1248:8
1 1107:1 1232:1 1248:8
1 1107:1 1232:1 1248:8
1 1107:1 1232:1 1248:8
1 1107:1 1232:1 1248:7
1 464:1 1107:1 1216:1 1232:1 1248:5
1 1107:1 1232:1 1248:8
1 1107:1 1232:1 1248:8
1 1107:1 1232:1 1248:8
1 1107:1 1232:1 1248:8
1 519:1 1244:1 1248:4
1 1107:1 1232:1 1248:8
1 1107:1 1232:1 1248:8
1 1107:1 1232:1 1248:8
1 1107:1 1232:1 1248:8
1 1107:1 1232:1 1248:6
1 1107:1 1232:1 1248:8
1 1107:1 1232:1 1248:8
1 519:1 1244:1 1248:4
1 1107:1 1232:1 1248:8
1 934:1 965:1 1056:1 1079:1 1107:1 1220:1 1232:1 1241:1 1242:1 1247:1 1248:1
1 1107:1 1232:1 1248:7
1 934:1 965:1 1056:1 1079:1 1107:1 1220:1 1232:1 1241:1 1242:1 1247:1 1248:1
1 519:1 1244:1 1248:3
1 389:1 1219:1 1248:4
1 1107:1 1232:1 1248:8
1 1107:1 1232:1 1248:8
1 1107:1 1232:1 1248:8
1 1107:1 1232:1 1248:8
1 1107:1 1232:1 1248:7
1 519:1 1244:1 1248:3
1 1107:1 1232:1 1248:8
1 519:1 1244:1 1248:4
1 1107:1 1232:1 1248:8
1 259:1 934:1 965:1 1107:1 1220:1 1222:1 1232:1 1242:1 1248:2
1 1107:1 1232:1 1248:8
1 1107:1 1232:1 1248:8
1 1107:1 1232:1 1248:8
1 934:1 965:1 1056:1 1107:1 1220:1 1232:1 1241:1 1242:1 1248:1
1 519:1 1244:1 1248:3
1 1107:1 1232:1 1248:8
1 1107:1 1232:1 1248:8
1 1107:1 1232:1 1248:8
1 519:1 1244:1 1248:3
1 1107:1 1232:1 1248:8
1 1107:1 1232:1 1248:6
1 519:1 1244:1 1248:4
1 934:1 965:1 1056:1 1107:1 1220:1 1232:1 1241:1 1242:1 1248:1
1 680:1 934:1 965:1 1056:1 1079:1 1107:1 1218:1 1220:1 1232:1 1241:1 1242:1 1247:1 1248:1
1 519:1 1244:1 1248:4
1 1107:1 1232:1 1248:8
1 934:1 965:1 1056:1 1107:1 1220:1 1232:1 1241:1 1242:1 1248:2
1 1107:1 1232:1 1248:8
1 1107:1 1232:1 1248:7
1 1107:1 1232:1 1248:8
1 1107:1 1232:1 1248:8
1 1107:1 1232:1 1248:8
1 1107:1 1232:1 1248:6
1 965:1 1107:1 1220:1 1232:1 1248:3
1 1107:1 1232:1 1248:8
1 965:1 1107:1 1220:1 1232:1 1248:2
1 680:1 934:1 965:1 1107:1 1218:1 1220:1 1232:1 1242:1 1248:2
1 1107:1 1232:1 1248:8
1 1107:1 1232:1 1248:6
1 1107:1 1232:1 1248:7
1 1107:1 1232:1 1248:8
1 1107:1 1232:1 1248:8
1 1107:1 1232:1 1248:8
1 1107:1 1232:1 1248:8
1 1107:1 1232:1 1248:8
1 519:1 1244:1 1248:4
1 1107:1 1232:1 1248:8
1 1107:1 1232:1 1248:8
1 1107:1 1232:1 1248:8
1 519:1 1244:1 1248:4
1 1107:1 1232:1 1248:8
1 680:1 934:1 965:1 1107:1 1218:1 1220:1 1232:1 1242:1 1248:2
1 1107:1 1232:1 1248:7
1 519:1 1244:1 1248:3
1 1107:1 1232:1 1248:8
1 1107:1 1232:1 1248:8
1 519:1 1244:1 1248:4
1 1107:1 1232:1 1248:7
1 965:1 1056:1 1079:1 1107:1 1220:1 1232:1 1241:1 1247:1 1248:2
1 1107:1 1232:1 1248:8
1 1107:1 1232:1 1248:8
1 965:1 1056:1 1107:1 1220:1 1232:1 1241:1 1248:2
1 1107:1 1232:1 1248:8
1 1107:1 1232:1 1248:6
1 1107:1 1232:1 1248:8
1 1107:1 1232:1 1248:7
1 1107:1 1232:1 1248:8
1 464:1 934:2 947:3 965:2 1010:1 1056:1 1079:1 1107:4 1166:1 1216:1 1220:2 1228:1 1232:4 1241:1 1242:2 1245:3 1246:1 1247:1 1248:6
1 519:1 1244:1 1248:3
1 1107:1 1232:1 1248:8
1 1107:1 1232:1 1248:5
1 1107:1 1232:1 1248:7
1 1107:1 1232:1 1248:8
1 1107:1 1232:1 1248:8
1 1107:1 1232:1 1248:8
1 519:1 1244:1 1248:3
1 1107:1 1232:1 1248:8
1 1107:1 1232:1 1248:8
1 934:1 965:1 1056:1 1107:1 1220:1 1232:1 1241:1 1242:1 1248:2
1 965:1 1107:1 1220:1 1232:1 1248:2
1 1107:1 1232:1 1248:8
1 1107:1 1232:1 1248:8
1 1107:1 1232:1 1248:8
1 680:1 934:1 965:1 1107:1 1218:1 1220:1 1232:1 1242:1 1248:2
1 1107:1 1232:1 1248:7
1 1107:1 1232:1 1248:8
1 1107:1 1232:1 1248:8
1 1107:1 1232:1 1248:8
1 1107:1 1232:1 1248:8
1 1107:1 1232:1 1248:8
1 1107:1 1232:1 1248:8
1 1107:1 1232:1 1248:8
1 519:1 1244:1 1248:3
1 1107:1 1232:1 1248:8
1 519:1 1244:1 1248:4
1 1107:1 1232:1 1248:8
1 1107:1 1232:1 1248:8
1 680:1 934:1 965:1 1010:1 1056:1 1079:1 1107:1 1218:1 1220:1 1232:1 1241:1 1242:1 1246:1 1247:1 1248:2
1 519:1 1244:1 1248:4
1 1107:1 1232:1 1248:8
1 1107:1 1232:1 1248:8
1 1107:1 1232:1 1248:8
1 1107:1 1232:1 1248:8
1 1248:2
1 389:1 1219:1 1248:4
1 934:1 965:1 1056:1 1107:1 1220:1 1232:1 1241:1 1242:1 1248:2
1 680:1 934:1 965:1 1056:1 1079:1 1107:1 1218:1 1220:1 1232:1 1241:1 1242:1 1247:1 1248:2
1 519:1 1244:1 1248:4
1 1107:1 1232:1 1248:8
1 680:1 934:1 965:1 1107:1 1218:1 1220:1 1232:1 1242:1 1248:2
1 934:1 965:1 1056:1 1079:1 1107:1 1220:1 1232:1 1241:1 1242:1 1247:1 1248:2
1 1107:1 1232:1 1248:8
1 934:1 965:1 1107:1 1220:1 1232:1 1242:1 1248:1
1 1107:1 1232:1 1248:7
1 1107:1 1232:1 1248:8
1 519:1 1244:1 1248:4
1 1107:1 1232:1 1248:8
1 1107:1 1232:1 1248:8
1 1107:1 1232:1 1248:8
1 1107:1 1232:1 1248:8
1 1107:1 1232:1 1248:8
1 1107:1 1232:1 1248:8
1 965:1 1056:1 1107:1 1220:1 1232:1 1241:1 1248:1
1 1107:1 1232:1 1248:8
1 1107:1 1232:1 1248:8
1 519:1 1244:1 1248:4
1 1107:1 1232:1 1248:8
1 1107:1 1232:1 1248:8
1 519:1 1244:1 1248:4
1 1107:1 1232:1 1248:8
1 1107:1 1232:1 1248:8
1 1107:1 1232:1 1248:8
1 680:1 934:1 965:1 1107:1 1218:1 1220:1 1232:1 1242:1 1248:2
1 1107:1 1232:1 1248:8
1 1107:1 1232:1 1248:8
1 1107:1 1232:1 1248:8
1 1107:1 1232:1 1248:8
1 1107:1 1232:1 1248:6
1 680:1 934:1 965:1 1010:1 1056:1 1079:1 1107:1 1218:1 1220:1 1232:1 1241:1 1242:1 1246:1 1247:1 1248:2
1 1107:1 1232:1 1248:7
1 1107:1 1232:1 1248:8
1 1107:1 1232:1 1248:8
1 1107:1 1232:1 1248:7
1 1107:1 1232:1 1248:8
1 965:1 1107:1 1220:1 1232:1 1248:2
1 1107:1 1232:1 1248:7
1 1107:1 1232:1 1248:8
1 1107:1 1232:1 1248:8
1 965:1 1107:1 1220:1 1232:1 1248:1
1 1107:1 1232:1 1248:8
1 1107:1 1232:1 1248:8
1 389:1 1219:1 1248:2
1 1107:1 1232:1 1248:8
1 1107:1 1232:1 1248:8
1 934:1 965:1 1056:1 1079:1 1107:1 1220:1 1232:1 1241:1 1242:1 1247:1 1248:2
1 1107:1 1232:1 1248:8
1 1107:1 1232:1 1248:8
1 1107:1 1232:1 1248:8
1 1107:1 1232:1 1248:8
1 519:1 1244:1 1248:4
1 1107:1 1232:1 1248:7
1 1107:1 1232:1 1248:5
1 1107:1 1232:1 1248:8
1 389:1 1219:1 1248:3
1 1107:1 1232:1 1248:8
1 1107:1 1232:1 1248:8
1 1107:1 1232:1 1248:8
1 1107:1 1232:1 1248:8
1 1107:1 1232:1 1248:8
1 1107:1 1232:1 1248:8
1 1107:1 1232:1 1248:8
1 1107:1 1232:1 1248:8
1 934:1 965:1 1056:1 1107:1 1220:1 1232:1 1241:1 1242:1 1248:2
1 1107:1 1232:1 1248:8
1 1107:1 1232:1 1248:8
1 1107:1 1232:1 1248:8
1 519:1 1244:1 1248:3
1 1107:1 1232:1 1248:8
1 965:1 1107:1 1220:1 1232:1 1248:2
1 1107:1 1232:1 1248:8
1 1107:1 1232:1 1248:8
1 1107:1 1232:1 1248:8
1 680:1 934:1 965:1 1010:1 1056:1 1079:1 1107:1 1218:1 1220:1 1232:1 1241:1 1242:1 1246:1 1247:1 1248:2
1 1107:1 1232:1 1248:8
1 1107:1 1232:1 1248:8
1 1107:1 1232:1 1248:8
1 259:1 680:1 934:1 965:1 1010:1 1056:1 1079:1 1107:1 1218:1 1220:1 1222:1 1232:1 1241:1 1242:1 1246:1 1247:1 1248:2
1 1107:1 1232:1 1248:8
1 519:1 1244:1 1248:3
1 1107:1 1232:1 1248:8
1 519:1 1244:1 1248:3
1 1107:1 1232:1 1248:8
1 1107:1 1232:1 1248:6
1 1107:1 1232:1 1248:8
1 680:1 934:1 965:1 1107:1 1218:1 1220:1 1232:1 1242:1 1248:2
1 965:1 1056:1 1079:1 1107:1 1220:1 1232:1 1241:1 1247:1 1248:1
1 1107:1 1232:1 1248:1
1 1107:1 1232:1 1248:8
1 1107:1 1232:1 1248:8
1 1107:1 1232:1 1248:8
1 934:1 1107:1 1232:1 1242:1 1248:3
1 1107:1 1232:1 1248:8
1 1107:1 1232:1 1248:8
1 1107:1 1232:1 1248:8
1 1107:1 1232:1 1248:8
1 1107:1 1232:1 1248:8
1 1107:1 1232:1 1248:8
1 1107:1 1232:1 1248:8
1 519:1 1244:1 1248:4
1 519:1 1244:1 1248:4
1 1107:1 1232:1 1248:7
1 934:1 965:1 1010:1 1056:1 1079:1 1107:1 1220:1 1232:1 1241:1 1242:1 1246:1 1247:1 1248:2
1 1107:1 1232:1 1248:8
1 1056:1 1107:1 1232:1 1241:1 1248:2
1 1107:1 1232:1 1248:8
1 1107:1 1232:1 1248:8
1 1107:1 1232:1 1248:8
1 1107:1 1232:1 1248:8
1 464:1 934:2 947:3 965:2 1010:1 1056:1 1079:1 1107:4 1166:1 1216:1 1220:2 1228:1 1232:4 1241:1 1242:2 1245:3 1246:1 1247:1 1248:6
1 1107:1 1232:1 1248:7
1 1107:1 1232:1 1248:8
1 519:1 1244:1 1248:6
1 1107:1 1232:1 1248:8
1 1107:1 1232:1 1248:6
1 965:1 1056:1 1107:1 1220:1 1232:1 1241:1 1248:1
1 1107:1 1232:1 1248:7
1 519:1 1244:1 1248:3
1 1107:1 1232:1 1248:8
1 1107:1 1232:1 1248:8
1 965:1 1107:1 1220:1 1232:1 1248:2
1 519:1 1244:1 1248:4
1 1107:1 1232:1 1248:8
1 1107:1 1232:1 1248:8
1 1107:1 1232:1 1248:8
1 519:1 1244:1 1248:4
1 1107:1 1232:1 1248:8
1 1107:1 1232:1 1248:8
1 519:1 1244:1 1248:3
1 934:1 965:1 1056:1 1107:1 1220:1 1232:1 1241:1 1242:1 1248:2
1 1107:1 1232:1 1248:8
1 1107:1 1232:1 1248:8
1 1107:1 1232:1 1248:8
1 1107:1 1232:1 1248:8
1 1107:1 1232:1 1248:7
1 1107:1 1232:1 1248:7
1 1107:1 1232:1 1248:8
1 1107:1 1232:1 1248:8
1 519:1 1244:1 1248:4
1 1107:1 1232:1 1248:6
1 1107:1 1232:1 1248:8
1 934:1 965:1 1010:1 1056:1 1079:1 1107:1 1220:1 1232:1 1241:1 1242:1 1246:1 1247:1 1248:2
1 1107:1 1232:1 1248:8
1 1107:1 1232:1 1248:8
1 519:1 1244:1 1248:4
1 1107:1 1232:1 1248:8
1 1107:1 1232:1 1248:8
1 1107:1 1232:1 1248:8
1 1107:1 1232:1 1248:8
1 965:1 1056:1 1107:1 1220:1 1232:1 1241:1 1248:3
1 680:1 965:1 1107:1 1218:1 1220:1 1232:1 1248:2
1 1107:1 1232:1 1248:7
1 389:1 1219:1 1248:4
1 519:1 1244:1 1248:4
1 680:1 934:1 965:1 1107:1 1218:1 1220:1 1232:1 1242:1 1248:2
1 934:1 965:1 1010:1 1107:1 1220:1 1232:1 1242:1 1246:1 1248:3
1 519:1 1244:1 1248:3
1 1107:1 1232:1 1248:8
1 519:1 1244:1 1248:4
1 519:1 1244:1 1248:4
1 519:1 1244:1 1248:4
1 389:1 1219:1 1248:4
1 1107:1 1232:1 1248:8
1 1107:1 1232:1 1248:6
1 1107:1 1232:1 1248:8
1 1107:1 1232:1 1248:8
1 1107:1 1232:1 1248:8
1 1107:1 1232:1 1248:8
1 1107:1 1232:1 1248:8
1 1107:1 1232:1 1248:8
1 680:1 934:1 965:1 1107:1 1218:1 1220:1 1232:1 1242:1 1248:2
1 1107:1 1232:1 1248:5
1 519:1 1244:1 1248:4
1 1107:1 1232:1 1248:7
1 1107:1 1232:1 1248:8
1 1107:1 1232:1 1248:8
1 1107:1 1232:1 1248:8
1 1107:1 1232:1 1248:8
1 965:1 1107:1 1220:1 1232:1 1248:2
1 965:1 1056:1 1107:1 1220:1 1232:1 1241:1 1248:1
1 1107:1 1232:1 1248:8
1 1107:1 1232:1 1248:8
1 389:1 934:1 947:1 965:1 1056:1 1079:1 1107:1 1166:1 1219:1 1220:1 1228:1 1232:1 1241:1 1242:1 1245:1 1247:1 1248:7
1 965:1 1107:1 1220:1 1232:1 1248:2
1 1107:1 1232:1 1248:8
1 519:1 1244:1 1248:3
1 1107:1 1232:1 1248:8
1 965:1 1056:1 1079:1 1107:1 1220:1 1232:1 1241:1 1247:1 1248:2
1 519:1 1244:1 1248:4
1 1107:1 1232:1 1248:8
1 680:1 965:1 1056:1 1107:1 1218:1 1220:1 1232:1 1241:1 1248:3
1 259:1 934:1 947:1 965:1 1056:1 1079:1 1107:1 1166:1 1220:1 1222:1 1228:1 1232:1 1241:1 1242:1 1245:1 1247:1 1248:9
1 519:1 1244:1 1248:4
1 1107:1 1232:1 1248:8
1 1107:1 1232:1 1248:8
1 1107:1 1232:1 1248:8
1 1107:1 1232:1 1248:8
1 519:1 1244:1 1248:3
1 1107:1 1232:1 1248:8
1 1107:1 1232:1 1248:8
1 1107:1 1232:1 1248:8
1 1107:1 1232:1 1248:7
1 965:1 1056:1 1107:1 1220:1 1232:1 1241:1 1248:1
1 1107:1 1232:1 1248:8
1 1107:1 1232:1 1248:6
1 1107:1 1232:1 1248:7
1 1107:1 1232:1 1248:8
1 1107:1 1232:1 1248:8
1 519:1 1244:1 1248:5
1 389:1 934:1 947:1 965:1 1056:1 1079:1 1107:1 1166:1 1219:1 1220:1 1228:1 1232:1 1241:1 1242:1 1245:1 1247:1 1248:7
1 1107:1 1232:1 1248:8
1 464:1 934:2 947:3 965:2 1010:1 1056:1 1079:1 1107:4 1166:1 1216:1 1220:2 1228:1 1232:4 1241:1 1242:2 1245:3 1246:1 1247:1 1248:6
1 1107:1 1232:1 1248:8
1 1107:1 1232:1 1248:8
1 1107:1 1232:1 1248:8
1 1107:1 1232:1 1248:8
1 934:1 965:1 1107:1 1220:1 1232:1 1242:1 1248:3
1 1107:1 1232:1 1248:8
1 1107:1 1232:1 1248:8
1 519:1 1244:1 1248:3
1 519:1 1244:1 1248:4
1 1107:1 1232:1 1248:8
1 464:1 1107:1 1216:1 1232:1 1248:5
1 1107:1 1232:1 1248:8
1 1107:1 1232:1 1248:8
1 519:1 1244:1 1248:4
1 1107:1 1232:1 1248:8
1 1107:1 1232:1 1248:6
1 1107:1 1232:1 1248:8
1 1107:1 1232:1 1248:6
1 1107:1 1232:1 1248:8
1 1107:1 1232:1 1248:8
1 934:1 965:1 1010:1 1056:1 1107:1 1220:1 1232:1 1241:1 1242:1 1246:1 1248:2
1 519:1 1244:1 1248:3
1 519:1 1244:1 1248:3
1 1107:1 1232:1 1248:8
1 519:1 1244:1 1248:4
1 389:1 934:1 947:1 965:1 1056:1 1079:1 1107:1 1166:1 1219:1 1220:1 1228:1 1232:1 1241:1 1242:1 1245:1 1247:1 1248:7
1 1107:1 1232:1 1248:5
1 1107:1 1232:1 1248:8
1 1107:1 1232:1 1248:8
1 1107:1 1232:1 1248:8
1 1107:1 1232:1 1248:8
1 1107:1 1232:1 1248:8
1 1107:1 1232:1 1248:8
1 1107:1 1232:1 1248:8
1 1107:1 1232:1 1248:8
1 1107:1 1232:1 1248:8
1 1107:1 1232:1 1248:8
1 1107:1 1232:1 1248:8
1 1107:1 1232:1 1248:7
1 519:1 1244:1 1248:4
1 1107:1 1232:1 1248:7
1 680:1 934:1 965:1 1107:1 1218:1 1220:1 1232:1 1242:1 1248:2
1 965:1 1107:1 1220:1 1232:1 1248:2
1 1107:1 1232:1 1248:8
1 1107:1 1232:1 1248:8
1 934:1 965:1 1107:1 1220:1 1232:1 1242:1 1248:2
1 1107:1 1232:1 1248:8
1 680:1 934:1 965:1 1010:1 1056:1 1079:1 1107:1 1218:1 1220:1 1232:1 1241:1 1242:1 1246:1 1247:1 1248:2
1 464:1 934:2 947:3 965:2 1010:1 1056:1 1079:1 1107:4 1166:1 1216:1 1220:2 1228:1 1232:4 1241:1 1242:2 1245:3 1246:1 1247:1 1248:6
1 1107:1 1232:1 1248:8
1 519:1 1244:1 1248:4
1 1107:1 1232:1 1248:8
1 965:1 1107:1 1220:1 1232:1 1248:2
1 1107:1 1232:1 1248:8
1 680:1 934:1 965:1 1010:1 1056:1 1079:1 1107:1 1218:1 1220:1 1232:1 1241:1 1242:1 1246:1 1247:1 1248:2
1 519:1 1244:1 1248:4
1 1107:1 1232:1 1248:8
1 1107:1 1232:1 1248:8
1 389:1 1219:1 1248:4
1 1107:1 1232:1 1248:8
1 1107:1 1232:1 1248:8
1 1107:1 1232:1 1248:8
1 519:1 1244:1 1248:4
1 1107:1 1232:1 1248:8
1 1107:1 1232:1 1248:8
1 519:1 1244:1 1248:4
1 1107:1 1232:1 1248:8
1 1107:1 1232:1 1248:8
1 1107:1 1232:1 1248:8
1 389:1 1219:1 1248:3
1 1107:1 1232:1 1248:8
1 934:1 965:1 1056:1 1107:1 1220:1 1232:1 1241:1 1242:1 1248:1
1 1107:1 1232:1 1248:8
1 1107:1 1232:1 1248:8
1 389:1 496:1 934:1 947:1 965:1 1010:1 1107:1 1219:1 1220:1 1232:1 1235:1 1242:1 1245:1 1246:1 1248:2
1 1107:1 1232:1 1248:8
1 519:1 1244:1 1248:4
1 1107:1 1232:1 1248:8
1 519:1 1244:1 1248:4
1 1107:1 1232:1 1248:8
1 1107:1 1232:1 1248:8
1 1107:1 1232:1 1248:8
1 1107:1 1232:1 1248:5
1 1107:1 1232:1 1248:8
1 1107:1 1232:1 1248:8
1 1107:1 1232:1 1248:6
1 1107:1 1232:1 1248:8
1 1107:1 1232:1 1248:8
1 519:1 1244:1 1248:3
1 1107:1 1232:1 1248:8
1 1107:1 1232:1 1248:8
1 1107:1 1232:1 1248:8
1 1107:1 1232:1 1248:8
1 1107:1 1232:1 1248:8
1 1107:1 1232:1 1248:8
1 389:2 1107:1 1219:2 1232:1 1248:6
1 1107:1 1232:1 1248:8
1 519:1 1244:1 1248:4
1 1107:1 1232:1 1248:8
1 1107:1 1232:1 1248:8
1 389:1 1219:1 1248:2
1 680:1 934:1 965:1 1056:1 1079:1 1107:1 1218:1 1220:1 1232:1 1241:1 1242:1 1247:1 1248:2
1 680:1 934:1 965:1 1056:1 1107:1 1218:1 1220:1 1232:1 1241:1 1242:1 1248:2
1 1107:1 1232:1 1248:8
1 1107:1 1232:1 1248:8
1 1107:1 1232:1 1248:8
1 1107:1 1232:1 1248:8
1 1107:1 1232:1 1248:8
1 1107:1 1232:1 1248:8
1 519:1 1244:1 1248:4
1 1107:1 1232:1 1248:8
1 965:1 1107:1 1220:1 1232:1 1248:2
1 389:1 496:1 934:1 947:1 965:1 1010:1 1107:1 1219:1 1220:1 1232:1 1235:1 1242:1 1245:1 1246:1 1248:2
1 1107:1 1232:1 1248:8
1 1107:1 1232:1 1248:7
1 1107:1 1232:1 1248:6
1 519:1 1244:1 1248:4
1 680:1 934:1 965:1 1010:1 1056:1 1079:1 1107:1 1218:1 1220:1 1232:1 1241:1 1242:1 1246:1 1247:1 1248:2
1 1107:1 1232:1 1248:8
1 1107:1 1232:1 1248:8
1 680:1 965:1 1056:1 1107:1 1218:1 1220:1 1232:1 1241:1 1248:2
1 1107:1 1232:1 1248:7
1 519:1 1244:1 1248:4
1 1107:1 1232:1 1248:3
1 680:1 934:1 965:1 1107:1 1218:1 1220:1 1232:1 1242:1 1248:2
1 1107:1 1232:1 1248:8
1 519:1 1244:1 1248:4
1 1107:1 1232:1 1248:8
1 1107:1 1232:1 1248:8
1 1107:1 1232:1 1248:8
1 1107:1 1232:1 1248:8
1 1107:1 1232:1 1248:8
1 1107:1 1232:1 1248:8
1 1107:1 1232:1 1248:8
1 1107:1 1232:1 1248:8
1 1107:1 1232:1 1248:8
1 1107:1 1232:1 1248:8
1 519:1 1244:1 1248:4
1 519:1 1244:1 1248:4
1 519:1 1244:1 1248:4
1 680:1 934:1 965:1 1056:1 1107:1 1218:1 1220:1 1232:1 1241:1 1242:1 1248:2
1 680:1 934:1 965:1 1010:1 1056:1 1079:1 1107:1 1218:1 1220:1 1232:1 1241:1 1242:1 1246:1 1247:1 1248:2
1 389:1 1219:1 1248:5
1 965:1 1107:1 1220:1 1232:1 1248:2
1 934:1 965:1 1056:1 1079:1 1107:1 1220:1 1232:1 1241:1 1242:1 1247:1 1248:1
1 1107:1 1232:1 1248:8
1 1107:1 1232:1 1248:7
1 1107:1 1232:1 1248:8
1 389:1 1219:1 1248:4
1 1107:1 1232:1 1248:8
1 259:1 347:1 464:1 496:1 565:1 626:1 671:1 698:1 702:1 895:1 934:3 947:3 965:3 1010:3 1056:2 1079:3 1107:6 1166:1 1214:1 1216:1 1220:3 1222:1 1224:1 1228:1 1229:1 1230:1 1232:6 1234:1 1235:1 1238:1 1239:1 1241:2 1242:3 1245:3 1246:3 1247:3 1248:6 1250:1
1 1107:1 1232:1 1248:8
1 389:1 1219:1 1248:4
1 1107:1 1232:1 1248:8
1 1107:1 1232:1 1248:8
1 115:1 1107:1 1232:1 1248:8
1 389:1 965:1 1107:1 1219:1 1220:1 1232:1 1248:3
1 1107:1 1232:1 1248:8
1 1107:1 1232:1 1248:8
1 1107:1 1232:1 1248:6
1 680:1 934:1 965:1 1107:1 1218:1 1220:1 1232:1 1242:1 1248:2
1 1107:1 1232:1 1248:8
1 680:1 965:1 1056:1 1107:1 1218:1 1220:1 1232:1 1241:1 1248:1
1 519:1 1244:1 1248:3
1 1107:1 1232:1 1248:7
1 1107:1 1232:1 1248:8
1 1107:1 1232:1 1248:6
1 1107:1 1232:1 1248:8
1 1107:1 1232:1 1248:7
1 1107:1 1232:1 1248:7
1 965:1 1056:1 1107:1 1220:1 1232:1 1241:1 1248:1
1 680:1 934:1 965:1 1010:1 1056:1 1079:1 1107:1 1218:1 1220:1 1232:1 1241:1 1242:1 1246:1 1247:1 1248:2
1 1107:1 1232:1 1248:8
1 519:1 1244:1 1248:3
1 1107:1 1232:1 1248:8
1 1107:1 1232:1 1248:8
1 1107:1 1232:1 1248:8
1 1107:1 1232:1 1248:8
1 1107:1 1232:1 1248:8
1 519:1 1244:1 1248:3
1 203:1 434:1 496:1 614:1 656:1 846:1 895:1 934:1 965:1 1010:1 1056:1 1079:1 1107:1 1220:1 1221:1 1224:1 1225:1 1231:1 1232:1 1235:1 1240:1 1241:1 1242:1 1243:1 1246:1 1247:1 1248:2
1 965:1 1107:1 1220:1 1232:1 1248:2
1 1107:1 1232:1 1248:8
1 965:1 1056:1 1107:1 1220:1 1232:1 1241:1 1248:1
1 1107:1 1232:1 1248:8
1 519:1 1244:1 1248:4
1 519:1 1244:1 1248:6
1 1107:1 1232:1 1248:8
1 1107:1 1232:1 1248:7
1 1107:1 1232:1 1248:8
1 519:1 1244:1 1248:4
1 1107:1 1232:1 1248:8
1 1107:1 1232:1 1248:8
1 680:1 934:1 965:1 1107:1 1218:1 1220:1 1232:1 1242:1 1248:2
1 965:1 1107:1 1220:1 1232:1 1248:2
1 1107:1 1232:1 1248:8
1 1107:1 1232:1 1248:8
1 934:1 965:1 1056:1 1107:1 1220:1 1232:1 1241:1 1242:1 1248:2
1 1107:1 1232:1 1248:8
1 1107:1 1232:1 1248:8
1 1107:1 1232:1 1248:8
1 1107:1 1232:1 1248:8
1 1107:1 1232:1 1248:7
1 680:1 934:1 965:1 1107:1 1218:1 1220:1 1232:1 1242:1 1248:2
1 1107:1 1232:1 1248:8
1 519:1 1244:1 1248:4
1 1107:1 1232:1 1248:6
1 1107:1 1232:1 1248:8
1 1107:1 1232:1 1248:8
1 934:1 965:1 1107:1 1220:1 1232:1 1242:1 1248:2
1 934:1 965:1 1107:1 1220:1 1232:1 1242:1 1248:1
1 680:1 934:1 965:1 1056:1 1107:1 1218:1 1220:1 1232:1 1241:1 1242:1 1248:2
1 1107:1 1232:1 1248:8
1 1107:1 1232:1 1248:8
1 680:1 934:1 965:1 1056:1 1079:1 1107:1 1218:1 1220:1 1232:1 1241:1 1242:1 1247:1 1248:2
1 1107:1 1232:1 1248:8
1 1107:1 1232:1 1248:8
1 1107:1 1232:1 1248:7
1 1107:1 1232:1 1248:8
1 1107:1 1232:1 1248:8
1 1107:1 1232:1 1248:8
1 519:1 1244:1 1248:4
1 1107:1 1232:1 1248:8
1 389:1 1219:1 1248:4
1 389:1 1219:1 1248:3
1 1107:1 1232:1 1248:8
-1 802:1 1107:1 1232:1 1248:1
-1 802:1 1107:1 1232:1 1248:1
-1 802:1 1107:1 1232:1 1248:1
-1 802:1 1107:1 1232:1 1248:1
-1 802:1 1107:1 1232:1 1248:1
-1 802:1 1107:1 1232:1 1248:1
-1 802:1 1107:1 1232:1 1248:1
-1 802:1 1107:1 1232:1 1248:1
-1 802:1 1107:1 1232:1 1248:1
-1 163:1 389:1 699:1 846:1 934:1 965:1 1056:1 1079:1 1107:1 1219:1 1220:1 1231:1 1232:1 1241:1 1242:1 1247:1 1248:2
-1 802:1 1107:1 1232:1 1248:1
-1 802:1 1107:1 1232:1 1248:1
-1 802:1 1107:1 1232:1 1248:1
-1 116:1 802:1 965:1 1056:1 1107:1 1220:1 1232:1 1241:1 1248:1
-1 802:1 1107:1 1232:1 1248:1
-1 802:1 1107:1 1232:1 1248:1
-1 802:1 875:1 1107:1 1232:1 1248:1
-1 802:1 1107:1 1232:1 1248:1
-1 802:1 1107:1 1232:1 1248:1
-1 802:1 1107:1 1232:1 1248:1
-1 802:1 1107:1 1232:1 1248:1
-1 802:1 1107:1 1232:1 1248:1
-1 802:1 875:1 977:1 1107:1 1232:1 1248:1
-1 802:1 875:1 977:1 1107:1 1232:1 1248:1
-1 802:1 875:1 1107:1 1232:1 1248:1
-1 802:1 1107:1 1232:1 1248:1
-1 116:1 195:1 346:1 464:1 496:1 934:1 965:1 1056:1 1079:1 1107:1 1216:1 1220:1 1232:1 1235:1 1241:1 1242:1 1247:1 1248:2
-1 802:1 827:1 1107:1 1232:1 1248:2
-1 116:1 194:1 346:1 619:1 671:1 678:1 790:1 888:1 1107:1 1214:1 1232:1 1248:1 1250:1
-1 389:1 934:1 965:1 1010:1 1079:1 1107:1 1219:1 1220:1 1232:1 1242:1 1246:1 1247:1 1248:3
-1 947:1 965:1 1107:1 1220:1 1232:1 1245:1 1248:4
-1 389:1 934:1 947:1 965:1 1107:1 1219:1 1220:1 1232:1 1242:1 1245:1 1248:2
-1 389:1 464:1 626:1 698:1 934:1 947:1 965:1 1010:1 1056:1 1079:1 1107:1 1216:1 1219:1 1220:1 1229:1 1230:1 1232:1 1241:1 1242:1 1245:1 1246:1 1247:1 1248:3
-1 389:1 464:1 698:1 934:1 947:1 965:1 1010:1 1079:1 1107:1 1216:1 1219:1 1220:1 1230:1 1232:1 1242:1 1245:1 1246:1 1247:1 1248:4
-1 519:1 1244:1 1248:3
-1 519:1 1244:1 1248:3
-1 227:1 430:1 480:1 514:1 554:1 797:1 853:1 934:1 947:1 965:1 1010:1 1056:1 1079:1 1107:1 1220:1 1232:1 1241:1 1242:1 1245:1 1246:1 1247:1 1248:1
-1 519:1 1244:1 1248:3
-1 467:1 698:1 934:1 965:1 1056:1 1107:1 1152:1 1166:1 1220:1 1228:1 1230:1 1232:1 1241:1 1242:1 1248:2
-1 389:1 464:1 626:1 698:1 934:1 947:1 965:1 1010:1 1056:1 1079:1 1107:1 1152:1 1216:1 1219:1 1220:1 1229:1 1230:1 1232:1 1241:1 1242:1 1245:1 1246:1 1247:1 1248:1
-1 464:1 698:1 892:1 965:1 1010:1 1056:1 1107:1 1166:1 1216:1 1220:1 1228:1 1230:1 1232:1 1241:1 1246:1 1248:2
-1 317:1 380:1 464:1 698:1 870:1 934:1 947:1 965:1 1010:1 1056:1 1079:1 1107:1 1216:1 1220:1 1230:1 1232:1 1241:1 1242:1 1245:1 1246:1 1247:1 1248:2
-1 1248:1
-1 245:1 307:1 341:1 389:1 405:1 409:1 441:1 449:1 469:1 570:1 646:1 658:1 668:1 738:1 966:1 987:1 1076:1 1101:1 1130:1 1219:1 1248:1 1250:3
-1 1107:1 1232:1 1248:3
-1 464:1 671:1 698:1 934:2 947:2 965:2 1056:1 1107:4 1214:1 1216:1 1220:2 1230:1 1232:4 1241:1 1242:2 1245:2 1248:6
-1 464:1 934:2 947:2 965:2 1056:1 1079:2 1107:4 1166:1 1216:1 1220:2 1228:1 1232:4 1241:1 1242:2 1245:2 1247:2 1248:6
-1 389:2 671:1 1107:1 1214:1 1219:2 1232:1 1248:2
-1 430:1 853:1 934:1 965:1 1079:1 1107:1 1220:1 1232:1 1242:1 1247:1 1248:1
-1 162:1 245:1 307:1 341:1 353:1 389:1 405:1 409:1 449:1 563:1 570:1 646:1 658:1 668:1 685:1 732:1 738:1 966:1 987:1 1076:1 1101:1 1128:1 1130:1 1219:1 1248:2
-1 135:1 430:1 1107:1 1232:1 1248:1
-1 519:1 1244:1 1248:2
-1 389:1 874:1 965:1 1107:1 1219:1 1220:1 1232:1 1248:2
-1 389:2 518:1 846:1 934:1 965:1 1056:1 1079:1 1107:1 1219:2 1220:1 1231:1 1232:1 1241:1 1242:1 1247:1 1248:2
-1 519:1 1244:1 1248:2
-1 519:1 1244:1 1248:2
-1 519:1 1244:1 1248:2
-1 389:1 698:1 957:1 965:1 1056:1 1107:1 1219:1 1220:1 1230:1 1232:1 1241:1 1248:2
-1 389:1 965:1 1107:1 1219:1 1220:1 1232:1 1248:5
-1 147:1 464:1 613:1 698:1 934:1 947:1 965:1 1010:1 1056:1 1079:1 1084:1 1107:1 1152:1 1166:1 1216:1 1220:1 1228:1 1230:1 1232:1 1236:1 1241:1 1242:1 1245:1 1246:1 1247:1 1248:1
-1 389:1 1107:1 1219:1 1232:1 1248:2
-1 147:1 464:1 496:1 554:1 698:1 846:1 934:1 947:1 965:1 1056:1 1079:1 1107:1 1166:1 1216:1 1220:1 1228:1 1230:1 1231:1 1232:1 1235:1 1236:1 1241:1 1242:1 1245:1 1247:1 1248:1
-1 180:1 1248:1
-1 389:1 1107:1 1219:1 1232:1 1248:4
-1 389:1 965:1 1107:1 1219:1 1220:1 1232:1 1248:4
-1 261:1 402:1 430:1 434:1 480:1 496:1 626:1 846:1 853:1 895:1 934:1 947:1 965:1 1010:1 1022:1 1079:1 1107:1 1220:1 1224:1 1229:1 1231:1 1232:1 1235:1 1240:1 1242:1 1245:1 1246:1 1247:1 1248:1
-1 163:1 389:1 947:1 965:1 1010:1 1056:1 1079:1 1107:1 1219:1 1220:1 1232:1 1241:1 1245:1 1246:1 1247:1 1248:2
-1 519:1 1244:1 1248:3
-1 613:1 698:1 934:1 947:1 965:1 1010:1 1056:1 1084:1 1107:1 1220:1 1230:1 1232:1 1241:1 1242:1 1245:1 1246:1 1248:1
-1 464:1 934:2 947:1 965:2 1107:2 1216:1 1220:2 1232:2 1242:2 1245:1 1248:7
-1 389:2 464:1 698:1 846:1 934:1 965:1 1056:1 1079:1 1107:1 1216:1 1219:2 1220:1 1230:1 1231:1 1232:1 1241:1 1242:1 1247:1 1248:5
-1 519:1 1244:1 1248:3
-1 519:1 1244:1 1248:2
-1 434:1 934:1 947:1 965:1 1010:1 1056:1 1079:1 1107:1 1166:1 1220:1 1228:1 1232:1 1240:1 1241:1 1242:1 1245:1 1246:1 1247:1 1248:2
-1 383:1 389:1 613:1 934:1 947:1 982:1 1010:1 1079:1 1107:1 1166:1 1219:1 1228:1 1232:1 1233:1 1242:1 1245:1 1246:1 1247:1 1248:1
-1 434:1 875:1 934:1 965:1 977:1 1010:1 1079:1 1107:1 1220:1 1232:1 1240:1 1242:1 1246:1 1247:1 1248:1
-1 519:1 1244:1 1248:4
-1 519:1 1244:1 1248:3
-1 464:1 698:1 934:1 947:1 965:1 1010:1 1056:1 1079:1 1107:1 1216:1 1220:1 1230:1 1232:1 1241:1 1242:1 1245:1 1246:1 1247:1 1248:1 1250:1
-1 496:1 965:1 1107:1 1220:1 1232:1 1235:1 1248:1
-1 180:1 1248:1
-1 389:1 496:1 519:1 713:1 934:1 947:1 1010:1 1107:1 1219:1 1232:1 1235:1 1237:1 1242:1 1244:1 1245:1 1246:1 1248:3 1250:4
-1 464:1 698:1 780:1 934:1 947:1 965:1 1056:1 1079:1 1107:1 1216:1 1220:1 1230:1 1232:1 1241:1 1242:1 1245:1 1247:1 1248:11
-1 519:1 1244:1 1248:3
-1 519:1 1244:1 1248:2
-1 671:1 846:1 934:1 947:1 965:1 1010:1 1056:1 1079:1 1107:1 1161:1 1214:1 1220:1 1223:1 1231:1 1232:1 1241:1 1242:1 1245:1 1246:1 1247:1 1248:2
-1 934:1 965:1 1010:1 1056:1 1079:1 1107:1 1220:1 1232:1 1241:1 1242:1 1246:1 1247:1 1248:2
-1 259:1 347:1 389:1 464:1 671:1 934:2 947:3 965:3 1010:1 1056:1 1079:1 1107:4 1166:1 1214:1 1216:1 1219:1 1220:3 1222:1 1228:1 1232:4 1238:1 1241:1 1242:2 1245:3 1246:1 1247:1 1248:5
-1 259:1 347:1 389:1 464:1 934:2 947:3 965:3 1010:1 1056:1 1079:1 1107:4 1166:1 1216:1 1219:1 1220:3 1222:1 1228:1 1232:4 1238:1 1241:1 1242:2 1245:3 1246:1 1247:1 1248:5
-1 519:1 1244:1 1248:3
-1 519:1 1244:1 1248:3
-1 238:1 264:1 307:1 359:1 389:1 409:1 449:1 469:1 485:1 492:1 570:1 676:1 685:1 691:1 738:1 966:1 987:1 1076:1 1101:1 1102:1 1128:1 1219:1 1248:1
-1 317:1 464:1 496:1 698:1 895:1 934:1 947:1 965:1 1010:1 1056:1 1079:1 1107:1 1216:1 1220:1 1224:1 1230:1 1232:1 1235:1 1241:1 1242:1 1245:1 1246:1 1247:1 1248:2
-1 347:1 382:1 464:1 698:1 934:1 965:1 1010:1 1056:1 1079:1 1107:1 1216:1 1220:1 1230:1 1232:1 1238:1 1241:1 1242:1 1246:1 1247:1 1248:2
-1 519:1 1244:1 1248:3
-1 347:1 389:1 1107:1 1219:1 1232:1 1238:1 1248:6
-1 671:1 1107:1 1214:1 1232:1 1248:2
-1 163:1 278:1 389:1 965:1 1107:1 1219:1 1220:1 1232:1 1248:2
-1 629:1 671:1 779:1 1107:1 1214:1 1232:1 1248:3
-1 496:1 656:1 671:1 698:1 934:1 947:1 965:1 1010:1 1056:1 1079:1 1107:1 1214:1 1220:1 1230:1 1232:1 1235:1 1241:1 1242:1 1243:1 1245:1 1246:1 1247:1 1248:1
-1 116:1 135:1 199:1 223:1 346:1 351:1 827:1 854:1 997:1 1002:1 1107:1 1167:1 1192:1 1232:1 1248:2
-1 317:1 464:1 496:1 671:1 698:1 895:1 934:1 947:1 965:1 1010:1 1056:1 1079:1 1107:1 1166:1 1214:1 1216:1 1220:1 1224:1 1228:1 1230:1 1232:1 1235:1 1241:1 1242:1 1245:1 1246:1 1247:1 1248:1
-1 1107:1 1232:1 1248:2
-1 1248:4
-1 934:1 1107:1 1232:1 1242:1 1248:3
-1 947:1 965:1 1010:1 1107:1 1220:1 1232:1 1245:1 1246:1 1248:3
-1 464:1 614:1 934:1 965:1 1010:1 1055:1 1056:1 1079:1 1107:1 1216:1 1220:1 1221:1 1232:1 1241:1 1242:1 1246:1 1247:1 1248:3
-1 238:1 245:1 307:1 341:1 389:1 400:1 405:1 409:1 449:1 541:1 563:1 570:1 579:1 646:1 668:1 738:1 966:1 987:1 1076:1 1101:1 1130:1 1219:1 1248:1
-1 170:1 238:1 307:1 389:1 409:1 449:1 570:1 676:1 713:1 738:1 966:1 987:1 1072:1 1076:1 1128:1 1158:1 1164:1 1219:1 1237:1 1248:3
-1 147:1 238:1 245:1 275:1 292:1 307:1 389:1 405:1 409:1 449:1 466:1 570:1 676:1 713:1 718:1 732:1 738:1 829:1 864:1 919:1 966:1 987:1 1072:1 1076:1 1128:1 1158:1 1164:1 1219:1 1236:1 1237:1 1248:2
-1 389:1 713:1 934:1 1107:1 1219:1 1232:1 1237:1 1242:1 1248:1
-1 317:1 464:1 496:1 698:1 934:1 947:1 965:1 1010:1 1056:1 1107:1 1216:1 1220:1 1230:1 1232:1 1235:1 1241:1 1242:1 1245:1 1246:1 1248:1
-1 519:1 733:1 934:1 947:1 965:1 1107:1 1220:1 1232:1 1242:1 1244:1 1245:1 1248:1
-1 245:1 307:1 341:1 389:1 409:1 449:1 570:1 646:1 658:1 738:1 966:1 987:1 1076:1 1078:1 1219:1 1248:2
-1 259:1 496:1 565:1 671:1 699:1 710:1 771:1 888:1 895:1 934:1 947:1 965:1 979:1 1010:1 1056:1 1079:1 1082:1 1107:1 1166:1 1214:1 1220:1 1222:1 1224:1 1226:1 1228:1 1232:1 1235:1 1239:1 1241:1 1242:1 1245:1 1246:1 1247:1 1248:2 1250:919
-1 389:1 613:1 934:1 947:1 1010:1 1079:1 1107:1 1219:1 1232:1 1242:1 1245:1 1246:1 1247:1 1248:1
-1 164:1 245:1 268:1 307:1 405:1 449:1 563:1 570:1 623:1 646:1 713:1 727:1 738:1 934:1 947:1 965:1 966:1 987:1 1010:1 1107:1 1116:1 1220:1 1232:1 1237:1 1242:1 1245:1 1246:1 1248:2
-1 164:1 614:1 623:1 688:1 718:1 727:1 895:1 911:1 934:1 947:1 965:1 1010:1 1018:1 1107:1 1152:1 1220:1 1221:1 1224:1 1232:1 1242:1 1245:1 1246:1 1248:1
-1 934:1 1010:1 1107:1 1232:1 1242:1 1246:1 1248:1
-1 164:1 623:1 727:1 934:1 1010:1 1107:1 1232:1 1242:1 1246:1 1248:1
-1 147:1 718:1 934:1 989:1 1010:1 1107:1 1232:1 1236:1 1242:1 1246:1 1248:1
-1 164:1 554:1 623:1 727:1 934:1 965:1 1107:1 1220:1 1232:1 1242:1 1248:1
-1 147:1 164:1 623:1 718:1 727:1 934:1 965:1 1010:1 1079:1 1107:1 1220:1 1232:1 1236:1 1242:1 1246:1 1247:1 1248:1
-1 519:1 1244:1 1248:3
-1 147:1 464:1 496:1 934:1 947:1 965:1 1079:1 1107:1 1153:1 1166:1 1216:1 1217:1 1220:1 1228:1 1232:1 1235:1 1236:1 1242:1 1245:1 1247:1 1248:1 1250:3
-1 1107:1 1232:1 1248:3
-1 464:1 934:2 947:1 965:2 1107:2 1216:1 1220:2 1232:2 1242:2 1245:1 1248:7
-1 671:1 713:1 846:1 934:1 1107:1 1214:1 1231:1 1232:1 1237:1 1242:1 1248:4
-1 389:1 934:1 965:1 1079:1 1107:1 1219:1 1220:1 1232:1 1242:1 1247:1 1248:3
-1 389:1 934:1 965:1 1079:1 1107:1 1219:1 1220:1 1232:1 1242:1 1247:1 1248:3
-1 347:1 464:1 671:1 698:1 794:1 897:1 934:2 947:3 965:2 1010:2 1056:1 1079:2 1107:5 1166:1 1214:1 1216:1 1220:2 1228:1 1230:1 1232:5 1238:1 1241:1 1242:2 1245:3 1246:2 1247:2 1248:6
-1 253:1 389:2 530:1 619:1 790:1 1006:1 1107:1 1184:1 1219:2 1232:1 1248:3
-1 307:1 341:1 389:1 409:1 449:1 570:1 650:1 699:1 713:1 732:1 738:1 846:1 917:1 966:1 987:1 1072:1 1101:1 1219:1 1231:1 1237:1 1248:2
-1 1107:1 1232:1 1248:2
-1 464:1 934:2 947:1 965:2 1010:1 1056:1 1107:3 1216:1 1220:2 1232:3 1241:1 1242:2 1245:1 1246:1 1248:6
-1 519:1 1244:1 1248:3
-1 519:1 1244:1 1248:3
-1 116:1 346:1 657:1 1107:1 1232:1 1248:2
-1 389:1 965:1 1107:1 1219:1 1220:1 1232:1 1248:5
-1 565:1 879:1 934:1 958:1 965:1 1010:1 1107:1 1166:1 1220:1 1228:1 1232:1 1239:1 1242:1 1246:1 1248:3
-1 155:1 205:1 272:1 333:1 517:1 580:1 623:1 627:1 712:1 805:1 821:1 954:1 965:1 1014:1 1107:1 1220:1 1232:1 1248:3
-1 389:2 934:1 1107:1 1219:2 1232:1 1242:1 1248:3
-1 389:1 698:1 756:1 965:1 983:1 1107:1 1219:1 1220:1 1230:1 1232:1 1248:2
-1 389:1 1103:1 1107:1 1219:1 1232:1 1248:2
-1 519:1 1244:1 1248:2
-1 519:1 1244:1 1248:2
-1 373:1 733:1 934:1 1010:1 1107:1 1232:1 1242:1 1246:1 1248:1
-1 519:1 1244:1 1248:2
-1 373:1 485:1 519:1 733:1 846:1 934:1 1010:1 1107:1 1231:1 1232:1 1242:1 1244:1 1246:1 1248:1 1250:9
-1 373:1 733:1 934:1 1107:1 1232:1 1242:1 1248:3 1250:26
-1 180:1 1248:1
-1 245:1 254:1 307:1 389:1 441:1 449:1 469:1 570:1 658:1 668:1 738:1 966:1 987:1 1076:1 1130:1 1219:1 1248:1
-1 519:1 1244:1 1248:4
-1 1107:1 1232:1 1248:1
-1 389:1 496:1 713:1 840:1 934:1 965:1 1079:1 1107:1 1219:1 1220:1 1227:1 1232:1 1235:1 1237:1 1242:1 1247:1 1248:1
-1 297:1 307:1 389:1 449:1 570:1 713:1 738:1 918:1 934:1 966:1 987:1 1107:1 1116:1 1219:1 1232:1 1237:1 1242:1 1248:1
-1 547:1 671:1 965:1 1056:1 1107:1 1214:1 1220:1 1232:1 1241:1 1248:2
-1 180:1 1248:1
-1 317:1 464:1 698:1 934:1 947:1 965:1 1010:1 1056:1 1079:1 1096:1 1107:1 1216:1 1220:1 1230:1 1232:1 1241:1 1242:1 1245:1 1246:1 1247:1 1248:2
-1 389:1 934:1 1107:1 1219:1 1232:1 1242:1 1248:2
-1 307:1 389:1 409:1 449:1 570:1 713:1 738:1 966:1 987:1 1094:1 1219:1 1237:1 1248:2
-1 700:1 965:1 1056:1 1107:1 1220:1 1232:1 1241:1 1248:3
-1 393:1 422:1 496:1 671:1 698:1 881:1 937:1 965:1 1010:1 1011:1 1079:1 1107:1 1110:1 1144:1 1214:1 1220:1 1230:1 1232:1 1235:1 1246:1 1247:1 1248:2 1250:3660
-1 464:1 934:3 947:1 965:2 1107:4 1216:1 1220:2 1232:4 1242:3 1245:1 1248:5
-1 464:1 934:3 947:1 965:2 1107:4 1216:1 1220:2 1232:4 1242:3 1245:1 1248:4
-1 116:1 135:1 199:1 223:1 346:1 827:1 875:1 977:1 997:1 1107:1 1167:1 1192:1 1232:1 1248:1
-1 571:1 671:1 768:1 934:1 965:1 975:1 1010:1 1107:1 1214:1 1220:1 1232:1 1242:1 1246:1 1248:2
-1 163:1 389:1 671:1 768:1 934:1 965:1 1010:1 1056:1 1107:1 1214:1 1219:1 1220:1 1232:1 1241:1 1242:1 1246:1 1248:2
-1 464:1 934:2 947:1 965:2 1107:2 1216:1 1220:2 1232:2 1242:2 1245:1 1248:7
-1 238:1 264:1 307:1 359:1 389:1 405:1 409:1 449:1 456:1 492:1 570:1 578:1 646:1 691:1 713:1 738:1 913:1 936:1 966:1 987:1 1009:1 1072:1 1076:1 1101:1 1128:1 1219:1 1237:1 1248:2
-1 519:1 1244:1 1248:4
-1 464:1 934:1 965:1 1010:1 1056:1 1079:1 1107:1 1166:1 1216:1 1220:1 1228:1 1232:1 1241:1 1242:1 1246:1 1247:1 1248:3
-1 464:1 934:1 965:1 1010:1 1056:1 1079:1 1107:1 1166:1 1216:1 1220:1 1228:1 1232:1 1241:1 1242:1 1246:1 1247:1 1248:3
-1 238:1 245:1 266:1 292:1 297:1 307:1 389:1 409:1 449:1 559:1 570:1 612:1 676:1 705:1 713:1 732:1 738:1 806:1 836:1 856:1 913:1 947:1 966:1 987:1 1008:1 1009:1 1030:1 1072:1 1076:1 1101:1 1128:1 1219:1 1237:1 1245:1 1248:3
-1 307:1 341:1 389:1 409:1 423:1 449:1 570:1 601:1 612:1 650:1 713:1 732:1 738:1 856:1 935:1 966:1 987:1 1072:1 1101:1 1185:1 1219:1 1237:1 1248:1
-1 389:1 713:1 934:1 965:1 1010:1 1107:1 1219:1 1220:1 1232:1 1237:1 1242:1 1246:1 1248:2
-1 389:2 496:1 554:1 965:1 1056:1 1079:1 1107:1 1219:2 1220:1 1232:1 1235:1 1241:1 1247:1 1248:5
-1 131:1 238:1 245:1 307:1 389:1 405:1 449:1 529:1 570:1 616:1 646:1 658:1 668:1 685:1 713:1 732:1 738:1 913:1 966:1 987:1 1009:1 1030:1 1072:1 1076:1 1101:1 1128:1 1219:1 1237:1 1248:2
-1 713:1 1237:1 1248:1
-1 389:1 846:1 934:1 965:1 1107:1 1219:1 1220:1 1231:1 1232:1 1242:1 1248:4
-1 713:1 1237:1 1248:1
-1 1107:1 1232:1 1248:2
-1 713:1 1237:1 1248:1
-1 347:1 464:1 671:1 698:1 934:1 947:1 965:1 1010:1 1056:1 1079:1 1107:1 1166:1 1214:1 1216:1 1220:1 1228:1 1230:1 1232:1 1238:1 1241:1 1242:1 1245:1 1246:1 1247:1 1248:4
-1 434:1 688:1 771:1 895:1 965:1 1010:1 1056:1 1079:1 1107:1 1220:1 1224:1 1226:1 1232:1 1240:1 1241:1 1246:1 1247:1 1248:2 1250:2
-1 698:1 934:1 965:1 1056:1 1079:1 1107:1 1220:1 1230:1 1232:1 1241:1 1242:1 1247:1 1248:1
-1 163:1 389:1 947:1 965:1 1010:1 1107:1 1219:1 1220:1 1232:1 1245:1 1246:1 1248:3
-1 519:1 1244:1 1248:2
-1 671:1 934:1 965:1 1056:1 1079:1 1107:1 1214:1 1220:1 1232:1 1241:1 1242:1 1247:1 1248:1
-1 434:1 464:1 496:1 680:1 698:1 934:1 947:1 965:1 1010:1 1056:1 1079:1 1107:1 1166:1 1216:1 1218:1 1220:1 1228:1 1230:1 1232:1 1235:1 1240:1 1241:1 1242:1 1245:1 1246:1 1247:1 1248:1
-1 519:1 1244:1 1248:3
-1 519:1 1244:1 1248:2
-1 464:1 698:1 700:1 965:1 1056:1 1107:1 1216:1 1220:1 1230:1 1232:1 1241:1 1248:3
-1 224:1 531:1 909:1 924:1 1107:1 1232:1 1248:4
-1 519:1 1244:1 1248:3
-1 519:1 1244:1 1248:2
-1 430:1 619:1 790:1 1107:1 1232:1 1248:1
-1 464:1 934:2 947:2 965:2 1056:1 1079:1 1107:4 1216:1 1220:2 1232:4 1241:1 1242:2 1245:2 1247:1 1248:6
-1 203:1 464:1 671:1 895:1 934:2 947:3 965:2 1010:1 1056:1 1079:1 1107:4 1166:1 1214:1 1216:1 1220:2 1224:1 1225:1 1228:1 1232:4 1241:1 1242:2 1245:3 1246:1 1247:1 1248:6
-1 519:1 1244:1 1248:3
-1 382:1 1107:1 1232:1 1248:2
-1 118:1 626:1 965:1 973:1 1056:1 1079:2 1107:2 1220:1 1229:1 1232:2 1241:1 1247:2 1248:4
-1 671:1 934:1 965:1 1079:1 1107:1 1166:1 1214:1 1220:1 1228:1 1232:1 1242:1 1247:1 1248:2
-1 671:1 934:1 965:1 1079:1 1107:1 1166:1 1214:1 1220:1 1228:1 1232:1 1242:1 1247:1 1248:2
-1 519:1 1244:1 1248:3
-1 389:1 619:1 790:1 1006:1 1107:1 1184:1 1219:1 1232:1 1248:2
-1 947:1 965:1 1079:1 1107:1 1220:1 1232:1 1245:1 1247:1 1248:3
-1 1107:1 1232:1 1248:2
-1 155:1 191:1 205:1 242:1 259:1 272:1 331:1 333:1 401:1 464:1 496:1 517:1 554:1 580:1 623:1 627:1 671:1 712:1 870:1 934:1 947:1 954:1 960:1 965:1 970:1 1010:1 1014:1 1056:1 1079:1 1107:1 1166:1 1214:1 1216:1 1220:1 1222:1 1228:1 1232:1 1235:1 1241:1 1242:1 1245:1 1246:1 1247:1 1248:2 1250:124
-1 147:1 155:1 191:1 205:1 259:1 273:1 284:1 289:1 331:1 333:1 361:1 362:1 411:1 434:1 438:1 464:1 496:1 498:1 517:1 554:1 580:1 614:1 623:1 627:1 671:1 680:1 712:1 713:1 805:1 812:1 821:1 830:1 846:1 870:1 895:1 905:1 920:1 934:1 945:1 947:1 954:1 960:1 965:1 970:1 979:1 1010:1 1014:1 1056:1 1079:1 1107:1 1166:1 1213:1 1214:1 1216:1 1218:1 1220:1 1221:1 1222:1 1224:1 1228:1 1231:1 1232:1 1235:1 1236:1 1237:1 1240:1 1241:1 1242:1 1245:1 1246:1 1247:1 1248:4 1250:190
-1 333:1 517:1 580:1 623:1 627:1 713:1 1014:1 1107:1 1232:1 1237:1 1248:1
-1 434:1 464:1 496:1 656:1 713:1 846:1 934:1 947:1 965:1 1010:1 1056:1 1079:1 1107:1 1216:1 1220:1 1231:1 1232:1 1235:1 1237:1 1240:1 1241:1 1242:1 1243:1 1245:1 1246:1 1247:1 1248:1
-1 317:1 464:1 496:1 698:1 934:1 947:1 965:1 1010:1 1056:1 1079:1 1107:1 1216:1 1220:1 1230:1 1232:1 1235:1 1241:1 1242:1 1245:1 1246:1 1247:1 1248:3
-1 116:1 346:1 565:1 657:1 827:1 958:1 1107:1 1232:1 1239:1 1248:2
-1 464:1 934:1 965:1 1010:1 1056:1 1079:1 1107:1 1166:1 1216:1 1220:1 1228:1 1232:1 1241:1 1242:1 1246:1 1247:1 1248:4
-1 464:1 934:1 965:1 1010:1 1056:1 1079:1 1107:1 1166:1 1216:1 1220:1 1228:1 1232:1 1241:1 1242:1 1246:1 1247:1 1248:4
-1 163:1 389:1 1107:1 1206:1 1219:1 1232:1 1248:2
-1 464:1 934:2 947:1 965:2 1107:2 1216:1 1220:2 1232:2 1242:2 1245:1 1248:7
-1 389:2 1107:1 1219:2 1232:1 1248:2
-1 410:1 779:1 1107:1 1232:1 1248:2
-1 464:1 934:1 965:1 1010:1 1056:1 1079:1 1107:1 1166:1 1216:1 1220:1 1228:1 1232:1 1241:1 1242:1 1246:1 1247:1 1248:3
-1 1248:3
-1 1107:1 1232:1 1248:2
-1 245:1 307:1 389:1 434:1 449:1 570:1 738:1 965:1 966:1 982:1 987:1 1079:1 1107:1 1219:1 1220:1 1232:1 1233:1 1240:1 1247:1 1248:2
-1 464:1 934:2 947:1 965:2 1107:2 1216:1 1220:2 1232:2 1242:2 1245:1 1248:7
-1 671:1 1107:1 1214:1 1232:1 1248:2
-1 116:1 346:1 389:1 424:1 752:1 965:1 1056:1 1063:1 1079:1 1107:1 1219:1 1220:1 1232:1 1241:1 1247:1 1248:2
-1 389:2 1107:1 1219:2 1232:1 1248:2
-1 245:1 389:1 464:1 653:1 934:1 965:1 1079:1 1107:1 1216:1 1219:1 1220:1 1232:1 1242:1 1247:1 1248:3 1250:39
-1 389:1 464:1 698:1 934:1 965:1 1056:1 1079:1 1107:1 1161:1 1216:1 1219:1 1220:1 1223:1 1230:1 1232:1 1241:1 1242:1 1247:1 1248:4
-1 368:1 870:1 947:1 965:1 1010:1 1107:1 1220:1 1232:1 1245:1 1246:1 1248:2
-1 180:1 1248:2
-1 307:1 389:1 449:1 563:1 570:1 668:1 738:1 966:1 987:1 1219:1 1248:2
-1 245:1 307:1 389:1 405:1 449:1 563:1 570:1 658:1 668:1 738:1 966:1 987:1 1219:1 1248:2
-1 519:1 1244:1 1248:4
-1 389:1 464:1 965:1 1107:1 1216:1 1219:1 1220:1 1232:1 1248:2
-1 259:1 464:1 671:1 698:1 870:1 934:1 947:1 965:1 1010:1 1056:1 1079:1 1107:1 1166:1 1214:1 1216:1 1220:1 1222:1 1228:1 1230:1 1232:1 1241:1 1242:1 1245:1 1246:1 1247:1 1248:5
-1 464:1 934:2 947:1 965:2 1107:2 1216:1 1220:2 1232:2 1242:2 1245:1 1248:7
-1 464:1 934:2 947:1 965:2 1107:2 1216:1 1220:2 1232:2 1242:2 1245:1 1248:7
-1 519:1 1244:1 1248:3
-1 156:1 168:1 232:1 365:1 382:1 656:1 965:1 1056:1 1107:1 1220:1 1232:1 1241:1 1243:1 1248:1
-1 291:1 430:1 464:1 697:1 853:1 965:1 1056:1 1099:1 1107:1 1189:1 1216:1 1220:1 1232:1 1241:1 1248:1
-1 464:1 671:1 934:2 947:1 965:2 1010:1 1056:1 1107:3 1214:1 1216:1 1220:2 1232:3 1241:1 1242:2 1245:1 1246:1 1248:6
-1 519:1 1244:1 1248:4
-1 464:1 934:2 947:1 965:2 1107:2 1216:1 1220:2 1232:2 1242:2 1245:1 1248:7
-1 182:1 347:1 372:1 451:1 464:1 934:1 965:1 1010:1 1056:1 1107:1 1166:1 1193:1 1216:1 1220:1 1228:1 1232:1 1238:1 1241:1 1242:1 1246:1 1248:2
-1 147:1 317:1 434:1 464:1 496:1 554:1 614:1 680:1 698:1 699:1 718:1 846:1 895:1 934:1 947:1 965:1 982:1 1010:1 1056:1 1079:1 1084:1 1107:1 1166:1 1216:1 1218:1 1220:1 1221:1 1224:1 1228:1 1230:1 1231:1 1232:1 1233:1 1235:1 1236:1 1240:1 1241:1 1242:1 1245:1 1246:1 1247:1 1248:1
-1 122:1 361:1 434:1 496:1 554:1 614:1 718:1 771:1 846:1 934:1 947:1 965:1 979:1 1010:1 1056:1 1079:1 1092:1 1107:1 1161:1 1166:1 1220:1 1221:1 1223:1 1226:1 1228:1 1231:1 1232:1 1235:1 1240:1 1241:1 1242:1 1245:1 1246:1 1247:1 1248:1
-1 464:1 934:2 947:1 965:2 1107:2 1216:1 1220:2 1232:2 1242:2 1245:1 1248:7
-1 389:1 1219:1 1248:3
-1 347:1 389:1 464:1 671:1 698:1 882:1 934:1 965:1 1010:1 1056:1 1079:1 1107:1 1214:1 1216:1 1219:1 1220:1 1230:1 1232:1 1238:1 1241:1 1242:1 1246:1 1247:1 1248:4
-1 141:1 162:1 173:1 238:1 245:1 307:1 311:1 341:1 342:1 359:1 381:1 389:1 400:1 405:1 409:1 434:1 449:1 453:1 472:1 556:1 563:1 570:1 607:1 646:1 658:1 668:1 676:1 685:1 691:1 713:1 724:1 732:1 738:1 763:1 791:1 864:1 935:1 951:1 961:1 965:1 966:1 979:1 987:1 1056:1 1067:1 1072:1 1076:1 1077:1 1079:1 1100:1 1130:1 1211:1 1219:1 1220:1 1237:1 1240:1 1241:1 1247:1 1248:2
-1 147:1 389:1 496:1 713:1 934:1 983:1 1107:1 1219:1 1232:1 1235:1 1236:1 1237:1 1242:1 1248:2
-1 188:1 238:1 307:1 389:1 407:1 415:1 439:1 449:1 488:1 542:1 553:1 650:1 713:1 732:1 843:1 987:1 1009:1 1076:1 1101:1 1150:1 1164:1 1219:1 1237:1 1248:2 1250:23
-1 389:1 464:1 934:1 947:1 965:1 1010:1 1056:1 1107:1 1157:1 1216:1 1219:1 1220:1 1232:1 1241:1 1242:1 1245:1 1246:1 1248:2
-1 147:1 304:1 389:1 464:1 653:1 713:1 934:1 965:1 1010:1 1079:1 1107:1 1216:1 1219:1 1220:1 1232:1 1236:1 1237:1 1242:1 1246:1 1247:1 1248:1 1250:39
-1 214:1 245:1 307:1 336:1 389:1 449:1 570:1 738:1 748:1 966:1 987:1 1079:1 1107:1 1219:1 1232:1 1247:1 1248:3
-1 147:1 245:1 389:1 614:1 718:1 934:1 947:1 965:1 1079:1 1107:1 1219:1 1220:1 1221:1 1232:1 1236:1 1242:1 1245:1 1247:1 1248:1
-1 142:1 304:1 343:1 389:1 496:1 563:1 653:1 668:1 934:1 965:1 1010:1 1079:1 1107:1 1219:1 1220:1 1232:1 1235:1 1242:1 1246:1 1247:1 1248:3 1250:39
-1 239:1 389:1 1079:1 1107:1 1219:1 1232:1 1247:1 1248:3
-1 347:1 496:1 554:1 656:1 680:1 699:1 846:1 895:1 934:1 965:1 1010:1 1056:1 1079:1 1084:1 1107:1 1218:1 1220:1 1224:1 1231:1 1232:1 1235:1 1238:1 1241:1 1242:1 1243:1 1246:1 1247:1 1248:2
-1 464:1 934:2 947:1 965:2 1107:2 1216:1 1220:2 1232:2 1242:2 1245:1 1248:7
-1 180:1 1248:1
-1 389:1 934:1 947:2 965:2 1107:4 1219:1 1220:2 1232:4 1242:1 1245:2 1248:5
-1 1107:1 1232:1 1248:2
-1 1107:1 1232:1 1248:2
-1 147:1 434:1 464:1 656:1 934:1 947:1 965:1 1010:1 1056:1 1079:1 1107:1 1166:1 1216:1 1220:1 1228:1 1232:1 1236:1 1240:1 1241:1 1242:1 1243:1 1245:1 1246:1 1247:1 1248:2
-1 389:1 1219:1 1248:3
-1 116:1 317:1 346:1 380:1 464:1 698:1 934:1 947:1 965:1 1010:1 1056:1 1079:1 1107:1 1216:1 1220:1 1230:1 1232:1 1241:1 1242:1 1245:1 1246:1 1247:1 1248:2
-1 147:1 389:1 496:1 713:1 934:1 983:1 1079:1 1107:1 1219:1 1232:1 1235:1 1236:1 1237:1 1242:1 1247:1 1248:2
-1 519:1 1244:1 1248:3
-1 259:1 347:1 464:1 496:1 656:1 671:1 698:1 840:1 870:1 917:1 934:1 947:1 965:1 1010:1 1056:1 1079:1 1107:1 1161:1 1166:1 1214:1 1216:1 1220:1 1222:1 1223:1 1227:1 1228:1 1230:1 1232:1 1235:1 1238:1 1241:1 1242:1 1243:1 1245:1 1246:1 1247:1 1248:1
-1 464:1 698:1 934:2 947:3 965:2 1010:1 1056:1 1079:2 1107:4 1166:1 1216:1 1220:2 1228:1 1230:1 1232:4 1241:1 1242:2 1245:3 1246:1 1247:2 1248:6
-1 347:1 389:2 1107:1 1219:2 1232:1 1238:1 1248:3
-1 1107:1 1232:1 1248:2
-1 1107:1 1232:1 1248:2
-1 1107:1 1232:1 1248:3
-1 519:1 1244:1 1248:3
-1 1107:1 1232:1 1248:3
-1 389:1 1107:1 1219:1 1232:1 1248:3
-1 347:1 389:2 965:1 1010:1 1056:1 1079:1 1107:1 1219:2 1220:1 1232:1 1238:1 1241:1 1246:1 1247:1 1248:2
-1 245:1 254:1 307:1 341:1 389:1 409:1 441:1 449:1 469:1 570:1 646:1 658:1 668:1 738:1 966:1 987:1 1076:1 1101:1 1130:1 1219:1 1248:1 1250:3
-1 1107:1 1232:1 1248:3
-1 142:1 220:1 245:1 307:1 389:1 449:1 497:1 563:1 570:1 668:1 713:1 738:1 934:1 966:1 987:1 1046:1 1107:1 1219:1 1232:1 1237:1 1242:1 1248:1
-1 389:1 464:1 496:1 607:1 656:1 713:1 840:1 965:1 1010:1 1056:1 1079:1 1107:1 1216:1 1219:1 1220:1 1227:1 1232:1 1235:1 1237:1 1241:1 1243:1 1246:1 1247:1 1248:2
-1 267:1 389:1 1010:1 1079:1 1107:1 1219:1 1232:1 1246:1 1247:1 1248:3
-1 267:1 389:1 1010:1 1079:1 1107:1 1219:1 1232:1 1246:1 1247:1 1248:3
-1 214:1 238:1 389:1 412:1 461:1 717:1 732:1 738:1 829:1 890:1 919:1 935:1 1036:1 1072:1 1128:1 1219:1 1248:2
-1 464:1 496:1 532:1 671:1 698:1 934:1 965:1 1010:1 1056:1 1079:1 1107:1 1166:1 1214:1 1216:1 1220:1 1228:1 1230:1 1232:1 1235:1 1241:1 1242:1 1246:1 1247:1 1248:2 1250:69
-1 116:1 135:1 346:1 389:2 1107:1 1167:1 1219:2 1232:1 1248:3
-1 147:1 464:1 934:1 947:1 965:1 1010:1 1056:1 1079:1 1107:1 1166:1 1216:1 1220:1 1228:1 1232:1 1236:1 1241:1 1242:1 1245:1 1246:1 1247:1 1248:3
-1 389:2 698:1 965:1 1107:1 1219:2 1220:1 1230:1 1232:1 1248:2
-1 519:1 1244:1 1248:3
-1 825:1 842:1 846:1 848:1 934:1 1107:1 1231:1 1232:1 1242:1 1248:1
-1 825:1 842:1 846:1 848:1 934:1 1107:1 1231:1 1232:1 1242:1 1248:1
-1 180:1 1248:1
-1 389:2 671:1 698:1 846:1 934:1 947:1 965:1 1010:1 1056:1 1079:1 1107:1 1161:1 1214:1 1219:2 1220:1 1223:1 1230:1 1231:1 1232:1 1241:1 1242:1 1245:1 1246:1 1247:1 1248:2
-1 116:1 135:1 234:1 346:1 389:2 846:1 965:1 1107:1 1167:1 1219:2 1220:1 1231:1 1232:1 1248:2
-1 128:1 382:1 965:1 1000:1 1056:1 1107:1 1220:1 1232:1 1241:1 1248:1 1250:5
-1 214:1 264:1 307:1 389:1 449:1 461:1 570:1 616:1 626:1 713:1 738:1 846:1 934:1 965:1 966:1 987:1 1107:1 1152:1 1219:1 1220:1 1229:1 1231:1 1232:1 1237:1 1242:1 1248:2
-1 119:1 238:1 307:1 341:1 389:1 409:1 449:1 570:1 616:1 646:1 713:1 738:1 921:1 965:1 966:1 987:1 1009:1 1072:1 1076:1 1116:1 1219:1 1220:1 1237:1 1248:2
-1 389:1 713:1 934:1 1107:1 1219:1 1232:1 1237:1 1242:1 1248:1
-1 519:1 1244:1 1248:3
-1 846:1 965:1 1079:1 1107:1 1220:1 1231:1 1232:1 1247:1 1248:2
-1 464:1 934:2 947:1 965:2 1107:2 1216:1 1220:2 1232:2 1242:2 1245:1 1248:7
-1 519:1 1244:1 1248:2
-1 464:1 934:1 965:1 1010:1 1056:1 1079:1 1107:1 1166:1 1216:1 1220:1 1228:1 1232:1 1241:1 1242:1 1246:1 1247:1 1248:2
-1 464:1 934:2 947:2 965:2 1056:1 1107:5 1166:1 1216:1 1220:2 1228:1 1232:5 1241:1 1242:2 1245:2 1248:6
-1 389:1 934:1 1010:1 1107:1 1219:1 1232:1 1242:1 1246:1 1248:1
-1 116:1 273:1 496:1 671:1 680:1 699:1 822:1 846:1 934:1 947:1 958:1 965:1 1010:1 1056:1 1079:1 1107:1 1161:1 1166:1 1214:1 1218:1 1220:1 1223:1 1228:1 1231:1 1232:1 1235:1 1241:1 1242:1 1245:1 1246:1 1247:1 1248:2 1250:59
-1 389:1 611:1 934:1 965:1 979:1 1056:1 1107:1 1219:1 1220:1 1232:1 1241:1 1242:1 1248:1
-1 259:1 464:1 671:1 698:1 870:1 934:1 947:1 965:1 1010:1 1056:1 1079:1 1107:1 1166:1 1214:1 1216:1 1220:1 1222:1 1228:1 1230:1 1232:1 1241:1 1242:1 1245:1 1246:1 1247:1 1248:5
-1 464:1 698:1 934:1 947:1 965:1 1056:1 1079:1 1107:1 1166:1 1216:1 1220:1 1228:1 1230:1 1232:1 1241:1 1242:1 1245:1 1247:1 1248:5
-1 245:1 307:1 389:1 405:1 409:1 433:1 449:1 570:1 732:1 738:1 749:1 935:1 966:1 971:1 987:1 1072:1 1076:1 1219:1 1248:3
-1 519:1 1244:1 1248:4
-1 519:1 1244:1 1248:4
-1 1107:1 1232:1 1248:2
-1 201:1 389:1 934:1 1107:1 1219:1 1232:1 1242:1 1248:3
-1 519:1 1244:1 1248:3
-1 519:1 1244:1 1248:3
-1 464:1 895:1 934:1 947:1 965:1 1010:1 1056:1 1107:1 1216:1 1220:1 1224:1 1232:1 1241:1 1242:1 1245:1 1246:1 1248:1
-1 464:1 698:1 934:2 947:2 965:2 1056:1 1107:5 1166:1 1216:1 1220:2 1228:1 1230:1 1232:5 1241:1 1242:2 1245:2 1248:7
-1 464:1 671:2 698:1 934:1 947:2 965:2 1010:1 1056:1 1107:3 1214:2 1216:1 1220:2 1230:1 1232:3 1241:1 1242:1 1245:2 1246:1 1248:6
-1 1107:1 1232:1 1248:2
-1 464:1 671:1 934:2 947:3 965:2 1010:1 1056:1 1107:4 1166:1 1214:1 1216:1 1220:2 1228:1 1232:4 1241:1 1242:2 1245:3 1246:1 1248:6
-1 464:1 671:1 698:1 934:2 947:3 965:2 1010:1 1056:1 1107:4 1166:1 1214:1 1216:1 1220:2 1228:1 1230:1 1232:4 1241:1 1242:2 1245:3 1246:1 1248:6
-1 147:1 203:1 238:1 245:1 307:1 341:1 389:1 405:1 409:1 449:1 570:1 646:1 676:1 691:1 713:1 732:1 738:1 913:1 935:1 947:1 966:1 987:1 1072:1 1076:1 1101:1 1164:1 1219:1 1225:1 1236:1 1237:1 1245:1 1248:2
-1 212:1 389:1 1107:1 1219:1 1232:1 1248:8
-1 327:1 389:1 594:1 1073:1 1107:1 1219:1 1232:1 1248:6
-1 116:1 389:2 965:1 1056:1 1107:1 1219:2 1220:1 1232:1 1241:1 1248:2
-1 464:1 698:1 934:2 947:2 965:2 1010:1 1056:1 1079:2 1107:3 1216:1 1220:2 1230:1 1232:3 1241:1 1242:2 1245:2 1246:1 1247:2 1248:6
-1 464:1 698:1 934:2 947:2 965:2 1010:1 1056:1 1079:1 1107:4 1216:1 1220:2 1230:1 1232:4 1241:1 1242:2 1245:2 1246:1 1247:1 1248:6
-1 327:1 389:1 594:1 1073:1 1107:1 1219:1 1232:1 1248:6
-1 464:1 698:1 934:1 965:1 1056:1 1107:1 1216:1 1220:1 1230:1 1232:1 1241:1 1242:1 1248:1
-1 307:1 341:1 389:1 409:1 449:1 492:1 570:1 609:1 612:1 650:1 676:1 713:1 732:1 738:1 858:1 935:1 966:1 987:1 1009:1 1072:1 1076:1 1101:1 1219:1 1237:1 1248:2
-1 259:1 464:1 698:1 934:2 947:3 965:2 1010:1 1056:1 1079:3 1107:4 1166:1 1216:1 1220:2 1222:1 1228:1 1230:1 1232:4 1241:1 1242:2 1245:3 1246:1 1247:3 1248:6
-1 307:1 389:1 563:1 658:1 668:1 738:1 934:1 966:1 1079:1 1107:1 1219:1 1232:1 1242:1 1247:1 1248:2
-1 519:1 1244:1 1248:3
-1 519:1 1244:1 1248:4
-1 519:1 1244:1 1248:3
-1 519:1 1244:1 1248:3
-1 519:1 1244:1 1248:3
-1 519:1 1244:1 1248:3
-1 519:1 1244:1 1248:3
-1 245:1 304:1 389:1 563:1 658:1 668:1 934:1 965:1 1107:1 1161:1 1219:1 1220:1 1223:1 1232:1 1242:1 1248:3
-1 965:1 1010:1 1056:1 1079:1 1107:1 1220:1 1232:1 1241:1 1246:1 1247:1 1248:1
-1 434:1 688:1 771:1 895:1 965:1 1010:1 1056:1 1079:1 1107:1 1220:1 1224:1 1226:1 1232:1 1240:1 1241:1 1246:1 1247:1 1248:2 1250:2
-1 180:1 1248:1
-1 464:1 934:1 965:1 1010:1 1056:1 1079:1 1107:1 1166:1 1216:1 1220:1 1228:1 1232:1 1241:1 1242:1 1246:1 1247:1 1248:3
-1 389:1 671:1 965:1 1056:1 1107:1 1214:1 1219:1 1220:1 1232:1 1241:1 1248:2
-1 389:1 1107:1 1219:1 1232:1 1248:2
-1 347:1 389:1 464:1 698:1 934:1 965:1 1010:1 1056:1 1079:1 1107:1 1216:1 1219:1 1220:1 1230:1 1232:1 1238:1 1241:1 1242:1 1246:1 1247:1 1248:2
-1 389:1 965:1 1056:1 1107:1 1219:1 1220:1 1232:1 1241:1 1248:2
-1 519:1 1244:1 1248:2
-1 162:1 238:1 307:1 353:1 359:1 389:1 405:1 449:1 570:1 676:1 685:1 732:1 738:1 913:1 966:1 987:1 1009:1 1030:1 1076:1 1116:1 1128:1 1130:1 1219:1 1248:3
-1 163:1 278:1 329:1 389:1 896:1 947:1 965:1 1079:1 1107:1 1219:1 1220:1 1232:1 1245:1 1247:1 1248:2
-1 163:1 380:1 389:1 464:1 965:1 1010:1 1056:1 1107:1 1216:1 1219:1 1220:1 1232:1 1241:1 1246:1 1248:3
-1 519:1 1244:1 1248:3
-1 389:1 934:1 965:1 1079:1 1107:1 1219:1 1220:1 1232:1 1242:1 1247:1 1248:3
-1 1107:1 1232:1 1248:1
-1 464:1 846:1 965:1 1056:1 1079:1 1107:1 1216:1 1220:1 1231:1 1232:1 1241:1 1247:1 1248:2
-1 327:1 389:2 602:1 1107:1 1219:2 1232:1 1248:5
-1 347:1 1107:1 1232:1 1238:1 1248:2
-1 193:1 327:1 389:2 602:1 1079:1 1107:1 1219:2 1232:1 1247:1 1248:5
-1 464:1 671:1 934:1 965:1 1056:1 1079:1 1107:1 1214:1 1216:1 1220:1 1232:1 1241:1 1242:1 1247:1 1248:2
-1 389:2 1107:1 1219:2 1232:1 1248:2
-1 147:1 434:1 464:1 496:1 558:1 614:1 656:1 934:1 947:1 965:1 982:1 1010:1 1056:1 1107:1 1152:1 1216:1 1220:1 1221:1 1232:1 1233:1 1235:1 1236:1 1240:1 1241:1 1242:1 1243:1 1245:1 1246:1 1248:1
-1 832:1 1248:3
-1 193:1 209:1 327:1 389:2 602:1 1107:1 1219:2 1232:1 1248:6
-1 430:1 1107:1 1232:1 1248:2
-1 519:1 1244:1 1248:4
-1 671:1 779:1 1107:1 1214:1 1232:1 1248:2
-1 464:1 934:2 947:1 965:2 1107:2 1216:1 1220:2 1232:2 1242:2 1245:1 1248:7
-1 150:1 156:1 158:1 168:1 232:1 365:1 382:1 468:1 493:1 549:1 644:1 656:1 661:1 689:1 833:1 910:1 962:1 965:1 1010:1 1012:1 1023:1 1056:1 1059:1 1107:1 1220:1 1232:1 1241:1 1243:1 1246:1 1248:1
-1 779:1 1107:1 1232:1 1248:2
-1 389:2 834:1 1107:1 1219:2 1232:1 1248:2
-1 464:1 934:2 947:1 965:2 1107:2 1216:1 1220:2 1232:2 1242:2 1245:1 1248:6
-1 259:1 464:1 671:1 698:1 934:2 947:3 965:2 1010:1 1056:1 1079:3 1107:7 1166:1 1214:1 1216:1 1220:2 1222:1 1228:1 1230:1 1232:7 1241:1 1242:2 1245:3 1246:1 1247:3 1248:6
-1 519:1 1244:1 1248:4
-1 671:1 934:1 965:1 1107:1 1214:1 1220:1 1232:1 1242:1 1248:3
-1 671:1 934:1 965:1 1107:1 1214:1 1220:1 1232:1 1242:1 1248:3
-1 317:1 464:1 496:1 698:1 870:1 934:1 947:1 965:1 1010:1 1056:1 1079:1 1107:1 1166:1 1216:1 1220:1 1228:1 1230:1 1232:1 1235:1 1241:1 1242:1 1245:1 1246:1 1247:1 1248:1
-1 180:1 1248:1
-1 126:1 151:1 238:1 307:1 341:1 389:1 400:1 409:1 449:1 556:1 570:1 646:1 676:1 691:1 705:1 738:1 966:1 987:1 1009:1 1072:1 1076:1 1101:1 1183:1 1219:1 1248:2
-1 147:1 389:1 417:1 434:1 688:1 713:1 895:1 898:1 911:1 934:1 947:1 965:1 979:1 1010:1 1056:1 1084:1 1107:1 1204:1 1219:1 1220:1 1224:1 1232:1 1236:1 1237:1 1240:1 1241:1 1242:1 1245:1 1246:1 1248:2
-1 147:1 362:1 389:1 417:1 434:1 464:1 490:1 688:1 713:1 911:1 934:1 947:1 965:1 979:1 1010:1 1056:1 1079:1 1084:1 1107:1 1152:1 1153:1 1166:1 1204:1 1216:1 1217:1 1219:1 1220:1 1228:1 1232:1 1236:1 1237:1 1240:1 1241:1 1242:1 1245:1 1246:1 1247:1 1248:1
-1 464:1 934:1 965:1 1056:1 1079:1 1107:1 1216:1 1220:1 1232:1 1241:1 1242:1 1247:1 1248:3
-1 389:2 1107:1 1219:2 1232:1 1248:2
-1 519:1 1244:1 1248:3
-1 519:1 1244:1 1248:2
-1 1107:1 1232:1 1248:1
-1 389:1 745:1 965:1 1107:1 1219:1 1220:1 1232:1 1248:2
-1 245:1 307:1 389:1 449:1 563:1 570:1 738:1 934:1 966:1 987:1 1107:1 1116:1 1219:1 1232:1 1242:1 1248:3
-1 519:1 1244:1 1248:3
-1 245:1 307:1 389:1 449:1 464:1 570:1 738:1 773:1 934:1 965:1 966:1 987:1 1010:1 1056:1 1107:1 1216:1 1219:1 1220:1 1232:1 1241:1 1242:1 1246:1 1248:1
-1 180:1 1248:1
-1 519:1 1244:1 1248:3
-1 519:1 1244:1 1248:3
-1 307:1 389:1 449:1 492:1 570:1 632:1 650:1 713:1 725:1 738:1 846:1 935:1 966:1 987:1 1072:1 1076:1 1128:1 1219:1 1231:1 1237:1 1248:2
-1 301:1 389:1 413:1 464:1 496:1 568:1 603:1 656:1 671:1 688:1 713:1 768:1 870:1 934:1 947:1 965:1 1010:1 1056:1 1079:1 1107:1 1214:1 1216:1 1219:1 1220:1 1232:1 1235:1 1237:1 1241:1 1242:1 1243:1 1245:1 1246:1 1247:1 1248:1
-1 389:1 713:1 745:1 965:1 1107:1 1219:1 1220:1 1232:1 1237:1 1248:1
-1 238:1 389:1 713:1 965:1 1107:1 1219:1 1220:1 1232:1 1237:1 1248:2
-1 519:1 1244:1 1248:3
-1 389:1 713:1 934:1 965:1 1107:1 1219:1 1220:1 1232:1 1237:1 1242:1 1248:1
-1 307:1 389:1 409:1 713:1 863:1 883:1 966:1 987:1 1094:1 1219:1 1237:1 1248:2
-1 389:1 713:1 863:1 934:1 965:1 1094:1 1107:1 1219:1 1220:1 1232:1 1237:1 1242:1 1248:2
-1 389:1 464:1 934:1 947:1 965:1 1010:1 1056:1 1107:1 1157:1 1216:1 1219:1 1220:1 1232:1 1241:1 1242:1 1245:1 1246:1 1248:2
-1 1107:1 1232:1 1248:1
-1 389:1 496:1 713:1 846:1 965:1 1107:1 1166:1 1219:1 1220:1 1228:1 1231:1 1232:1 1235:1 1237:1 1248:2
-1 486:1 554:1 671:1 680:1 718:1 934:1 965:1 1079:1 1107:1 1166:1 1214:1 1218:1 1220:1 1228:1 1232:1 1242:1 1247:1 1248:3 1250:2
-1 464:1 671:1 698:1 934:1 947:1 965:1 1010:1 1056:1 1079:1 1107:1 1111:1 1166:1 1214:1 1216:1 1220:1 1228:1 1230:1 1232:1 1241:1 1242:1 1245:1 1246:1 1247:1 1248:5
-1 519:1 1244:1 1248:3
-1 254:1 389:1 563:1 658:1 668:1 713:1 934:1 947:1 965:1 1010:1 1079:1 1107:1 1209:1 1219:1 1220:1 1232:1 1237:1 1242:1 1245:1 1246:1 1247:1 1248:1
-1 254:1 389:1 563:1 658:1 668:1 713:1 934:1 947:1 965:1 1010:1 1079:1 1107:1 1209:1 1219:1 1220:1 1232:1 1237:1 1242:1 1245:1 1246:1 1247:1 1248:1
-1 245:1 254:1 307:1 389:1 405:1 441:1 449:1 570:1 658:1 668:1 738:1 966:1 987:1 1010:1 1076:1 1101:1 1107:1 1130:1 1219:1 1232:1 1246:1 1248:1 1250:3
-1 147:1 262:1 300:1 389:1 434:1 490:1 607:1 713:1 934:1 965:1 1107:1 1154:1 1219:1 1220:1 1232:1 1236:1 1237:1 1240:1 1242:1 1248:3
-1 389:1 846:1 934:1 1025:1 1107:1 1219:1 1231:1 1232:1 1242:1 1248:1
-1 327:1 389:1 594:1 1073:1 1107:1 1219:1 1232:1 1248:6
-1 389:1 957:1 1028:1 1107:1 1219:1 1232:1 1248:3
-1 271:1 305:1 464:1 663:1 698:1 965:1 1056:1 1107:1 1166:1 1216:1 1220:1 1228:1 1230:1 1232:1 1241:1 1248:2 1250:2
-1 389:1 965:1 1064:1 1107:1 1219:1 1220:1 1232:1 1248:2
-1 519:1 1244:1 1248:4
-1 317:1 464:1 698:1 934:2 947:3 965:2 1010:1 1056:1 1079:1 1107:5 1166:1 1216:1 1220:2 1228:1 1230:1 1232:5 1241:1 1242:2 1245:3 1246:1 1247:1 1248:6
-1 464:1 934:2 947:3 965:2 1010:1 1056:1 1079:2 1107:5 1166:1 1216:1 1220:2 1228:1 1232:5 1241:1 1242:2 1245:3 1246:1 1247:2 1248:6
-1 238:1 245:1 307:1 341:1 389:1 400:1 405:1 409:1 449:1 464:1 496:1 570:1 646:1 676:1 713:1 738:1 925:1 947:1 965:1 966:1 987:1 1009:1 1010:1 1056:1 1072:1 1076:1 1079:1 1101:1 1107:1 1216:1 1219:1 1220:1 1232:1 1235:1 1237:1 1241:1 1245:1 1246:1 1247:1 1248:2
-1 163:1 389:1 965:1 1079:1 1107:1 1219:1 1220:1 1232:1 1247:1 1248:3
-1 464:1 934:2 947:2 965:2 1010:1 1056:1 1079:2 1107:4 1166:1 1216:1 1220:2 1228:1 1232:4 1241:1 1242:2 1245:2 1246:1 1247:2 1248:6
-1 519:1 1244:1 1248:3
-1 389:1 965:1 1107:1 1219:1 1220:1 1232:1 1248:2
-1 116:1 135:1 199:1 223:1 346:1 827:1 875:1 977:1 1107:1 1192:1 1232:1 1248:1
-1 389:1 496:1 713:1 846:1 934:1 965:1 1107:1 1166:1 1219:1 1220:1 1228:1 1231:1 1232:1 1235:1 1237:1 1242:1 1248:2
-1 464:1 934:1 947:1 965:1 1107:1 1216:1 1220:1 1232:1 1242:1 1245:1 1248:5
-1 147:1 238:1 245:1 279:1 307:1 339:1 341:1 389:1 400:1 405:1 409:1 417:1 434:1 449:1 488:1 541:1 563:1 570:1 583:1 607:1 646:1 668:1 676:1 685:1 691:1 713:1 732:1 738:1 787:1 791:1 864:1 935:1 947:1 966:1 987:1 1009:1 1030:1 1042:1 1072:1 1076:1 1101:1 1130:1 1164:1 1219:1 1236:1 1237:1 1240:1 1245:1 1248:3
-1 464:1 671:1 698:1 934:1 965:1 1010:1 1056:1 1079:1 1107:1 1214:1 1216:1 1220:1 1230:1 1232:1 1241:1 1242:1 1246:1 1247:1 1248:4
-1 464:1 934:1 965:1 1010:1 1056:1 1079:1 1107:1 1166:1 1216:1 1220:1 1228:1 1232:1 1241:1 1242:1 1246:1 1247:1 1248:2
-1 389:1 934:1 965:1 1079:1 1107:1 1219:1 1220:1 1232:1 1242:1 1247:1 1248:3
-1 162:1 238:1 245:1 307:1 341:1 389:1 405:1 409:1 449:1 563:1 570:1 646:1 658:1 668:1 685:1 738:1 966:1 987:1 1076:1 1078:1 1128:1 1130:1 1219:1 1248:2
-1 245:1 307:1 389:1 449:1 496:1 570:1 668:1 713:1 738:1 840:1 934:1 965:1 966:1 987:1 1009:1 1072:1 1107:1 1219:1 1220:1 1227:1 1232:1 1235:1 1237:1 1242:1 1248:2
-1 162:1 238:1 245:1 304:1 307:1 341:1 354:1 389:1 405:1 409:1 449:1 496:1 563:1 570:1 646:1 658:1 668:1 685:1 713:1 738:1 947:1 965:1 966:1 987:1 1009:1 1010:1 1030:1 1072:1 1076:1 1101:1 1128:1 1130:1 1219:1 1220:1 1235:1 1237:1 1245:1 1246:1 1248:3
-1 389:1 1107:1 1219:1 1232:1 1248:2
-1 389:2 1107:1 1219:2 1232:1 1248:2
-1 389:1 464:1 507:1 698:1 934:1 965:1 1010:1 1024:1 1056:1 1079:1 1107:1 1166:1 1216:1 1219:1 1220:1 1228:1 1230:1 1232:1 1241:1 1242:1 1246:1 1247:1 1248:1
-1 389:1 464:1 934:1 965:1 1056:1 1107:1 1153:1 1166:1 1216:1 1217:1 1219:1 1220:1 1228:1 1232:1 1241:1 1242:1 1248:2
-1 124:1 238:1 292:1 307:1 341:1 389:1 400:1 409:1 449:1 469:1 492:1 541:1 556:1 570:1 650:1 676:1 691:1 713:1 732:1 738:1 899:1 966:1 987:1 1009:1 1030:1 1072:1 1076:1 1101:1 1128:1 1164:1 1197:1 1219:1 1237:1 1248:2
-1 183:1 238:1 307:1 341:1 389:1 409:1 449:1 570:1 650:1 676:1 738:1 966:1 987:1 1009:1 1030:1 1072:1 1101:1 1128:1 1219:1 1248:3
-1 389:1 464:1 680:1 851:1 934:1 965:1 1024:1 1107:1 1153:1 1180:1 1216:1 1217:1 1218:1 1219:1 1220:1 1232:1 1242:1 1248:2
-1 389:2 934:1 1107:1 1219:2 1232:1 1242:1 1248:4
-1 305:1 847:1 965:1 1107:1 1195:1 1220:1 1232:1 1248:3 1250:2
-1 317:1 496:1 554:1 698:1 857:1 934:1 947:1 965:1 979:1 1010:1 1056:1 1079:1 1107:1 1220:1 1230:1 1232:1 1235:1 1241:1 1242:1 1245:1 1246:1 1247:1 1248:1
-1 464:1 539:1 965:1 1079:1 1107:1 1216:1 1220:1 1232:1 1247:1 1248:2
-1 317:1 380:1 464:1 698:1 934:1 947:1 965:1 979:1 1010:1 1056:1 1107:1 1216:1 1220:1 1230:1 1232:1 1241:1 1242:1 1245:1 1246:1 1248:2
-1 519:1 1244:1 1248:3
-1 389:1 965:1 1024:1 1056:1 1107:1 1219:1 1220:1 1232:1 1241:1 1248:2
-1 464:1 934:1 965:1 1010:1 1056:1 1079:1 1107:1 1166:1 1216:1 1220:1 1228:1 1232:1 1241:1 1242:1 1246:1 1247:1 1248:3
-1 389:1 934:1 965:1 1010:1 1024:1 1079:1 1107:1 1166:1 1219:1 1220:1 1228:1 1232:1 1242:1 1246:1 1247:1 1248:1
-1 180:1 1248:1
-1 193:1 209:1 327:1 389:2 464:1 602:1 813:1 965:1 978:1 1079:1 1107:1 1172:1 1216:1 1219:2 1220:1 1232:1 1247:1 1248:5 1250:35
-1 374:1 464:1 626:1 671:1 698:1 934:1 947:1 965:1 1010:1 1056:1 1079:1 1107:1 1166:1 1214:1 1216:1 1220:1 1228:1 1229:1 1230:1 1232:1 1241:1 1242:1 1245:1 1246:1 1247:1 1248:5
-1 389:1 464:1 713:1 934:1 965:1 1107:1 1166:1 1199:1 1216:1 1219:1 1220:1 1228:1 1232:1 1237:1 1242:1 1248:2
-1 389:2 1107:1 1219:2 1232:1 1248:3
-1 389:2 1107:1 1219:2 1232:1 1248:2
-1 116:1 346:1 657:1 1107:1 1232:1 1248:2
-1 116:1 346:1 389:2 965:1 1056:1 1107:1 1162:1 1219:2 1220:1 1232:1 1241:1 1248:2
-1 389:1 501:1 1107:1 1219:1 1232:1 1248:3
-1 180:1 1248:1
-1 180:1 1248:1
-1 519:1 1244:1 1248:3
-1 293:31 389:2 464:1 698:1 934:1 947:1 965:1 1010:1 1056:1 1079:1 1107:1 1216:1 1219:2 1220:1 1230:1 1232:1 1241:1 1242:1 1245:1 1246:1 1247:1 1248:2
-1 238:1 307:1 341:1 389:1 409:1 449:1 570:1 612:1 650:1 676:1 705:1 713:1 732:1 738:1 951:1 966:1 987:1 1009:1 1072:1 1076:1 1101:1 1164:1 1219:1 1237:1 1248:1
-1 519:1 1244:1 1248:3
-1 389:1 496:1 713:1 934:1 947:1 1010:1 1107:1 1219:1 1232:1 1235:1 1237:1 1242:1 1245:1 1246:1 1248:1
-1 389:1 713:1 1094:1 1107:1 1219:1 1232:1 1237:1 1248:2
-1 163:1 389:1 965:1 1107:1 1219:1 1220:1 1232:1 1248:2
-1 245:1 713:1 1079:1 1107:1 1232:1 1237:1 1247:1 1248:1
-1 698:1 965:1 1107:1 1220:1 1230:1 1232:1 1248:4
-1 203:1 278:1 389:1 464:1 496:1 698:1 934:1 947:1 965:1 1010:1 1056:1 1079:1 1107:1 1166:1 1216:1 1219:1 1220:1 1225:1 1228:1 1230:1 1232:1 1235:1 1241:1 1242:1 1245:1 1246:1 1247:1 1248:2
-1 380:1 464:1 565:1 698:1 702:1 934:1 965:1 1010:1 1056:1 1079:1 1107:1 1166:1 1216:1 1220:1 1228:1 1230:1 1232:1 1234:1 1239:1 1241:1 1242:1 1246:1 1247:1 1248:2
-1 307:1 389:1 449:1 496:1 570:1 738:1 965:1 966:1 987:1 1056:1 1107:1 1219:1 1220:1 1232:1 1235:1 1241:1 1248:2
-1 245:1 307:1 389:1 449:1 570:1 738:1 947:1 966:1 987:1 1107:1 1219:1 1232:1 1245:1 1248:2
-1 519:1 1244:1 1248:2
-1 389:2 1107:1 1219:2 1232:1 1248:2
-1 389:2 1107:1 1219:2 1232:1 1248:2
-1 464:1 934:3 947:1 965:2 1107:4 1216:1 1220:2 1232:4 1242:3 1245:1 1248:4
-1 1107:1 1232:1 1248:2
-1 519:1 1244:1 1248:3
-1 519:1 1244:1 1248:2
-1 214:1 307:1 389:1 409:1 434:1 449:1 496:1 570:1 614:1 646:1 713:1 718:1 738:1 889:1 934:1 947:1 965:1 966:1 982:1 987:1 1010:1 1079:1 1107:1 1219:1 1220:1 1221:1 1232:1 1233:1 1235:1 1237:1 1240:1 1242:1 1245:1 1246:1 1247:1 1248:1
-1 519:1 1244:1 1248:3
-1 1107:1 1232:1 1248:1
-1 307:1 389:1 405:1 409:1 449:1 469:1 570:1 713:1 738:1 966:1 987:1 1009:1 1219:1 1237:1 1248:2
-1 464:1 934:1 965:1 1010:1 1056:1 1079:1 1107:1 1216:1 1220:1 1232:1 1241:1 1242:1 1246:1 1247:1 1248:2
-1 519:1 1244:1 1248:3
-1 519:1 1244:1 1248:3
-1 221:1 238:1 245:1 259:1 307:1 341:1 359:1 389:1 405:1 409:1 427:1 434:1 449:1 461:1 464:1 469:1 563:1 570:1 614:1 646:1 668:1 676:1 685:1 691:1 705:1 713:1 716:1 718:1 732:1 738:1 859:1 935:1 965:1 966:1 987:1 1009:1 1056:1 1072:1 1076:1 1128:1 1216:1 1219:1 1220:1 1221:1 1222:1 1237:1 1240:1 1241:1 1248:3
-1 519:1 1244:1 1248:3
-1 389:1 1107:1 1219:1 1232:1 1248:5
-1 519:1 1244:1 1248:2
-1 245:1 307:1 389:1 449:1 496:1 570:1 738:1 934:1 965:1 966:1 987:1 1079:1 1107:1 1219:1 1220:1 1232:1 1235:1 1242:1 1247:1 1248:2
-1 519:1 1244:1 1248:4
-1 389:1 1007:1 1219:1 1248:1
-1 389:1 698:1 965:1 1107:1 1219:1 1220:1 1230:1 1232:1 1248:2
-1 1010:1 1107:1 1232:1 1246:1 1248:2
-1 347:1 934:1 947:1 965:1 1056:1 1107:1 1220:1 1232:1 1238:1 1241:1 1242:1 1245:1 1248:2
-1 259:1 464:1 934:1 947:1 965:1 1010:1 1056:1 1079:1 1107:1 1166:1 1216:1 1220:1 1222:1 1228:1 1232:1 1241:1 1242:1 1245:1 1246:1 1247:1 1248:4
-1 389:1 464:1 671:1 698:1 768:1 895:1 934:1 965:1 1010:1 1056:1 1079:1 1107:1 1214:1 1216:1 1219:1 1220:1 1224:1 1230:1 1232:1 1241:1 1242:1 1246:1 1247:1 1248:2
-1 464:1 698:1 934:3 947:3 965:2 1010:1 1056:1 1079:2 1107:5 1166:1 1216:1 1220:2 1228:1 1230:1 1232:5 1241:1 1242:3 1245:3 1246:1 1247:2 1248:6
-1 464:1 496:1 626:1 671:1 698:1 846:1 934:1 965:1 1056:1 1079:1 1107:1 1214:1 1216:1 1220:1 1229:1 1230:1 1231:1 1232:1 1235:1 1241:1 1242:1 1247:1 1248:2
-1 464:1 496:1 626:1 671:1 698:1 846:1 934:1 965:1 1056:1 1079:1 1107:1 1152:1 1214:1 1216:1 1220:1 1229:1 1230:1 1231:1 1232:1 1235:1 1241:1 1242:1 1247:1 1248:2
-1 389:1 934:1 965:1 1107:1 1219:1 1220:1 1232:1 1242:1 1248:2
-1 698:1 934:1 965:1 1056:1 1107:1 1166:1 1220:1 1228:1 1230:1 1232:1 1241:1 1242:1 1248:2
-1 168:1 382:1 656:1 965:1 1056:1 1107:1 1220:1 1232:1 1241:1 1243:1 1248:1
-1 180:1 1248:1
-1 147:1 382:1 464:1 496:1 565:1 656:1 698:1 895:1 914:1 934:1 947:1 965:1 1010:1 1056:1 1079:1 1107:1 1138:1 1166:1 1216:1 1220:1 1224:1 1228:1 1230:1 1232:1 1235:1 1236:1 1239:1 1241:1 1242:1 1243:1 1245:1 1246:1 1247:1 1248:1
-1 519:1 1244:1 1248:3
-1 934:1 965:1 1056:1 1079:1 1107:1 1220:1 1232:1 1241:1 1242:1 1247:1 1248:2
-1 1107:1 1232:1 1248:1
-1 464:1 671:1 698:1 934:2 947:2 965:2 1056:1 1107:4 1214:1 1216:1 1220:2 1230:1 1232:4 1241:1 1242:2 1245:2 1248:6
-1 389:2 1107:1 1219:2 1232:1 1248:2
-1 278:1 329:1 347:1 389:1 671:1 768:1 934:1 965:1 1010:1 1056:1 1107:1 1214:1 1219:1 1220:1 1232:1 1238:1 1241:1 1242:1 1246:1 1248:3 1250:9
-1 163:1 389:1 965:1 1107:1 1219:1 1220:1 1232:1 1248:2
-1 464:1 934:2 947:1 965:2 1107:2 1216:1 1220:2 1232:2 1242:2 1245:1 1248:6
-1 496:1 671:1 934:1 947:1 965:1 1010:1 1056:1 1079:1 1107:1 1166:1 1214:1 1220:1 1228:1 1232:1 1235:1 1241:1 1242:1 1245:1 1246:1 1247:1 1248:2
-1 888:1 965:1 1107:1 1220:1 1232:1 1248:2
-1 116:1 671:1 846:1 934:1 947:1 965:1 1010:1 1056:1 1079:1 1107:1 1161:1 1214:1 1220:1 1223:1 1231:1 1232:1 1241:1 1242:1 1245:1 1246:1 1247:1 1248:2 1250:40
-1 191:1 331:1 333:1 464:1 496:1 517:1 580:1 623:1 627:1 712:1 895:1 920:1 934:1 945:1 954:1 965:1 970:1 1014:1 1056:1 1079:1 1107:1 1216:1 1220:1 1224:1 1232:1 1235:1 1241:1 1242:1 1247:1 1248:2
-1 519:1 1244:1 1248:3
-1 389:1 698:1 794:1 957:1 965:1 1056:1 1107:1 1219:1 1220:1 1230:1 1232:1 1241:1 1248:2
-1 389:1 698:1 957:1 965:1 1056:1 1107:1 1219:1 1220:1 1230:1 1232:1 1241:1 1248:2
-1 389:1 698:1 957:1 965:1 1056:1 1107:1 1219:1 1220:1 1230:1 1232:1 1241:1 1248:2
-1 1107:1 1232:1 1248:2
-1 464:1 934:1 965:1 1010:1 1056:1 1079:1 1107:1 1166:1 1216:1 1220:1 1228:1 1232:1 1241:1 1242:1 1246:1 1247:1 1248:2
-1 180:1 1248:1
-1 464:1 626:1 698:1 934:2 947:1 965:2 1010:1 1056:1 1079:1 1107:3 1166:1 1216:1 1220:2 1228:1 1229:1 1230:1 1232:3 1241:1 1242:2 1245:1 1246:1 1247:1 1248:6
-1 163:1 389:1 965:1 1107:1 1219:1 1220:1 1232:1 1248:3
-1 245:1 307:1 389:1 449:1 496:1 563:1 570:1 658:1 668:1 713:1 732:1 738:1 934:1 947:1 965:1 966:1 987:1 1072:1 1101:1 1107:1 1219:1 1220:1 1232:1 1235:1 1237:1 1242:1 1245:1 1248:3
-1 147:1 297:1 307:1 389:1 434:1 449:1 464:1 559:1 570:1 698:1 713:1 738:1 859:1 934:1 965:1 966:1 987:1 1056:1 1079:1 1107:1 1216:1 1219:1 1220:1 1230:1 1232:1 1236:1 1237:1 1240:1 1241:1 1242:1 1247:1 1248:2
-1 168:1 232:1 365:1 382:1 395:1 464:1 656:1 698:1 934:1 965:1 1056:1 1079:1 1107:1 1216:1 1220:1 1230:1 1232:1 1241:1 1242:1 1243:1 1247:1 1248:1
-1 496:1 554:1 733:1 934:1 947:1 965:1 1010:1 1107:1 1220:1 1232:1 1235:1 1242:1 1245:1 1246:1 1248:2
-1 389:1 934:1 947:1 965:1 1010:1 1107:1 1166:1 1219:1 1220:1 1228:1 1232:1 1242:1 1245:1 1246:1 1248:1 1250:1
-1 327:1 389:1 594:1 1073:1 1107:1 1219:1 1232:1 1248:6
-1 519:1 1244:1 1248:5
-1 116:1 244:1 278:1 346:1 347:1 389:1 464:1 671:1 698:1 702:1 768:1 934:1 965:1 1010:1 1056:1 1079:1 1107:1 1214:1 1216:1 1219:1 1220:1 1230:1 1232:1 1234:1 1238:1 1241:1 1242:1 1246:1 1247:1 1248:2 1250:61
-1 464:1 934:1 965:1 1010:1 1056:1 1079:1 1107:1 1166:1 1216:1 1220:1 1228:1 1232:1 1241:1 1242:1 1246:1 1247:1 1248:3
-1 713:1 778:1 1237:1 1248:2
-1 713:1 1107:1 1232:1 1237:1 1248:1
-1 389:1 464:1 698:1 934:1 947:1 965:1 1010:1 1056:1 1079:1 1107:1 1216:1 1219:1 1220:1 1230:1 1232:1 1241:1 1242:1 1245:1 1246:1 1247:1 1248:4
-1 389:1 859:1 1107:1 1219:1 1232:1 1248:2
-1 698:1 934:1 965:1 1056:1 1107:1 1220:1 1230:1 1232:1 1241:1 1242:1 1248:1
-1 519:1 1244:1 1248:3
-1 245:1 307:1 389:1 449:1 464:1 570:1 713:1 738:1 840:1 870:1 934:1 947:1 965:1 966:1 979:1 980:1 987:1 1010:1 1056:1 1107:1 1216:1 1219:1 1220:1 1227:1 1232:1 1237:1 1241:1 1242:1 1245:1 1246:1 1248:1
-1 389:1 934:1 947:1 965:1 1010:1 1107:1 1219:1 1220:1 1232:1 1242:1 1245:1 1246:1 1248:2
-1 174:1 1107:1 1232:1 1248:2
-1 389:1 965:1 1107:1 1219:1 1220:1 1232:1 1248:4
-1 347:1 389:2 846:1 1107:1 1219:2 1231:1 1232:1 1238:1 1248:3
-1 965:1 1010:1 1107:1 1111:1 1220:1 1232:1 1246:1 1248:2
-1 965:1 1010:1 1107:1 1111:1 1220:1 1232:1 1246:1 1248:2
-1 389:1 619:1 790:1 965:1 1107:1 1181:1 1184:1 1219:1 1220:1 1232:1 1248:3
-1 116:1 346:1 389:1 817:1 1107:1 1219:1 1232:1 1248:2
-1 347:1 934:1 1107:1 1232:1 1238:1 1242:1 1248:2
-1 733:1 934:1 1107:1 1232:1 1242:1 1248:1
-1 347:1 389:2 1107:1 1219:2 1232:1 1238:1 1248:3
-1 347:1 464:1 626:1 934:2 947:2 965:2 1010:1 1056:1 1079:1 1107:4 1166:1 1216:1 1220:2 1228:1 1229:1 1232:4 1238:1 1241:1 1242:2 1245:2 1246:1 1247:1 1248:6
-1 347:1 464:1 698:1 934:2 947:2 965:2 1056:1 1107:4 1166:1 1216:1 1220:2 1228:1 1230:1 1232:4 1238:1 1241:1 1242:2 1245:2 1248:6
-1 147:1 203:1 259:1 273:1 434:1 464:1 496:1 554:1 656:1 671:1 688:1 699:1 846:1 895:1 934:1 947:1 965:1 982:1 1010:1 1056:1 1079:1 1107:1 1166:1 1214:1 1216:1 1220:1 1222:1 1224:1 1225:1 1228:1 1231:1 1232:1 1233:1 1235:1 1236:1 1240:1 1241:1 1242:1 1243:1 1245:1 1246:1 1247:1 1248:2
-1 519:1 1244:1 1248:3
-1 519:1 1244:1 1248:2
-1 135:1 874:1 934:1 947:2 965:2 1107:4 1220:2 1232:4 1242:1 1245:2 1248:5
-1 116:2 346:1 464:1 698:1 934:2 947:3 965:2 1010:1 1056:1 1107:4 1166:1 1216:1 1220:2 1228:1 1230:1 1232:4 1241:1 1242:2 1245:3 1246:1 1248:6
-1 116:1 135:1 346:1 657:1 815:1 1107:1 1232:1 1248:4
-1 464:1 934:1 965:1 1010:1 1056:1 1079:1 1107:1 1216:1 1220:1 1232:1 1241:1 1242:1 1246:1 1247:1 1248:2
-1 147:1 162:1 238:1 252:1 307:1 389:1 405:1 409:1 449:1 570:1 732:1 738:1 913:1 935:1 966:1 987:1 1072:1 1076:1 1101:1 1219:1 1236:1 1248:2
-1 389:1 1107:1 1219:1 1232:1 1248:5
-1 389:2 1107:1 1219:2 1232:1 1248:3
-1 519:1 1244:1 1248:4
-1 180:1 1248:1
-1 141:1 151:1 162:1 170:1 172:1 238:1 245:1 307:1 338:1 341:1 353:1 389:1 405:1 409:1 433:1 449:1 563:1 570:1 646:1 658:1 668:1 676:1 685:1 696:1 713:1 732:1 738:1 749:1 759:1 864:1 942:1 951:1 961:1 965:1 966:1 980:1 987:1 1067:1 1072:1 1076:1 1078:1 1128:1 1130:1 1142:1 1169:1 1219:1 1220:1 1237:1 1248:3
-1 238:1 307:1 341:1 389:1 409:1 449:1 570:1 646:1 738:1 966:1 987:1 1076:1 1128:1 1219:1 1248:2
-1 519:1 1244:1 1248:2
-1 464:1 626:1 698:1 846:1 934:1 965:1 1056:1 1079:1 1107:1 1216:1 1220:1 1229:1 1230:1 1231:1 1232:1 1241:1 1242:1 1247:1 1248:1
-1 180:1 1248:1
-1 464:1 934:2 947:1 965:2 1107:2 1216:1 1220:2 1232:2 1242:2 1245:1 1248:7
-1 245:1 389:1 464:1 656:1 713:1 934:1 947:1 965:1 1039:1 1056:1 1079:1 1096:1 1107:1 1216:1 1219:1 1220:1 1232:1 1237:1 1241:1 1242:1 1243:1 1245:1 1247:1 1248:2
-1 464:1 934:1 965:1 1010:1 1056:1 1079:1 1107:1 1166:1 1216:1 1220:1 1228:1 1232:1 1241:1 1242:1 1246:1 1247:1 1248:3
-1 180:1 1248:1
-1 1248:3
-1 389:1 713:1 965:1 1107:1 1219:1 1220:1 1232:1 1237:1 1248:2
-1 389:1 464:1 496:1 614:1 671:1 698:1 699:1 840:1 846:1 934:1 965:1 983:1 1010:1 1056:1 1079:1 1107:1 1214:1 1216:1 1219:1 1220:1 1221:1 1227:1 1230:1 1231:1 1232:1 1235:1 1241:1 1242:1 1246:1 1247:1 1248:4
-1 519:1 1244:1 1248:3
-1 464:1 934:2 947:2 965:2 1056:1 1079:1 1107:4 1166:1 1216:1 1220:2 1228:1 1232:4 1241:1 1242:2 1245:2 1247:1 1248:6
-1 389:1 1010:1 1107:1 1174:1 1219:1 1232:1 1246:1 1248:1
-1 189:1 922:1 947:1 1010:1 1245:1 1246:1 1248:2
-1 389:2 1107:1 1219:2 1232:1 1248:5
-1 934:1 965:1 1079:1 1107:1 1220:1 1232:1 1242:1 1247:1 1248:3
-1 519:1 1244:1 1248:2
-1 120:1 238:1 245:1 266:1 268:1 292:1 307:1 341:1 389:1 409:1 449:1 491:1 570:1 650:1 676:1 685:1 713:1 738:1 913:1 935:1 966:1 987:1 1009:1 1072:1 1076:1 1164:1 1219:1 1237:1 1248:3
-1 464:1 934:1 965:1 1010:1 1056:1 1079:1 1107:1 1166:1 1216:1 1220:1 1228:1 1232:1 1241:1 1242:1 1246:1 1247:1 1248:3
-1 519:1 1244:1 1248:3
-1 116:3 259:1 464:1 626:1 698:1 934:2 947:3 965:2 1010:2 1056:1 1079:1 1107:5 1161:1 1166:1 1216:1 1220:2 1222:1 1223:1 1228:1 1229:1 1230:1 1232:5 1241:1 1242:2 1245:3 1246:2 1247:1 1248:6
-1 519:1 1244:1 1248:3
-1 1055:1 1107:1 1232:1 1248:3
-1 116:1 346:1 657:1 841:1 984:1 1107:1 1232:1 1248:1
-1 116:1 346:1 657:1 841:1 1107:1 1232:1 1248:1
-1 116:1 346:1 657:1 841:1 984:1 1107:1 1232:1 1248:1
-1 139:1 430:1 481:1 839:1 853:1 965:1 1057:1 1107:1 1220:1 1232:1 1248:1
-1 180:1 1248:1
-1 1107:1 1232:1 1248:2
-1 337:1 389:2 505:1 619:1 790:1 1006:1 1107:1 1151:1 1184:1 1219:2 1232:1 1248:2
-1 698:1 934:1 965:1 1056:1 1079:1 1107:1 1220:1 1230:1 1232:1 1241:1 1242:1 1247:1 1248:1
-1 779:1 1107:1 1232:1 1248:3
-1 779:1 1107:1 1232:1 1248:3
-1 779:1 1107:1 1232:1 1248:3
-1 779:1 1107:1 1232:1 1248:3
-1 370:1 603:1 776:1 934:1 965:1 1056:1 1107:1 1220:1 1232:1 1241:1 1242:1 1248:2
-1 347:1 464:1 698:1 934:2 947:2 965:3 1010:1 1056:1 1079:2 1107:5 1161:1 1166:1 1172:1 1216:1 1220:3 1223:1 1228:1 1230:1 1232:5 1238:1 1241:1 1242:2 1245:2 1246:1 1247:2 1248:6
-1 389:1 496:1 965:1 1079:1 1107:1 1219:1 1220:1 1232:1 1235:1 1247:1 1248:6
-1 124:1 151:1 214:1 238:1 245:1 266:1 292:1 297:1 307:1 334:1 341:1 389:1 400:1 405:1 409:1 434:1 449:1 469:1 491:1 563:1 570:1 598:1 607:1 609:1 646:1 676:1 685:1 691:1 705:1 713:1 732:1 738:1 791:1 889:1 913:1 921:1 933:1 947:1 966:1 972:1 987:1 1009:1 1067:1 1072:1 1076:1 1090:1 1101:1 1128:1 1141:1 1164:1 1219:1 1237:1 1240:1 1245:1 1248:2
-1 307:1 389:1 409:1 449:1 570:1 676:1 705:1 713:1 732:1 738:1 966:1 987:1 1009:1 1076:1 1079:1 1107:1 1219:1 1232:1 1237:1 1247:1 1248:2
-1 162:1 238:1 245:1 274:1 275:1 307:1 341:1 389:1 392:1 400:1 405:1 409:1 449:1 469:1 492:1 536:1 563:1 570:1 612:1 646:1 658:1 668:1 676:1 713:1 732:1 738:1 947:1 966:1 987:1 1009:1 1029:1 1030:1 1072:1 1076:1 1101:1 1128:1 1219:1 1237:1 1245:1 1248:2
-1 245:1 263:1 307:1 389:1 449:1 496:1 570:1 738:1 934:1 987:1 1107:1 1219:1 1232:1 1235:1 1242:1 1248:1
-1 307:1 389:1 449:1 570:1 738:1 965:1 966:1 987:1 1107:1 1219:1 1220:1 1232:1 1248:3
-1 180:1 1248:1
-1 464:1 934:1 965:1 1010:1 1056:1 1079:1 1107:1 1166:1 1216:1 1220:1 1228:1 1232:1 1241:1 1242:1 1246:1 1247:1 1248:3
-1 519:1 1244:1 1248:3
-1 389:1 713:1 934:1 947:1 965:1 979:1 1010:1 1107:1 1219:1 1220:1 1232:1 1237:1 1242:1 1245:1 1246:1 1248:2
-1 1107:1 1232:1 1248:1
-1 120:1 245:1 389:1 464:1 713:1 934:1 947:1 965:1 1056:1 1079:1 1107:1 1216:1 1219:1 1220:1 1232:1 1237:1 1241:1 1242:1 1245:1 1247:1 1248:1
-1 519:1 1244:1 1248:2
-1 389:1 934:1 1107:1 1219:1 1232:1 1242:1 1248:3
-1 317:1 380:1 464:1 671:1 698:1 934:1 947:1 965:1 1010:1 1056:1 1107:1 1193:1 1214:1 1216:1 1220:1 1230:1 1232:1 1241:1 1242:1 1245:1 1246:1 1248:2
-1 317:1 380:1 464:1 671:1 698:1 934:1 947:1 965:1 1010:1 1056:1 1107:1 1193:1 1214:1 1216:1 1220:1 1230:1 1232:1 1241:1 1242:1 1245:1 1246:1 1248:2
-1 162:1 164:1 238:1 245:1 268:1 307:1 328:1 409:1 449:1 570:1 623:1 646:1 676:1 685:1 720:1 727:1 732:1 738:1 829:1 947:1 966:1 987:1 1043:1 1072:1 1076:1 1101:1 1164:1 1169:1 1245:1 1248:1
-1 197:1 389:1 934:1 965:1 1056:1 1079:1 1107:1 1219:1 1220:1 1232:1 1241:1 1242:1 1247:1 1248:2
-1 197:1 464:1 671:1 934:2 947:2 965:2 1056:1 1107:4 1166:1 1214:1 1216:1 1220:2 1228:1 1232:4 1241:1 1242:2 1245:2 1248:6
-1 163:1 278:1 389:1 464:1 934:1 965:1 1056:1 1079:1 1107:1 1216:1 1219:1 1220:1 1232:1 1241:1 1242:1 1247:1 1248:2
-1 347:1 464:1 934:2 947:2 965:2 1056:1 1079:1 1107:4 1216:1 1220:2 1232:4 1238:1 1241:1 1242:2 1245:2 1247:1 1248:6
-1 1107:1 1232:1 1248:1
-1 1107:1 1232:1 1248:2
-1 519:1 1244:1 1248:3
-1 832:1 1248:2
-1 347:1 389:2 464:1 698:1 934:1 965:1 1010:1 1056:1 1079:1 1107:1 1216:1 1219:2 1220:1 1230:1 1232:1 1238:1 1241:1 1242:1 1246:1 1247:1 1248:2
-1 389:1 1107:1 1219:1 1232:1 1248:2
-1 147:1 464:1 496:1 698:1 925:1 934:1 947:1 965:1 1010:1 1056:1 1079:1 1107:1 1153:1 1166:1 1216:1 1217:1 1220:1 1228:1 1230:1 1232:1 1235:1 1236:1 1241:1 1242:1 1245:1 1246:1 1247:1 1248:2
-1 464:1 698:1 934:1 947:1 965:1 1010:1 1056:1 1079:1 1107:1 1166:1 1216:1 1220:1 1228:1 1230:1 1232:1 1241:1 1242:1 1245:1 1246:1 1247:1 1248:1
-1 147:1 245:1 389:1 934:1 965:1 1107:1 1166:1 1219:1 1220:1 1228:1 1232:1 1236:1 1242:1 1248:1
-1 238:1 268:1 341:1 409:1 449:1 570:1 623:1 646:1 650:1 676:1 713:1 727:1 738:1 966:1 987:1 1009:1 1076:1 1133:1 1164:1 1237:1 1248:2
-1 245:1 389:1 713:1 846:1 934:1 965:1 1107:1 1166:1 1219:1 1220:1 1228:1 1231:1 1232:1 1237:1 1242:1 1248:1 1250:3
-1 147:1 238:1 245:1 307:1 389:1 405:1 409:1 434:1 449:1 488:1 563:1 570:1 676:1 713:1 738:1 921:1 966:1 987:1 1009:1 1076:1 1164:1 1219:1 1236:1 1237:1 1240:1 1248:1
-1 464:1 698:1 934:1 947:1 965:1 1010:1 1056:1 1079:1 1107:1 1216:1 1220:1 1230:1 1232:1 1241:1 1242:1 1245:1 1246:1 1247:1 1248:1
-1 519:1 1244:1 1248:4
-1 389:1 394:1 527:1 709:1 713:1 717:1 777:1 947:1 1036:1 1131:1 1219:1 1237:1 1245:1 1248:1
-1 190:1 235:1 290:1 307:1 375:1 389:1 415:1 419:1 449:1 452:1 524:1 542:1 585:1 651:1 686:1 713:1 852:1 930:1 947:1 1017:1 1027:1 1037:1 1076:1 1101:1 1169:1 1219:1 1237:1 1245:1 1248:1
-1 170:1 201:1 238:1 245:1 266:1 307:1 389:1 409:1 449:1 570:1 646:1 650:1 676:1 691:1 705:1 713:1 738:1 876:1 935:1 947:1 956:1 966:1 987:1 1009:1 1030:1 1072:1 1076:1 1101:1 1130:1 1141:1 1142:1 1219:1 1237:1 1245:1 1248:2
-1 519:1 1244:1 1248:3
-1 389:1 619:1 1107:1 1219:1 1232:1 1248:2
-1 519:1 1244:1 1248:3
-1 162:1 245:1 304:1 307:1 341:1 343:1 389:1 405:1 409:1 449:1 453:1 464:1 496:1 563:1 570:1 646:1 658:1 668:1 685:1 713:1 716:1 738:1 840:1 907:1 933:1 934:1 965:1 966:1 987:1 1009:1 1030:1 1056:1 1072:1 1076:1 1078:1 1107:1 1161:1 1216:1 1219:1 1220:1 1223:1 1227:1 1232:1 1235:1 1237:1 1241:1 1242:1 1248:3
-1 519:1 1244:1 1248:3
-1 519:1 1244:1 1248:3
-1 519:1 1244:1 1248:3
-1 389:1 464:1 934:1 965:1 1107:1 1216:1 1219:1 1220:1 1232:1 1242:1 1248:2
-1 1107:1 1232:1 1248:1
-1 244:1 464:1 565:1 671:1 698:1 702:1 934:1 958:1 965:1 1010:1 1056:1 1079:1 1107:1 1214:1 1216:1 1220:1 1230:1 1232:1 1234:1 1239:1 1241:1 1242:1 1246:1 1247:1 1248:2 1250:2
-1 389:1 934:1 965:1 1079:1 1107:1 1219:1 1220:1 1232:1 1242:1 1247:1 1248:3
-1 464:1 934:3 947:1 965:2 1107:4 1216:1 1220:2 1232:4 1242:3 1245:1 1248:4
-1 147:1 238:1 266:1 297:1 307:1 341:1 389:1 409:1 449:1 570:1 598:1 650:1 676:1 713:1 720:1 738:1 829:1 913:1 966:1 987:1 1009:1 1069:1 1072:1 1076:1 1090:1 1098:1 1128:1 1219:1 1236:1 1237:1 1248:2
-1 389:1 957:1 1028:1 1107:1 1219:1 1232:1 1248:3
-1 327:1 389:1 594:1 1073:1 1107:1 1219:1 1232:1 1248:6
-1 327:1 389:1 594:1 1073:1 1107:1 1219:1 1232:1 1248:6
-1 327:1 389:1 594:1 1073:1 1107:1 1219:1 1232:1 1248:5
-1 327:1 389:1 594:1 1073:1 1107:1 1219:1 1232:1 1248:5
-1 389:2 619:1 790:1 983:1 1107:1 1184:1 1219:2 1232:1 1248:2
-1 245:1 268:1 409:1 449:1 570:1 587:1 623:1 646:1 713:1 727:1 738:1 966:1 987:1 1237:1 1248:2
-1 245:1 268:1 409:1 449:1 570:1 587:1 623:1 646:1 713:1 727:1 738:1 966:1 987:1 1237:1 1248:2
-1 389:1 1107:1 1219:1 1232:1 1248:6
-1 519:1 1244:1 1248:3
-1 238:1 245:1 275:1 307:1 328:1 341:1 389:1 392:1 405:1 409:1 417:1 434:1 449:1 536:1 563:1 570:1 646:1 668:1 676:1 732:1 738:1 935:1 947:1 966:1 987:1 1009:1 1030:1 1072:1 1076:1 1128:1 1183:1 1219:1 1240:1 1245:1 1248:2
-1 160:1 238:1 245:1 307:1 341:1 389:1 392:1 405:1 449:1 469:1 536:1 570:1 676:1 705:1 734:1 738:1 893:1 947:1 966:1 987:1 1009:1 1030:1 1072:1 1076:1 1101:1 1128:1 1219:1 1245:1 1248:2
-1 238:1 245:1 264:1 307:1 341:1 389:1 405:1 409:1 434:1 449:1 563:1 570:1 646:1 668:1 676:1 680:1 713:1 732:1 738:1 864:1 907:1 966:1 972:1 987:1 1030:1 1076:1 1101:1 1128:1 1133:1 1174:1 1218:1 1219:1 1237:1 1240:1 1248:2
-1 147:1 245:1 304:1 307:1 389:1 392:1 449:1 487:1 570:1 738:1 965:1 966:1 987:1 1009:1 1072:1 1076:1 1116:1 1219:1 1220:1 1236:1 1248:2
-1 147:1 245:1 275:1 307:1 389:1 392:1 405:1 449:1 469:1 536:1 563:1 570:1 668:1 676:1 738:1 893:1 947:1 966:1 987:1 1009:1 1029:1 1072:1 1076:1 1210:1 1219:1 1236:1 1245:1 1248:2
-1 519:1 1244:1 1248:3
-1 519:1 1244:1 1248:2
-1 238:1 307:1 389:1 409:1 449:1 570:1 676:1 699:1 713:1 738:1 966:1 987:1 1009:1 1072:1 1219:1 1237:1 1248:2
-1 519:1 1244:1 1248:3
-1 327:1 389:2 594:1 664:1 825:1 872:1 931:1 934:1 1107:1 1219:2 1232:1 1242:1 1248:4
-1 965:1 1107:1 1220:1 1232:1 1248:2
-1 519:1 1244:1 1248:3
-1 519:1 1244:1 1248:3
-1 519:1 1244:1 1248:3
-1 389:1 713:1 1094:1 1107:1 1219:1 1232:1 1237:1 1248:2
-1 147:1 464:1 496:1 934:1 947:1 965:1 1079:1 1107:1 1153:1 1166:1 1216:1 1217:1 1220:1 1228:1 1232:1 1235:1 1236:1 1242:1 1245:1 1247:1 1248:1 1250:3
-1 464:1 934:1 965:1 1056:1 1107:1 1166:1 1216:1 1220:1 1228:1 1232:1 1241:1 1242:1 1248:2
-1 203:1 464:1 496:1 934:1 947:1 965:1 1010:1 1056:1 1107:1 1216:1 1220:1 1225:1 1232:1 1235:1 1241:1 1242:1 1245:1 1246:1 1248:1
-1 519:1 1244:1 1248:3
-1 1107:1 1232:1 1248:1
-1 245:1 297:1 304:1 307:1 389:1 434:1 449:1 464:1 559:1 570:1 738:1 934:1 965:1 966:1 987:1 1010:1 1079:1 1107:1 1216:1 1219:1 1220:1 1232:1 1240:1 1242:1 1246:1 1247:1 1248:2
-1 245:1 307:1 389:1 449:1 496:1 570:1 738:1 965:1 966:1 987:1 1010:1 1079:1 1219:1 1220:1 1235:1 1246:1 1247:1 1248:3
-1 389:1 1107:1 1219:1 1232:1 1248:2 1250:1
-1 389:1 1107:1 1219:1 1232:1 1248:2 1250:1
-1 116:1 346:1 464:1 496:1 671:1 698:1 870:1 934:1 947:1 965:1 1010:1 1056:1 1079:1 1107:1 1214:1 1216:1 1220:1 1230:1 1232:1 1235:1 1241:1 1242:1 1245:1 1246:1 1247:1 1248:2
-1 116:1 346:1 464:1 496:1 671:1 698:1 870:1 934:1 947:1 965:1 1010:1 1056:1 1079:1 1107:1 1214:1 1216:1 1220:1 1230:1 1232:1 1235:1 1241:1 1242:1 1245:1 1246:1 1247:1 1248:3
-1 135:1 389:1 418:1 965:1 1107:1 1219:1 1220:1 1232:1 1248:3
-1 464:1 934:3 947:1 965:2 1107:4 1216:1 1220:2 1232:4 1242:3 1245:1 1248:4
-1 245:1 297:1 307:1 352:1 389:1 449:1 461:1 496:1 499:1 570:1 626:1 713:1 738:1 846:1 947:1 965:1 966:1 987:1 1072:1 1107:1 1166:1 1219:1 1220:1 1228:1 1229:1 1231:1 1232:1 1235:1 1237:1 1245:1 1248:2
-1 382:1 464:1 496:1 656:1 914:1 934:1 947:1 965:1 1010:1 1056:1 1079:1 1107:1 1138:1 1166:1 1216:1 1220:1 1228:1 1232:1 1235:1 1241:1 1242:1 1243:1 1245:1 1246:1 1247:1 1248:1
-1 464:1 656:1 698:1 846:1 934:1 965:1 1056:1 1079:1 1107:1 1216:1 1220:1 1230:1 1231:1 1232:1 1241:1 1242:1 1243:1 1247:1 1248:1
-1 464:1 934:1 965:1 1010:1 1056:1 1079:1 1107:1 1166:1 1216:1 1220:1 1228:1 1232:1 1241:1 1242:1 1246:1 1247:1 1248:2
-1 464:1 698:1 934:2 947:2 965:2 1010:1 1056:1 1079:2 1107:4 1166:1 1216:1 1220:2 1228:1 1230:1 1232:4 1241:1 1242:2 1245:2 1246:1 1247:2 1248:6
-1 464:1 934:2 947:1 965:2 1107:2 1216:1 1220:2 1232:2 1242:2 1245:1 1248:7
-1 519:1 1244:1 1248:3
-1 238:1 292:1 307:1 389:1 400:1 409:1 449:1 570:1 646:1 650:1 676:1 691:1 713:1 732:1 738:1 791:1 966:1 987:1 1009:1 1076:1 1101:1 1128:1 1169:1 1219:1 1237:1 1248:2
-1 201:1 238:1 276:1 307:1 389:1 449:1 570:1 705:1 713:1 732:1 738:1 966:1 979:1 987:1 1076:1 1101:1 1107:1 1219:1 1232:1 1237:1 1248:2
-1 519:1 1244:1 1248:3
-1 519:1 1244:1 1248:2
-1 464:1 934:3 947:2 965:2 1107:4 1216:1 1220:2 1232:4 1242:3 1245:2 1248:6
-1 180:1 1248:3
-1 180:1 1248:2
-1 180:1 1248:2
-1 180:1 1248:2
-1 180:1 1248:2
-1 180:1 1248:2
-1 180:1 1248:1
-1 180:1 1248:1
-1 180:1 1248:2
-1 180:1 1248:1
-1 180:1 1248:1
-1 180:1 1248:1
-1 245:1 307:1 389:1 449:1 496:1 563:1 570:1 668:1 738:1 934:1 965:1 966:1 979:1 987:1 1107:1 1219:1 1220:1 1232:1 1235:1 1242:1 1248:3
-1 147:1 245:1 275:1 297:1 307:1 389:1 417:1 434:1 449:1 497:1 570:1 607:1 646:1 668:1 680:1 688:1 718:1 738:1 895:1 934:1 947:1 965:1 966:1 987:1 1010:1 1056:1 1084:1 1090:1 1098:1 1107:1 1218:1 1219:1 1220:1 1224:1 1232:1 1236:1 1240:1 1241:1 1242:1 1245:1 1246:1 1248:1
-1 307:1 389:1 405:1 449:1 570:1 738:1 893:1 966:1 987:1 1076:1 1219:1 1248:2
-1 317:1 464:1 496:1 698:1 934:1 947:1 965:1 1010:1 1056:1 1107:1 1216:1 1220:1 1230:1 1232:1 1235:1 1241:1 1242:1 1245:1 1246:1 1248:1
-1 519:1 1244:1 1248:4
-1 519:1 1244:1 1248:3
-1 347:1 389:2 1107:1 1219:2 1232:1 1238:1 1248:3
-1 389:2 1107:1 1219:2 1232:1 1248:2
-1 245:1 307:1 341:1 389:1 409:1 449:1 570:1 646:1 705:1 713:1 738:1 913:1 966:1 987:1 1076:1 1219:1 1237:1 1248:1
-1 192:1 779:1 871:1 1107:1 1232:1 1248:2
-1 464:1 934:2 947:1 965:2 1107:2 1216:1 1220:2 1232:2 1242:2 1245:1 1248:7
-1 389:1 413:1 496:1 656:1 690:1 698:1 840:1 874:1 896:1 934:1 947:1 965:1 1010:1 1056:1 1079:1 1107:1 1219:1 1220:1 1227:1 1230:1 1232:1 1235:1 1241:1 1242:1 1243:1 1245:1 1246:1 1247:1 1248:1 1250:43
-1 934:1 965:1 1056:1 1079:1 1107:1 1220:1 1232:1 1241:1 1242:1 1247:1 1248:2
-1 389:1 934:1 1107:1 1219:1 1232:1 1242:1 1248:2
-1 571:1 743:1 932:1 965:1 975:1 1107:1 1220:1 1232:1 1248:2
-1 147:1 203:1 389:1 464:1 496:1 870:1 895:1 934:1 947:1 965:1 1010:1 1056:1 1079:1 1107:1 1166:1 1216:1 1219:1 1220:1 1224:1 1225:1 1228:1 1232:1 1235:1 1236:1 1241:1 1242:1 1245:1 1246:1 1247:1 1248:3
-1 238:1 282:1 307:1 389:1 409:1 416:1 449:1 491:1 570:1 646:1 713:1 732:1 738:1 749:1 867:1 883:1 936:1 961:1 966:1 987:1 1030:1 1042:1 1076:1 1117:1 1128:1 1219:1 1237:1 1248:2
-1 389:1 934:1 947:1 965:1 1010:1 1079:1 1107:1 1219:1 1220:1 1232:1 1242:1 1245:1 1246:1 1247:1 1248:2
-1 464:1 698:1 934:1 947:1 965:1 1010:1 1056:1 1079:1 1107:1 1166:1 1216:1 1220:1 1228:1 1230:1 1232:1 1241:1 1242:1 1245:1 1246:1 1247:1 1248:2
-1 151:1 245:1 307:1 389:1 409:1 449:1 492:1 570:1 607:1 616:1 676:1 691:1 713:1 738:1 774:1 934:1 965:1 966:1 987:1 1009:1 1030:1 1076:1 1079:1 1101:1 1107:1 1128:1 1137:1 1166:1 1219:1 1220:1 1228:1 1232:1 1237:1 1242:1 1247:1 1248:3
-1 464:1 934:1 965:1 1056:1 1107:1 1166:1 1216:1 1220:1 1228:1 1232:1 1241:1 1242:1 1248:2
-1 464:1 934:1 965:1 1056:1 1107:1 1166:1 1216:1 1220:1 1228:1 1232:1 1241:1 1242:1 1248:2
-1 464:1 698:1 934:1 947:1 965:1 1010:1 1079:1 1107:1 1216:1 1220:1 1230:1 1232:1 1242:1 1245:1 1246:1 1247:1 1248:1
-1 519:1 1244:1 1248:3
-1 464:1 934:2 947:1 965:2 1107:2 1216:1 1220:2 1232:2 1242:2 1245:1 1248:7
-1 147:1 389:1 434:1 447:1 453:1 496:1 656:1 713:1 771:1 934:1 947:1 965:1 982:1 1010:1 1056:1 1079:1 1107:1 1174:1 1219:1 1220:1 1226:1 1232:1 1233:1 1235:1 1236:1 1237:1 1240:1 1241:1 1242:1 1243:1 1245:1 1246:1 1247:1 1248:1
-1 389:1 934:1 965:1 1079:1 1107:1 1219:1 1220:1 1232:1 1242:1 1247:1 1248:4
-1 699:1 779:1 950:1 1107:1 1232:1 1248:3
-1 281:1 699:1 779:1 1107:1 1232:1 1248:3
-1 464:1 934:2 947:2 965:2 1056:1 1107:5 1166:1 1216:1 1220:2 1228:1 1232:5 1241:1 1242:2 1245:2 1248:6
-1 464:1 934:1 965:1 1079:1 1107:1 1216:1 1220:1 1232:1 1242:1 1247:1 1248:1
-1 823:1 1107:1 1232:1 1248:1
-1 245:1 389:1 934:1 965:1 1107:1 1219:1 1220:1 1232:1 1242:1 1248:2
-1 389:2 434:1 654:1 846:1 934:1 950:1 965:1 1056:1 1107:1 1219:2 1220:1 1231:1 1232:1 1240:1 1241:1 1242:1 1248:4 1250:5590
-1 464:1 934:2 947:1 965:2 1107:2 1216:1 1220:2 1232:2 1242:2 1245:1 1248:7
-1 389:1 934:1 965:1 1079:1 1107:1 1219:1 1220:1 1232:1 1242:1 1247:1 1248:4
-1 304:1 343:1 354:1 389:1 464:1 713:1 870:1 934:1 965:1 1010:1 1079:1 1107:1 1216:1 1219:1 1220:1 1232:1 1237:1 1242:1 1246:1 1247:1 1248:2
-1 133:1 147:1 238:1 245:1 297:1 307:1 389:1 420:1 449:1 559:1 570:1 676:1 713:1 732:1 738:1 856:1 934:1 965:1 966:1 987:1 1030:1 1072:1 1107:1 1219:1 1220:1 1232:1 1236:1 1237:1 1242:1 1248:3
-1 181:1 245:1 296:1 307:1 389:1 449:1 570:1 738:1 966:1 987:1 1076:1 1078:1 1219:1 1248:2
-1 464:1 934:1 965:1 1010:1 1056:1 1079:1 1107:1 1166:1 1216:1 1220:1 1228:1 1232:1 1241:1 1242:1 1246:1 1247:1 1248:3
-1 382:1 464:1 496:1 808:1 934:1 947:1 965:1 983:1 1010:1 1056:1 1107:1 1216:1 1220:1 1232:1 1235:1 1241:1 1242:1 1245:1 1246:1 1248:2
-1 430:1 1004:1 1107:1 1145:1 1179:1 1232:1 1248:2
-1 430:1 464:1 496:1 934:1 947:1 965:1 1004:1 1010:1 1056:1 1079:1 1107:1 1145:1 1166:1 1179:1 1216:1 1220:1 1228:1 1232:1 1235:1 1241:1 1242:1 1245:1 1246:1 1247:1 1248:1
-1 519:1 1244:1 1248:4
-1 519:1 1244:1 1248:2
-1 519:1 1244:1 1248:3
-1 519:1 1244:1 1248:2
-1 519:1 1244:1 1248:3
-1 464:1 934:2 947:1 965:2 1107:2 1216:1 1220:2 1232:2 1242:2 1245:1 1248:7
-1 519:1 1244:1 1248:3
-1 464:1 934:1 965:1 1010:1 1056:1 1079:1 1107:1 1166:1 1216:1 1220:1 1228:1 1232:1 1241:1 1242:1 1246:1 1247:1 1248:3
-1 519:1 1244:1 1248:2
-1 519:1 1244:1 1248:2
-1 519:1 1244:1 1248:2
-1 519:1 1244:1 1248:2
-1 116:1 218:1 531:1 912:1 1107:1 1232:1 1248:3 1250:66
-1 116:1 494:1 888:1 1080:1 1107:1 1232:1 1248:1 1250:66
-1 519:1 1244:1 1248:2
-1 147:1 238:1 245:1 275:1 297:1 307:1 341:1 389:1 392:1 405:1 409:1 449:1 461:1 570:1 632:1 646:1 676:1 691:1 732:1 738:1 898:1 907:1 935:1 947:1 966:1 1030:1 1072:1 1076:1 1098:1 1101:1 1164:1 1219:1 1236:1 1245:1 1248:2
-1 245:1 268:1 307:1 341:1 409:1 449:1 563:1 570:1 623:1 646:1 658:1 668:1 727:1 738:1 966:1 987:1 1076:1 1128:1 1130:1 1248:2
-1 496:1 698:1 699:1 895:1 934:1 947:1 965:1 1056:1 1079:1 1107:1 1220:1 1224:1 1230:1 1232:1 1235:1 1241:1 1242:1 1245:1 1247:1 1248:1
-1 464:1 934:3 947:1 965:2 1107:4 1216:1 1220:2 1232:4 1242:3 1245:1 1248:5
-1 934:1 965:1 1107:1 1220:1 1232:1 1242:1 1248:1
-1 464:1 934:1 965:1 1056:1 1079:1 1107:1 1216:1 1220:1 1232:1 1241:1 1242:1 1247:1 1248:1
-1 464:1 934:1 965:1 1056:1 1079:1 1107:1 1216:1 1220:1 1232:1 1241:1 1242:1 1247:1 1248:1
-1 934:1 965:1 1079:1 1107:1 1220:1 1232:1 1242:1 1247:1 1248:1
-1 934:1 965:1 1079:1 1107:1 1220:1 1232:1 1242:1 1247:1 1248:1
-1 317:1 374:1 496:1 626:1 698:1 702:1 934:1 947:1 965:1 979:1 982:1 1010:1 1056:1 1079:1 1096:1 1107:1 1166:1 1220:1 1228:1 1229:1 1230:1 1232:1 1233:1 1234:1 1235:1 1241:1 1242:1 1245:1 1246:1 1247:1 1248:1
-1 317:1 374:1 496:1 626:1 698:1 702:1 934:1 947:1 965:1 979:1 982:1 1010:1 1056:1 1079:1 1096:1 1107:1 1166:1 1220:1 1228:1 1229:1 1230:1 1232:1 1233:1 1234:1 1235:1 1241:1 1242:1 1245:1 1246:1 1247:1 1248:1
-1 116:1 389:1 657:1 1107:1 1219:1 1232:1 1248:3
-1 698:1 934:1 965:1 1056:1 1107:1 1220:1 1230:1 1232:1 1241:1 1242:1 1248:1
-1 307:1 389:1 434:1 449:1 570:1 608:1 713:1 738:1 934:1 966:1 987:1 1079:1 1107:1 1154:1 1219:1 1232:1 1237:1 1240:1 1242:1 1247:1 1248:2
-1 496:1 934:1 947:1 965:1 1010:1 1056:1 1079:1 1107:1 1220:1 1232:1 1235:1 1241:1 1242:1 1245:1 1246:1 1247:1 1248:1
-1 389:1 496:1 519:1 934:1 947:1 1010:1 1107:1 1219:1 1232:1 1235:1 1242:1 1244:1 1245:1 1246:1 1248:3
-1 389:1 434:1 464:1 713:1 840:1 934:1 947:1 965:1 1010:1 1056:1 1079:1 1107:1 1216:1 1219:1 1220:1 1227:1 1232:1 1237:1 1240:1 1241:1 1242:1 1245:1 1246:1 1247:1 1248:2 1250:1
-1 116:1 346:1 389:1 464:1 965:1 1056:1 1107:1 1216:1 1219:1 1220:1 1232:1 1241:1 1248:3
-1 389:1 965:1 1107:1 1219:1 1220:1 1232:1 1248:5
-1 317:1 380:1 464:1 698:1 934:1 947:1 965:1 1010:1 1056:1 1107:1 1216:1 1220:1 1230:1 1232:1 1241:1 1242:1 1245:1 1246:1 1248:2
-1 464:1 700:1 965:1 1079:1 1107:1 1216:1 1220:1 1232:1 1247:1 1248:2
-1 347:1 934:1 965:1 1056:1 1079:1 1107:1 1220:1 1232:1 1238:1 1241:1 1242:1 1247:1 1248:2
-1 259:1 464:1 671:1 698:1 794:1 934:2 947:3 965:2 1010:2 1056:1 1079:2 1107:6 1161:1 1166:1 1214:1 1216:1 1220:2 1222:1 1223:1 1228:1 1230:1 1232:6 1241:1 1242:2 1245:3 1246:2 1247:2 1248:5
-1 389:1 713:1 887:1 934:1 1107:1 1219:1 1232:1 1237:1 1242:1 1248:2
-1 389:1 563:1 614:1 668:1 688:1 713:1 934:1 947:1 965:1 1010:1 1107:1 1219:1 1220:1 1221:1 1232:1 1237:1 1242:1 1245:1 1246:1 1248:2
-1 519:1 1244:1 1248:3
-1 389:2 800:1 1107:1 1219:2 1232:1 1248:2
-1 519:1 1244:1 1248:3
-1 519:1 1244:1 1248:3
-1 519:1 1244:1 1248:3
-1 317:1 380:1 464:1 698:1 895:1 934:1 947:1 965:1 1010:1 1056:1 1079:1 1107:1 1216:1 1220:1 1224:1 1230:1 1232:1 1241:1 1242:1 1245:1 1246:1 1247:1 1248:2
-1 180:1 1248:1
-1 443:1 464:1 496:1 656:1 671:1 699:1 718:1 846:1 934:1 947:1 965:1 1010:1 1056:1 1062:1 1079:1 1107:1 1166:1 1214:1 1216:1 1220:1 1228:1 1231:1 1232:1 1235:1 1241:1 1242:1 1243:1 1245:1 1246:1 1247:1 1248:1 1250:4
-1 116:1 346:1 934:1 965:1 1056:1 1107:1 1220:1 1232:1 1241:1 1242:1 1248:2
-1 389:1 1107:1 1219:1 1232:1 1248:3
-1 347:1 464:1 671:1 698:1 934:2 947:3 965:2 1010:1 1056:1 1079:1 1107:4 1166:1 1214:1 1216:1 1220:2 1228:1 1230:1 1232:4 1238:1 1241:1 1242:2 1245:3 1246:1 1247:1 1248:6
-1 147:1 374:1 464:1 934:1 947:1 965:1 1010:1 1056:1 1079:1 1107:1 1166:1 1216:1 1220:1 1228:1 1232:1 1236:1 1241:1 1242:1 1245:1 1246:1 1247:1 1248:1
-1 832:1 1248:2
-1 347:1 464:1 698:1 699:1 934:1 947:1 965:1 1056:1 1079:1 1107:1 1166:1 1216:1 1220:1 1228:1 1230:1 1232:1 1238:1 1241:1 1242:1 1245:1 1247:1 1248:5
-1 464:1 496:1 934:1 947:1 965:1 1010:1 1056:1 1079:1 1107:1 1216:1 1220:1 1232:1 1235:1 1241:1 1242:1 1245:1 1246:1 1247:1 1248:1
-1 317:1 464:1 496:1 698:1 934:1 947:1 965:1 1010:1 1056:1 1079:1 1107:1 1112:1 1216:1 1220:1 1230:1 1232:1 1235:1 1241:1 1242:1 1245:1 1246:1 1247:1 1248:1
-1 496:1 934:1 947:1 965:1 1010:1 1056:1 1079:1 1107:1 1112:1 1220:1 1232:1 1235:1 1241:1 1242:1 1245:1 1246:1 1247:1 1248:1
-1 875:1 977:1 1107:1 1232:1 1248:1
-1 317:1 464:1 496:1 698:1 934:1 947:1 965:1 1010:1 1056:1 1107:1 1216:1 1220:1 1230:1 1232:1 1235:1 1241:1 1242:1 1245:1 1246:1 1248:1
-1 934:1 965:1 1079:1 1107:1 1220:1 1232:1 1242:1 1247:1 1248:1
-1 317:1 318:1 496:1 698:1 934:1 947:1 965:1 1010:1 1056:1 1079:1 1107:1 1172:1 1220:1 1230:1 1232:1 1235:1 1241:1 1242:1 1245:1 1246:1 1247:1 1248:1
-1 259:1 317:1 434:1 464:1 496:1 656:1 671:1 698:1 840:1 870:1 934:1 947:1 965:1 982:1 1010:1 1056:1 1079:1 1107:1 1161:1 1214:1 1216:1 1220:1 1222:1 1223:1 1227:1 1230:1 1232:1 1233:1 1235:1 1240:1 1241:1 1242:1 1243:1 1245:1 1246:1 1247:1 1248:1
-1 317:1 496:1 698:1 934:1 947:1 965:1 1010:1 1056:1 1079:1 1107:1 1220:1 1230:1 1232:1 1235:1 1241:1 1242:1 1245:1 1246:1 1247:1 1248:1
-1 147:1 317:1 464:1 496:1 671:1 698:1 699:1 846:1 870:1 934:1 947:1 965:1 979:1 1010:1 1056:1 1079:1 1107:1 1214:1 1216:1 1220:1 1230:1 1231:1 1232:1 1235:1 1236:1 1241:1 1242:1 1245:1 1246:1 1247:1 1248:1
-1 464:1 496:1 934:1 947:1 965:1 1056:1 1079:1 1107:1 1216:1 1220:1 1232:1 1235:1 1241:1 1242:1 1245:1 1247:1 1248:1
-1 317:1 464:1 475:1 496:1 698:1 934:1 947:1 965:1 1010:1 1056:1 1107:1 1216:1 1220:1 1230:1 1232:1 1235:1 1241:1 1242:1 1245:1 1246:1 1248:1
-1 464:1 934:2 947:1 965:2 1107:2 1216:1 1220:2 1232:2 1242:2 1245:1 1248:7
-1 389:1 464:1 934:1 965:1 1010:1 1056:1 1107:1 1216:1 1219:1 1220:1 1232:1 1241:1 1242:1 1246:1 1248:2
-1 464:1 934:1 965:1 989:1 1010:1 1056:1 1079:1 1107:1 1216:1 1220:1 1232:1 1241:1 1242:1 1246:1 1247:1 1248:1 1250:14
-1 347:1 1107:1 1232:1 1238:1 1248:2
-1 163:1 389:1 934:1 947:1 965:1 1010:1 1056:1 1079:1 1107:1 1166:1 1219:1 1220:1 1228:1 1232:1 1241:1 1242:1 1245:1 1246:1 1247:1 1248:1
-1 464:1 934:1 965:1 1107:1 1166:1 1216:1 1220:1 1228:1 1232:1 1242:1 1248:2
-1 464:1 934:2 947:1 965:2 1107:2 1216:1 1220:2 1232:2 1242:2 1245:1 1248:7
-1 347:1 1107:1 1232:1 1238:1 1248:2
-1 124:1 292:1 307:1 341:1 359:1 389:1 400:1 405:1 409:1 449:1 556:1 558:1 570:1 646:1 650:1 676:1 691:1 738:1 836:1 966:1 987:1 1072:1 1076:1 1128:1 1164:1 1219:1 1248:2
-1 347:1 1107:1 1232:1 1238:1 1248:2
-1 347:1 1107:1 1232:1 1238:1 1248:2
-1 347:1 1107:1 1232:1 1238:1 1248:2
-1 347:1 1107:1 1232:1 1238:1 1248:2
-1 496:1 614:1 934:1 947:1 965:1 1056:1 1107:1 1220:1 1221:1 1232:1 1235:1 1241:1 1242:1 1245:1 1248:1
-1 718:1 934:1 965:1 1079:1 1107:1 1220:1 1232:1 1242:1 1247:1 1248:1
-1 317:1 496:1 698:1 870:1 934:1 947:1 965:1 1010:1 1056:1 1079:1 1107:1 1161:1 1166:1 1220:1 1223:1 1228:1 1230:1 1232:1 1235:1 1241:1 1242:1 1245:1 1246:1 1247:1 1248:1
-1 263:1 389:1 464:1 698:1 934:1 947:1 965:1 1010:1 1056:1 1079:1 1107:1 1161:1 1209:1 1216:1 1219:1 1220:1 1223:1 1230:1 1232:1 1241:1 1242:1 1245:1 1246:1 1247:1 1248:1
-1 430:1 698:1 934:1 947:1 965:1 1010:1 1056:1 1107:1 1220:1 1230:1 1232:1 1241:1 1242:1 1245:1 1246:1 1248:1
-1 519:1 1244:1 1248:3
-1 519:1 1244:1 1248:3
-1 317:1 496:1 698:1 934:1 947:1 965:1 1010:1 1056:1 1079:1 1107:1 1220:1 1230:1 1232:1 1235:1 1241:1 1242:1 1245:1 1246:1 1247:1 1248:1
-1 214:1 297:1 307:1 389:1 449:1 461:1 499:1 570:1 616:1 626:1 713:1 738:1 846:1 934:1 965:1 966:1 987:1 1107:1 1219:1 1220:1 1229:1 1231:1 1232:1 1237:1 1242:1 1248:2
-1 389:1 496:1 965:1 1079:1 1107:1 1219:1 1220:1 1232:1 1235:1 1247:1 1248:2
-1 180:1 1248:1
-1 263:1 389:1 464:1 934:1 965:1 1107:1 1216:1 1219:1 1220:1 1232:1 1242:1 1248:1
-1 519:1 1244:1 1248:3
-1 965:1 1107:1 1220:1 1232:1 1248:2
-1 259:1 464:1 496:1 656:1 698:1 934:1 947:1 965:1 1010:1 1056:1 1079:1 1107:1 1216:1 1220:1 1222:1 1230:1 1232:1 1235:1 1241:1 1242:1 1243:1 1245:1 1246:1 1247:1 1248:1
-1 603:1 965:1 1010:1 1056:1 1107:1 1193:1 1220:1 1232:1 1241:1 1246:1 1248:2
-1 603:1 965:1 1010:1 1056:1 1107:1 1193:1 1220:1 1232:1 1241:1 1246:1 1248:2
-1 603:1 965:1 1010:1 1056:1 1107:1 1193:1 1220:1 1232:1 1241:1 1246:1 1248:2
-1 603:1 965:1 1010:1 1056:1 1107:1 1193:1 1220:1 1232:1 1241:1 1246:1 1248:2
-1 116:1 346:1 657:1 1107:1 1232:1 1248:3
-1 866:1 1107:1 1232:1 1248:2
-1 519:1 1244:1 1248:4
-1 464:1 934:1 965:1 1010:1 1056:1 1079:1 1107:1 1166:1 1216:1 1220:1 1228:1 1232:1 1241:1 1242:1 1246:1 1247:1 1248:3
-1 519:1 1244:1 1248:4
-1 180:1 1248:1
-1 153:1 191:1 331:1 333:1 517:1 580:1 623:1 627:1 712:1 920:1 934:1 954:1 970:1 989:1 1010:1 1014:1 1107:1 1232:1 1242:1 1246:1 1248:3 1250:8
-1 153:1 888:1 934:1 947:1 965:1 1010:1 1056:1 1107:1 1132:1 1220:1 1232:1 1241:1 1242:1 1245:1 1246:1 1248:1 1250:4
-1 180:1 1248:1
-1 382:1 619:1 790:1 914:1 1107:1 1232:1 1248:3
-1 389:1 1107:1 1219:1 1232:1 1248:3
-1 464:1 671:1 698:1 934:2 947:3 965:2 1010:1 1056:1 1079:2 1107:4 1166:1 1214:1 1216:1 1220:2 1228:1 1230:1 1232:4 1241:1 1242:2 1245:3 1246:1 1247:2 1248:6
-1 163:1 278:1 389:1 464:1 567:1 934:1 965:1 1010:1 1056:1 1079:1 1107:1 1166:1 1216:1 1219:1 1220:1 1228:1 1232:1 1241:1 1242:1 1246:1 1247:1 1248:2
-1 147:1 389:1 713:1 934:1 965:1 1107:1 1153:1 1217:1 1219:1 1220:1 1232:1 1236:1 1237:1 1242:1 1248:3
-1 934:2 947:1 965:2 1107:2 1220:2 1232:2 1242:2 1245:1 1248:7
-1 117:1 147:1 162:1 175:1 176:1 238:1 245:1 264:1 266:1 269:1 299:1 307:1 341:1 354:1 376:1 389:1 400:1 405:1 409:1 434:1 447:1 449:1 453:1 457:1 461:1 496:1 516:1 520:1 529:1 556:1 563:1 570:1 587:1 589:1 612:1 646:1 658:1 668:1 676:1 685:1 691:1 705:1 713:1 718:1 732:1 737:1 738:1 763:1 840:1 890:1 898:1 913:1 919:1 921:1 933:1 942:1 947:1 951:1 965:1 966:1 987:1 1003:1 1009:1 1042:1 1056:1 1072:1 1076:1 1078:1 1079:1 1101:1 1107:1 1128:1 1164:1 1219:1 1220:1 1227:1 1232:1 1235:1 1236:1 1237:1 1240:1 1241:1 1245:1 1247:1 1248:2
-1 116:1 346:1 657:1 671:1 934:1 965:1 1056:1 1107:1 1214:1 1220:1 1232:1 1241:1 1242:1 1248:2
-1 519:1 1244:1 1248:3
-1 519:1 1244:1 1248:2
-1 519:1 1244:1 1248:3
-1 519:1 1244:1 1248:4
-1 519:1 1244:1 1248:2
-1 389:1 496:1 584:1 934:1 965:1 1010:1 1079:1 1107:1 1219:1 1220:1 1232:1 1235:1 1242:1 1246:1 1247:1 1248:2
-1 389:1 449:1 464:1 570:1 738:1 965:1 966:1 987:1 1107:1 1153:1 1216:1 1217:1 1219:1 1220:1 1232:1 1248:2
-1 671:1 702:1 965:1 1107:1 1214:1 1220:1 1232:1 1234:1 1248:2
-1 141:1 175:1 203:1 389:1 496:1 584:1 696:1 878:1 934:1 947:1 965:1 1010:1 1056:1 1079:1 1107:1 1219:1 1220:1 1225:1 1232:1 1235:1 1241:1 1242:1 1245:1 1246:1 1247:1 1248:1
-1 389:1 846:1 965:1 1107:1 1219:1 1220:1 1231:1 1232:1 1248:5 1250:7
-1 519:1 1244:1 1248:4
-1 700:1 1107:1 1232:1 1248:3
-1 1107:1 1232:1 1248:2
-1 116:1 346:1 389:1 825:1 827:1 965:1 1056:1 1107:1 1162:1 1219:1 1220:1 1232:1 1241:1 1248:2
-1 519:1 1244:1 1248:3
-1 519:1 1244:1 1248:3
-1 965:1 1107:1 1220:1 1232:1 1248:4
-1 389:2 518:1 846:1 1107:1 1219:2 1231:1 1232:1 1248:2
-1 389:2 1107:1 1219:2 1232:1 1248:2
-1 389:1 464:1 496:1 698:1 965:1 1010:1 1056:1 1079:1 1107:1 1216:1 1219:1 1220:1 1230:1 1232:1 1235:1 1241:1 1246:1 1247:1 1248:2
-1 389:1 698:1 965:1 1107:1 1219:1 1220:1 1230:1 1232:1 1248:2
-1 389:1 698:1 965:1 1107:1 1219:1 1220:1 1230:1 1232:1 1248:2
-1 389:1 698:1 965:1 1056:1 1107:1 1219:1 1220:1 1230:1 1232:1 1241:1 1248:2
-1 389:1 713:1 1094:1 1107:1 1219:1 1232:1 1237:1 1248:2
-1 347:1 389:2 1107:1 1166:1 1219:2 1228:1 1232:1 1238:1 1248:5
-1 519:1 1244:1 1248:3
-1 361:1 464:1 496:1 554:1 614:1 680:1 698:1 718:1 796:1 846:1 934:1 947:1 965:1 1010:1 1074:1 1079:1 1107:1 1166:1 1216:1 1218:1 1220:1 1221:1 1228:1 1230:1 1231:1 1232:1 1235:1 1242:1 1245:1 1246:1 1247:1 1248:2
-1 389:1 947:1 965:1 1010:1 1079:1 1107:1 1219:1 1220:1 1232:1 1245:1 1246:1 1247:1 1248:3
-1 347:1 389:2 1107:1 1219:2 1232:1 1238:1 1248:3
-1 965:1 1031:1 1107:1 1220:1 1232:1 1248:3
-1 244:1 347:1 389:2 702:1 965:1 1107:1 1219:2 1220:1 1232:1 1234:1 1238:1 1248:3
-1 389:2 566:1 702:1 1107:1 1219:2 1232:1 1234:1 1248:2
-1 1107:1 1232:1 1248:1
-1 389:1 464:1 934:1 947:1 965:1 1010:1 1079:1 1107:1 1122:1 1216:1 1219:1 1220:1 1232:1 1242:1 1245:1 1246:1 1247:1 1248:1
-1 180:1 1248:1
-1 519:1 1244:1 1248:3
-1 191:1 333:1 453:1 496:1 517:1 564:1 580:1 623:1 627:1 712:1 895:1 934:1 947:1 965:1 981:1 1010:1 1014:1 1056:1 1079:1 1107:1 1166:1 1220:1 1224:1 1228:1 1232:1 1235:1 1241:1 1242:1 1245:1 1246:1 1247:1 1248:2
-1 389:1 619:1 790:1 965:1 1079:1 1107:1 1184:1 1219:1 1220:1 1232:1 1247:1 1248:4
-1 389:1 464:1 496:1 519:1 656:1 713:1 840:1 965:1 1010:1 1056:1 1107:1 1216:1 1219:1 1220:1 1227:1 1232:1 1235:1 1237:1 1241:1 1243:1 1244:1 1246:1 1248:3
-1 519:1 1244:1 1248:3
-1 347:1 389:1 464:1 698:1 934:1 947:1 965:1 1010:1 1056:1 1079:1 1107:1 1216:1 1219:1 1220:1 1230:1 1232:1 1238:1 1241:1 1242:1 1245:1 1246:1 1247:1 1248:4
-1 519:1 1244:1 1248:3
-1 317:1 380:1 464:1 496:1 671:1 698:1 846:1 934:1 947:1 965:1 1010:1 1056:1 1079:1 1107:1 1118:1 1214:1 1216:1 1220:1 1230:1 1231:1 1232:1 1235:1 1241:1 1242:1 1245:1 1246:1 1247:1 1248:2
-1 700:1 965:1 1107:1 1220:1 1232:1 1248:3
-1 364:1 496:1 846:1 934:1 947:1 965:1 1010:1 1056:1 1079:1 1107:1 1220:1 1231:1 1232:1 1235:1 1241:1 1242:1 1245:1 1246:1 1247:1 1248:4
-1 464:1 934:1 965:1 1010:1 1056:1 1079:1 1107:1 1216:1 1220:1 1232:1 1241:1 1242:1 1246:1 1247:1 1248:2
-1 347:1 364:1 389:1 434:1 464:1 626:1 671:1 698:1 846:1 911:1 934:1 947:1 965:1 1010:1 1056:1 1079:1 1107:1 1152:1 1214:1 1216:1 1219:1 1220:1 1229:1 1230:1 1231:1 1232:1 1238:1 1240:1 1241:1 1242:1 1245:1 1246:1 1247:1 1248:5
-1 846:1 934:1 965:1 1107:1 1166:1 1220:1 1228:1 1231:1 1232:1 1242:1 1248:1
-1 464:1 496:1 656:1 699:1 846:1 934:1 947:1 965:1 1010:1 1056:1 1079:1 1107:1 1166:1 1216:1 1220:1 1228:1 1231:1 1232:1 1235:1 1241:1 1242:1 1243:1 1245:1 1246:1 1247:1 1248:2
-1 116:1 195:1 346:1 464:1 479:1 698:1 934:2 947:3 965:2 1010:1 1056:1 1079:1 1107:5 1111:1 1166:1 1216:1 1220:2 1228:1 1230:1 1232:5 1241:1 1242:2 1245:3 1246:1 1247:1 1248:6
-1 389:1 713:1 1094:1 1107:1 1219:1 1232:1 1237:1 1248:2
-1 389:1 965:1 1079:1 1107:1 1219:1 1220:1 1232:1 1247:1 1248:3
-1 307:1 341:1 389:1 409:1 449:1 469:1 492:1 541:1 570:1 650:1 676:1 691:1 707:1 713:1 738:1 966:1 987:1 1009:1 1030:1 1076:1 1128:1 1219:1 1237:1 1248:2
-1 464:1 934:1 965:1 1010:1 1056:1 1107:1 1216:1 1220:1 1232:1 1241:1 1242:1 1246:1 1248:1 1250:5
-1 307:1 341:1 389:1 409:1 449:1 485:1 570:1 650:1 676:1 738:1 846:1 966:1 987:1 1009:1 1072:1 1101:1 1219:1 1231:1 1248:2
-1 389:1 934:1 965:1 1079:1 1107:1 1219:1 1220:1 1232:1 1242:1 1247:1 1248:3
-1 191:1 333:1 508:1 517:1 580:1 623:1 627:1 712:1 934:1 945:1 1014:1 1107:1 1232:1 1242:1 1248:4 1250:36
-1 389:1 464:1 947:1 965:1 1079:1 1107:1 1216:1 1219:1 1220:1 1232:1 1245:1 1247:1 1248:4
-1 175:1 307:1 389:1 449:1 570:1 738:1 966:1 987:1 1107:1 1219:1 1232:1 1248:3
-1 519:1 1244:1 1248:3
-1 389:2 1107:1 1219:2 1232:1 1248:2
-1 147:1 389:1 965:1 1010:1 1107:1 1219:1 1220:1 1232:1 1236:1 1246:1 1248:2
-1 840:1 934:1 965:1 1010:1 1056:1 1079:1 1107:1 1220:1 1227:1 1232:1 1241:1 1242:1 1246:1 1247:1 1248:2
-1 934:1 947:1 965:1 1010:1 1056:1 1079:1 1107:1 1220:1 1232:1 1241:1 1242:1 1245:1 1246:1 1247:1 1248:2
-1 934:1 947:1 965:1 1010:1 1056:1 1079:1 1107:1 1220:1 1232:1 1241:1 1242:1 1245:1 1246:1 1247:1 1248:2
-1 1107:1 1232:1 1248:3
-1 389:1 464:1 496:1 543:1 656:1 713:1 840:1 934:1 947:1 965:1 1010:1 1056:1 1079:1 1107:1 1216:1 1219:1 1220:1 1227:1 1232:1 1235:1 1237:1 1241:1 1242:1 1243:1 1245:1 1246:1 1247:1 1248:1
-1 180:1 1248:1
-1 947:1 965:1 1010:1 1107:1 1166:1 1220:1 1228:1 1232:1 1245:1 1246:1 1248:2
-1 268:1 341:1 383:1 409:1 449:1 570:1 623:1 646:1 650:1 676:1 712:1 727:1 732:1 738:1 966:1 987:1 1009:1 1072:1 1076:1 1101:1 1248:1
-1 163:1 389:1 934:1 947:1 965:1 1010:1 1107:1 1160:1 1219:1 1220:1 1232:1 1242:1 1245:1 1246:1 1248:2 1250:5
-1 464:1 934:1 947:1 965:1 1010:1 1056:1 1107:1 1166:1 1216:1 1220:1 1228:1 1232:1 1241:1 1242:1 1245:1 1246:1 1248:5
-1 389:2 671:1 965:1 1056:1 1079:1 1107:1 1214:1 1219:2 1220:1 1232:1 1241:1 1247:1 1248:2 1250:116
-1 389:1 671:1 965:1 1107:1 1166:1 1214:1 1219:1 1220:1 1228:1 1232:1 1248:3
-1 464:1 934:2 947:1 965:2 1107:2 1216:1 1220:2 1232:2 1242:2 1245:1 1248:7
-1 464:1 934:1 965:1 1010:1 1056:1 1079:1 1107:1 1166:1 1216:1 1220:1 1228:1 1232:1 1241:1 1242:1 1246:1 1247:1 1248:3
-1 147:1 245:1 307:1 389:1 449:1 563:1 570:1 668:1 713:1 738:1 934:1 947:1 966:1 987:1 1079:1 1107:1 1219:1 1232:1 1236:1 1237:1 1242:1 1245:1 1247:1 1248:2
-1 245:1 307:1 389:1 409:1 449:1 570:1 646:1 738:1 965:1 966:1 987:1 1010:1 1076:1 1107:1 1219:1 1220:1 1232:1 1246:1 1248:3
-1 389:1 713:1 1107:1 1219:1 1232:1 1237:1 1248:1
-1 116:3 346:2 464:1 698:1 934:2 947:2 965:2 1056:1 1107:4 1166:1 1216:1 1220:2 1228:1 1230:1 1232:4 1241:1 1242:2 1245:2 1248:6
-1 245:1 307:1 389:1 409:1 449:1 496:1 570:1 646:1 698:1 738:1 934:1 965:1 966:1 987:1 1056:1 1107:1 1219:1 1220:1 1230:1 1232:1 1235:1 1241:1 1242:1 1248:3
-1 389:1 496:1 713:1 846:1 965:1 1107:1 1166:1 1219:1 1220:1 1228:1 1231:1 1232:1 1235:1 1237:1 1248:2
-1 319:1 347:1 393:1 464:1 496:1 535:1 621:1 671:1 698:1 846:1 855:1 895:1 934:1 947:1 965:1 1010:1 1056:1 1079:1 1107:1 1144:1 1214:1 1216:1 1220:1 1224:1 1230:1 1231:1 1232:1 1235:1 1238:1 1241:1 1242:1 1245:1 1246:1 1247:1 1248:2 1250:368
-1 671:1 965:1 1056:1 1107:1 1166:1 1214:1 1220:1 1228:1 1232:1 1241:1 1248:2
-1 123:1 189:1 1248:2
-1 389:2 1079:1 1107:1 1219:2 1232:1 1247:1 1248:2
-1 846:1 1107:1 1231:1 1232:1 1248:2
-1 1107:1 1232:1 1248:2
-1 464:1 667:1 698:1 934:2 947:3 965:2 1010:1 1056:1 1107:5 1166:1 1216:1 1220:2 1228:1 1230:1 1232:5 1241:1 1242:2 1245:3 1246:1 1248:6
-1 698:1 934:1 965:1 1056:1 1107:1 1220:1 1230:1 1232:1 1241:1 1242:1 1248:4
-1 382:1 464:1 698:1 846:1 965:1 1010:1 1056:1 1079:1 1107:1 1216:1 1220:1 1230:1 1231:1 1232:1 1241:1 1246:1 1247:1 1248:2
-1 135:1 382:1 1107:1 1232:1 1248:2
-1 135:1 382:1 1107:1 1232:1 1248:2
-1 1107:1 1232:1 1248:3
-1 116:1 135:1 346:1 389:2 1107:1 1192:1 1219:2 1232:1 1248:2
-1 301:1 389:1 413:1 464:1 496:1 568:1 614:1 656:1 671:1 688:1 713:1 768:1 870:1 874:1 934:1 947:1 965:1 1010:1 1056:1 1079:1 1107:1 1214:1 1216:1 1219:1 1220:1 1221:1 1232:1 1235:1 1237:1 1241:1 1242:1 1243:1 1245:1 1246:1 1247:1 1248:2
-1 147:1 323:1 464:1 496:1 554:1 614:1 626:1 671:1 698:1 846:1 895:1 934:1 947:1 965:1 1010:1 1056:1 1058:1 1079:1 1107:1 1214:1 1216:1 1220:1 1221:1 1224:1 1229:1 1230:1 1231:1 1232:1 1235:1 1236:1 1241:1 1242:1 1245:1 1246:1 1247:1 1248:3
-1 147:1 323:1 464:1 554:1 626:1 671:1 698:1 895:1 934:1 947:1 965:1 1010:1 1056:1 1079:1 1107:1 1214:1 1216:1 1220:1 1224:1 1229:1 1230:1 1232:1 1236:1 1241:1 1242:1 1245:1 1246:1 1247:1 1248:2
-1 389:1 602:1 628:1 965:1 1107:1 1219:1 1220:1 1232:1 1248:7
-1 116:1 346:1 389:2 671:1 698:1 965:1 1056:1 1079:1 1107:1 1214:1 1219:2 1220:1 1230:1 1232:1 1241:1 1247:1 1248:2 1250:112
-1 464:1 698:1 934:2 947:2 965:3 1010:1 1056:1 1079:1 1107:5 1166:1 1216:1 1220:3 1228:1 1230:1 1232:5 1241:1 1242:2 1245:2 1246:1 1247:1 1248:6
-1 464:1 934:3 947:1 965:2 1107:4 1216:1 1220:2 1232:4 1242:3 1245:1 1248:4
-1 129:1 247:1 347:1 389:2 965:1 1051:1 1079:1 1107:1 1219:2 1220:1 1232:1 1238:1 1247:1 1248:2
-1 389:2 934:1 1107:1 1219:2 1232:1 1242:1 1248:3
-1 270:1 430:1 699:1 846:1 934:1 1107:1 1231:1 1232:1 1242:1 1248:2
-1 116:1 278:1 329:1 346:1 389:1 817:1 1079:1 1107:1 1219:1 1232:1 1247:1 1248:2
-1 245:1 389:1 464:1 863:1 934:1 965:1 1094:1 1107:1 1216:1 1219:1 1220:1 1232:1 1242:1 1248:2
-1 180:1 1248:1
-1 147:1 364:1 389:1 464:1 485:1 496:1 698:1 846:1 934:1 965:1 1010:1 1056:1 1079:1 1107:1 1216:1 1219:1 1220:1 1230:1 1231:1 1232:1 1235:1 1236:1 1241:1 1242:1 1246:1 1247:1 1248:1
-1 238:1 245:1 292:1 307:1 341:1 389:1 400:1 409:1 449:1 556:1 570:1 612:1 648:1 650:1 676:1 684:1 691:1 705:1 707:1 713:1 732:1 738:1 856:1 890:1 966:1 987:1 1009:1 1030:1 1072:1 1076:1 1101:1 1164:1 1219:1 1237:1 1248:2
-1 389:1 846:1 965:1 1107:1 1219:1 1220:1 1231:1 1232:1 1248:2
-1 294:1 428:1 779:1 1071:1 1107:1 1134:1 1232:1 1248:3
-1 347:1 389:2 1107:1 1166:1 1219:2 1228:1 1232:1 1238:1 1248:4
-1 238:1 292:1 307:1 341:1 389:1 409:1 449:1 461:1 485:1 570:1 650:1 676:1 713:1 738:1 846:1 966:1 987:1 1009:1 1072:1 1076:1 1101:1 1164:1 1219:1 1231:1 1237:1 1248:1
-1 965:1 1056:1 1107:1 1220:1 1232:1 1241:1 1248:2
-1 671:1 698:1 965:1 1056:1 1107:1 1214:1 1220:1 1230:1 1232:1 1241:1 1248:2
-1 116:1 223:1 346:1 698:1 965:1 1056:1 1107:1 1220:1 1230:1 1232:1 1241:1 1248:2
-1 312:1 317:1 464:1 496:1 626:1 698:1 877:1 934:1 947:1 965:1 1010:1 1056:1 1079:1 1107:1 1216:1 1220:1 1229:1 1230:1 1232:1 1235:1 1241:1 1242:1 1245:1 1246:1 1247:1 1248:2
-1 317:1 464:1 496:1 698:1 934:1 947:1 965:1 1010:1 1056:1 1079:1 1107:1 1216:1 1220:1 1230:1 1232:1 1235:1 1241:1 1242:1 1245:1 1246:1 1247:1 1248:1
-1 265:1 312:1 317:1 348:1 464:1 496:1 698:1 934:1 947:1 965:1 1010:1 1056:1 1079:1 1107:1 1216:1 1220:1 1230:1 1232:1 1235:1 1241:1 1242:1 1245:1 1246:1 1247:1 1248:1
-1 211:1 265:1 312:1 317:1 348:1 464:1 496:1 698:1 761:1 906:1 934:1 947:1 965:1 1010:1 1056:1 1079:1 1107:1 1112:1 1216:1 1220:1 1230:1 1232:1 1235:1 1241:1 1242:1 1245:1 1246:1 1247:1 1248:1 1250:21
-1 317:1 464:1 496:1 698:1 934:1 947:1 965:1 1010:1 1056:1 1079:1 1107:1 1143:1 1216:1 1220:1 1230:1 1232:1 1235:1 1241:1 1242:1 1245:1 1246:1 1247:1 1248:1
-1 211:1 317:1 464:1 496:1 698:1 934:1 947:1 965:1 1010:1 1056:1 1107:1 1216:1 1220:1 1230:1 1232:1 1235:1 1241:1 1242:1 1245:1 1246:1 1248:1
-1 464:1 934:2 947:1 965:2 1107:2 1216:1 1220:2 1232:2 1242:2 1245:1 1248:7
-1 245:1 389:1 464:1 653:1 934:1 965:1 1056:1 1079:1 1107:1 1216:1 1219:1 1220:1 1232:1 1241:1 1242:1 1247:1 1248:2 1250:39
-1 389:1 464:1 653:1 934:1 965:1 1079:1 1107:1 1216:1 1219:1 1220:1 1232:1 1242:1 1247:1 1248:2 1250:39
-1 464:1 934:2 947:1 965:2 1107:2 1216:1 1220:2 1232:2 1242:2 1245:1 1248:6
-1 263:1 389:1 698:1 934:1 965:1 1056:1 1079:1 1107:1 1219:1 1220:1 1230:1 1232:1 1241:1 1242:1 1247:1 1248:1
-1 147:1 197:1 236:1 389:1 434:1 442:1 496:1 713:1 934:1 947:1 965:1 1010:1 1056:1 1079:1 1107:1 1166:1 1219:1 1220:1 1228:1 1232:1 1235:1 1236:1 1237:1 1240:1 1241:1 1242:1 1245:1 1246:1 1247:1 1248:2
-1 389:1 677:1 934:1 1107:1 1219:1 1232:1 1242:1 1248:2
-1 316:1 382:1 965:1 1107:1 1220:1 1232:1 1248:2
-1 389:2 1107:1 1219:2 1232:1 1248:2
-1 464:1 934:1 965:1 1010:1 1056:1 1079:1 1107:1 1166:1 1216:1 1220:1 1228:1 1232:1 1241:1 1242:1 1246:1 1247:1 1248:3
-1 147:1 164:1 254:1 268:1 449:1 563:1 570:1 623:1 646:1 668:1 727:1 738:1 934:1 947:1 966:1 987:1 1010:1 1077:1 1107:1 1232:1 1236:1 1242:1 1245:1 1246:1 1248:1
-1 116:1 346:1 389:2 959:1 965:1 1056:1 1107:1 1162:1 1219:2 1220:1 1232:1 1241:1 1248:2
-1 116:1 347:1 496:1 671:1 822:1 846:1 934:1 947:1 958:1 965:1 1010:1 1056:1 1079:1 1107:1 1161:1 1166:1 1214:1 1220:1 1223:1 1228:1 1231:1 1232:1 1235:1 1238:1 1241:1 1242:1 1245:1 1246:1 1247:1 1248:2 1250:5
-1 389:1 934:1 965:1 1079:1 1107:1 1219:1 1220:1 1232:1 1242:1 1247:1 1248:3
-1 180:1 1248:1
-1 116:1 346:1 389:2 965:1 1056:1 1107:1 1162:1 1219:2 1220:1 1232:1 1241:1 1248:2
-1 141:1 147:1 245:1 268:1 307:1 331:1 381:1 406:1 449:1 453:1 464:1 496:1 563:1 570:1 592:1 623:1 646:1 656:1 658:1 668:1 696:1 712:1 713:1 727:1 738:1 759:1 809:1 840:1 933:1 934:1 947:1 965:1 966:1 980:1 987:1 1056:1 1079:1 1107:1 1130:1 1142:1 1216:1 1220:1 1227:1 1232:1 1235:1 1236:1 1237:1 1241:1 1242:1 1243:1 1245:1 1247:1 1248:2
-1 219:1 259:1 464:1 934:2 947:2 965:2 1010:1 1056:1 1079:1 1107:5 1166:1 1216:1 1220:2 1222:1 1228:1 1232:5 1241:1 1242:2 1245:2 1246:1 1247:1 1248:6
-1 389:1 464:1 698:1 768:1 965:1 1107:1 1216:1 1219:1 1220:1 1230:1 1232:1 1248:1
-1 519:1 1244:1 1248:3
-1 519:1 1244:1 1248:2
-1 464:1 934:1 965:1 1010:1 1056:1 1079:1 1107:1 1166:1 1216:1 1220:1 1228:1 1232:1 1241:1 1242:1 1246:1 1247:1 1248:3
-1 147:1 389:1 713:1 934:1 947:1 979:1 1010:1 1107:1 1219:1 1232:1 1236:1 1237:1 1242:1 1245:1 1246:1 1248:2
-1 180:1 1248:1
-1 163:1 278:1 389:1 470:1 949:1 965:1 1107:1 1219:1 1220:1 1232:1 1248:2
-1 389:1 1107:1 1219:1 1232:1 1248:6
-1 389:2 1107:1 1219:2 1232:1 1248:2
-1 389:1 1107:1 1219:1 1232:1 1248:5
-1 389:2 1107:1 1219:2 1232:1 1248:3
-1 389:2 825:1 846:1 934:1 965:1 1107:1 1219:2 1220:1 1231:1 1232:1 1242:1 1248:4
-1 389:2 846:1 1107:1 1219:2 1231:1 1232:1 1248:4
-1 389:1 750:1 872:1 1107:1 1219:1 1232:1 1248:3
-1 317:1 380:1 464:1 496:1 603:1 671:1 698:1 934:1 947:1 965:1 1010:1 1056:1 1079:1 1107:1 1214:1 1216:1 1220:1 1230:1 1232:1 1235:1 1241:1 1242:1 1245:1 1246:1 1247:1 1248:2
-1 259:1 464:1 698:1 934:1 947:1 965:1 1010:1 1056:1 1079:1 1107:1 1166:1 1216:1 1220:1 1222:1 1228:1 1230:1 1232:1 1241:1 1242:1 1245:1 1246:1 1247:1 1248:5
-1 464:1 934:1 947:1 965:1 1056:1 1079:1 1107:1 1166:1 1216:1 1220:1 1228:1 1232:1 1241:1 1242:1 1245:1 1247:1 1248:4
-1 259:1 464:1 626:1 671:1 698:1 934:1 947:1 965:1 1010:1 1056:1 1079:1 1107:1 1166:1 1214:1 1216:1 1220:1 1222:1 1228:1 1229:1 1230:1 1232:1 1241:1 1242:1 1245:1 1246:1 1247:1 1248:5
-1 389:2 464:1 698:1 934:1 947:1 965:1 1010:1 1056:1 1079:1 1084:1 1107:1 1216:1 1219:2 1220:1 1230:1 1232:1 1241:1 1242:1 1245:1 1246:1 1247:1 1248:4
-1 1010:1 1107:1 1232:1 1246:1 1248:2
-1 306:1 404:1 431:1 435:1 458:1 525:1 1052:1 1055:1 1097:1 1107:1 1200:1 1232:1 1248:1 1250:75
-1 147:1 214:1 220:1 238:1 245:1 307:1 341:1 389:1 409:1 434:1 449:1 469:1 488:1 570:1 676:1 685:1 691:1 713:1 720:1 738:1 829:1 883:1 947:1 966:1 982:1 987:1 1009:1 1042:1 1072:1 1076:1 1101:1 1116:1 1130:1 1133:1 1164:1 1219:1 1233:1 1236:1 1237:1 1240:1 1245:1 1248:2
-1 1107:1 1232:1 1248:2
-1 571:1 743:1 965:1 975:1 1107:1 1220:1 1232:1 1248:3
-1 464:1 934:1 965:1 1010:1 1056:1 1079:1 1107:1 1166:1 1216:1 1220:1 1228:1 1232:1 1241:1 1242:1 1246:1 1247:1 1248:2
-1 389:1 1107:1 1219:1 1232:1 1248:1
-1 519:1 1244:1 1248:3
-1 317:1 380:1 464:1 698:1 934:1 947:1 965:1 1010:1 1056:1 1107:1 1216:1 1220:1 1230:1 1232:1 1241:1 1242:1 1245:1 1246:1 1248:2
-1 430:1 656:1 853:1 965:1 1010:1 1107:1 1220:1 1232:1 1243:1 1246:1 1248:1
-1 965:1 1107:1 1220:1 1232:1 1248:3
-1 214:1 245:1 297:1 307:1 352:1 389:1 449:1 461:1 492:1 499:1 570:1 616:1 626:1 713:1 738:1 846:1 947:1 965:1 966:1 987:1 1072:1 1098:1 1107:1 1219:1 1220:1 1229:1 1231:1 1232:1 1237:1 1245:1 1248:2
-1 347:1 934:1 965:1 1107:1 1220:1 1232:1 1238:1 1242:1 1248:2
-1 1107:1 1232:1 1248:2
-1 389:2 1107:1 1219:2 1232:1 1248:2
-1 519:1 1244:1 1248:3
-1 116:1 135:1 161:1 295:1 372:1 451:1 476:1 550:1 1107:1 1232:1 1248:2
-1 389:1 464:1 698:1 934:1 965:1 1056:1 1079:1 1107:1 1161:1 1216:1 1219:1 1220:1 1223:1 1230:1 1232:1 1241:1 1242:1 1247:1 1248:4
-1 464:1 934:1 965:1 1010:1 1056:1 1079:1 1107:1 1166:1 1216:1 1220:1 1228:1 1232:1 1241:1 1242:1 1246:1 1247:1 1248:3
-1 202:1 246:1 257:1 308:1 320:1 357:1 389:1 482:1 533:1 647:1 703:1 751:1 754:1 788:1 795:1 798:1 861:1 872:1 965:1 1040:1 1107:1 1108:1 1114:1 1123:1 1146:1 1171:1 1219:1 1220:1 1232:1 1248:6
-1 202:1 246:1 257:1 308:1 320:1 357:1 389:1 482:1 647:1 703:1 751:1 754:1 788:1 795:1 798:1 872:1 965:1 1040:1 1107:1 1108:1 1114:1 1146:1 1171:1 1219:1 1220:1 1232:1 1248:6
-1 464:1 934:1 965:1 1010:1 1056:1 1079:1 1107:1 1166:1 1216:1 1220:1 1228:1 1232:1 1241:1 1242:1 1246:1 1247:1 1248:3
-1 464:1 934:2 947:1 965:2 1107:2 1216:1 1220:2 1232:2 1242:2 1245:1 1248:7
-1 519:1 1244:1 1248:4
-1 389:1 671:1 768:1 965:1 1010:1 1056:1 1060:1 1107:1 1193:1 1214:1 1219:1 1220:1 1232:1 1241:1 1246:1 1248:4
-1 464:1 934:1 965:1 1010:1 1056:1 1079:1 1107:1 1166:1 1216:1 1220:1 1228:1 1232:1 1241:1 1242:1 1246:1 1247:1 1248:3
-1 116:1 135:1 199:1 223:1 346:1 827:1 875:1 977:1 997:1 1107:1 1167:1 1192:1 1232:1 1248:1
-1 389:2 1107:1 1219:2 1232:1 1248:5 1250:73
-1 116:1 347:1 464:1 671:1 965:1 1056:1 1107:1 1214:1 1216:1 1220:1 1232:1 1238:1 1241:1 1248:2
-1 116:1 346:1 571:1 743:1 789:1 965:1 975:1 1056:1 1107:1 1220:1 1232:1 1241:1 1248:2
-1 174:1 1107:1 1232:1 1248:2
-1 116:1 137:1 196:1 346:1 657:1 965:1 1010:1 1107:1 1220:1 1232:1 1246:1 1248:3
-1 389:1 1107:1 1219:1 1232:1 1248:2
-1 519:1 1244:1 1248:3
-1 464:1 934:2 947:1 965:2 1107:2 1216:1 1220:2 1232:2 1242:2 1245:1 1248:7
-1 832:1 1248:1
-1 934:1 965:1 1056:1 1079:1 1107:1 1220:1 1232:1 1241:1 1242:1 1247:1 1248:3
-1 259:1 464:1 471:1 678:1 698:1 888:1 965:1 1056:1 1079:1 1107:1 1216:1 1220:1 1222:1 1230:1 1232:1 1241:1 1247:1 1248:1
-1 147:1 496:1 718:1 934:1 965:1 1010:1 1079:1 1107:1 1152:1 1166:1 1220:1 1228:1 1232:1 1235:1 1236:1 1242:1 1246:1 1247:1 1248:1
-1 496:1 1107:1 1232:1 1235:1 1248:1
-1 496:1 965:1 1010:1 1079:1 1107:1 1220:1 1232:1 1235:1 1246:1 1247:1 1248:3
-1 180:1 1248:1
-1 464:1 565:1 671:1 698:1 702:1 934:2 947:2 965:2 1056:1 1079:2 1107:4 1166:1 1214:1 1216:1 1220:2 1228:1 1230:1 1232:4 1234:1 1239:1 1241:1 1242:2 1245:2 1247:2 1248:6
-1 214:1 245:1 264:1 297:1 307:1 341:1 352:1 389:1 409:1 449:1 461:1 490:1 499:1 570:1 626:1 650:1 676:1 688:1 738:1 846:1 889:1 934:1 947:1 965:1 966:1 987:1 1090:1 1101:1 1107:1 1219:1 1220:1 1229:1 1231:1 1232:1 1242:1 1245:1 1248:1
-1 389:1 965:1 1107:1 1219:1 1220:1 1232:1 1248:5
-1 238:1 307:1 389:1 409:1 449:1 570:1 646:1 676:1 713:1 732:1 738:1 935:1 965:1 966:1 987:1 1009:1 1072:1 1076:1 1101:1 1219:1 1220:1 1237:1 1248:1
-1 464:1 565:1 698:1 702:1 934:2 947:3 965:2 1010:5 1056:1 1079:2 1107:4 1166:1 1216:1 1220:2 1228:1 1230:1 1232:4 1234:1 1239:1 1241:1 1242:2 1245:3 1246:5 1247:2 1248:7
-1 116:1 389:2 464:1 698:1 934:1 947:1 965:1 1010:1 1056:1 1079:1 1107:1 1184:1 1216:1 1219:2 1220:1 1230:1 1232:1 1241:1 1242:1 1245:1 1246:1 1247:1 1248:2
-1 389:1 449:1 467:1 570:1 713:1 718:1 738:1 934:1 965:1 966:1 987:1 994:1 1107:1 1219:1 1220:1 1232:1 1237:1 1242:1 1248:1
-1 464:1 496:1 846:1 934:1 965:1 1079:1 1107:1 1216:1 1220:1 1231:1 1232:1 1235:1 1242:1 1247:1 1248:2
-1 519:1 1244:1 1248:3
-1 116:1 135:1 346:1 382:1 464:1 657:1 671:1 914:1 965:1 1056:1 1079:1 1107:1 1138:1 1167:1 1214:1 1216:1 1220:1 1232:1 1241:1 1247:1 1248:2
-1 163:1 389:1 464:1 698:1 934:1 947:1 965:1 1010:1 1056:1 1079:1 1107:1 1111:1 1166:1 1216:1 1219:1 1220:1 1228:1 1230:1 1232:1 1241:1 1242:1 1245:1 1246:1 1247:1 1248:1
-1 389:1 530:1 619:1 790:1 1107:1 1219:1 1232:1 1248:3
-1 259:1 317:1 464:1 496:1 656:1 671:1 698:1 846:1 870:1 879:1 934:1 947:1 965:1 1010:1 1056:1 1079:1 1107:1 1111:1 1161:1 1166:1 1174:1 1214:1 1216:1 1220:1 1222:1 1223:1 1228:1 1230:1 1231:1 1232:1 1235:1 1241:1 1242:1 1243:1 1245:1 1246:1 1247:1 1248:4
-1 340:1 389:1 619:1 790:1 1107:1 1184:1 1219:1 1232:1 1248:4
-1 1107:1 1232:1 1248:1
-1 965:1 1056:1 1107:1 1220:1 1232:1 1241:1 1248:1
-1 786:1 875:1 934:1 947:1 965:1 977:1 1056:1 1079:1 1107:1 1220:1 1232:1 1241:1 1242:1 1245:1 1247:1 1248:1
-1 464:1 934:2 947:1 965:2 1107:2 1216:1 1220:2 1232:2 1242:2 1245:1 1248:7
-1 259:1 261:1 496:1 572:1 614:1 656:1 678:1 840:1 888:1 934:1 947:1 965:1 1010:1 1056:1 1079:1 1107:1 1153:1 1161:1 1217:1 1220:1 1221:1 1222:1 1223:1 1227:1 1232:1 1235:1 1241:1 1242:1 1243:1 1245:1 1246:1 1247:1 1248:1 1250:44
-1 147:1 496:1 572:1 888:1 934:1 947:1 965:1 1010:1 1056:1 1079:1 1107:1 1220:1 1232:1 1235:1 1236:1 1241:1 1242:1 1245:1 1246:1 1247:1 1248:2 1250:1
-1 245:1 307:1 389:1 449:1 464:1 496:1 570:1 738:1 934:1 965:1 966:1 987:1 1079:1 1107:1 1161:1 1216:1 1219:1 1220:1 1223:1 1232:1 1235:1 1242:1 1247:1 1248:2
-1 116:1 163:1 278:1 329:1 346:1 389:1 671:1 934:1 965:1 1056:1 1079:1 1107:1 1214:1 1219:1 1220:1 1232:1 1241:1 1242:1 1247:1 1248:2 1250:92
-1 464:1 947:1 965:1 1010:1 1056:1 1079:1 1107:1 1166:1 1216:1 1220:1 1228:1 1232:1 1241:1 1245:1 1246:1 1247:1 1248:5
-1 519:1 1244:1 1248:4
-1 389:2 872:1 1107:1 1219:2 1232:1 1248:3
-1 389:2 872:1 1107:1 1219:2 1232:1 1248:3
-1 934:1 965:1 1056:1 1079:1 1107:1 1220:1 1232:1 1241:1 1242:1 1247:1 1248:2
-1 143:1 194:1 337:1 389:2 619:1 790:1 1107:1 1184:1 1219:2 1232:1 1248:2
-1 389:1 533:1 750:1 751:1 872:1 1107:1 1219:1 1232:1 1248:3 1250:6
-1 246:1 389:1 533:1 1107:1 1219:1 1232:1 1248:3
-1 259:1 464:1 698:1 934:2 947:3 965:2 1010:1 1056:1 1107:6 1166:1 1216:1 1220:2 1222:1 1228:1 1230:1 1232:6 1241:1 1242:2 1245:3 1246:1 1248:6
-1 389:1 424:1 752:1 1063:1 1107:1 1219:1 1232:1 1248:3
-1 519:1 1244:1 1248:3
-1 259:1 277:1 464:1 626:1 698:1 794:1 934:2 947:2 963:1 965:2 1010:2 1056:1 1079:1 1107:4 1166:1 1216:1 1220:2 1222:1 1228:1 1229:1 1230:1 1232:4 1241:1 1242:2 1245:2 1246:2 1247:1 1248:5
-1 519:1 1244:1 1248:4
-1 382:1 464:1 914:1 934:1 965:1 1056:1 1061:1 1079:1 1107:1 1138:1 1216:1 1220:1 1232:1 1241:1 1242:1 1247:1 1248:2
-1 347:1 389:1 464:1 698:1 934:1 965:1 1010:1 1056:1 1079:1 1107:1 1166:1 1216:1 1219:1 1220:1 1228:1 1230:1 1232:1 1238:1 1241:1 1242:1 1246:1 1247:1 1248:4
-1 464:1 934:1 965:1 1010:1 1056:1 1079:1 1107:1 1166:1 1216:1 1220:1 1228:1 1232:1 1241:1 1242:1 1246:1 1247:1 1248:3
-1 1107:1 1232:1 1248:3
-1 317:1 347:1 464:1 671:1 698:1 934:1 965:1 1010:1 1056:1 1079:1 1107:1 1214:1 1216:1 1220:1 1230:1 1232:1 1238:1 1241:1 1242:1 1246:1 1247:1 1248:2
-1 1107:1 1232:1 1248:3 1250:1
-1 934:1 965:1 1056:1 1079:1 1107:1 1220:1 1232:1 1241:1 1242:1 1247:1 1248:2
-1 389:1 713:1 1107:1 1219:1 1232:1 1237:1 1248:2
-1 1107:1 1232:1 1248:1
-1 519:1 1244:1 1248:3
-1 301:1 389:1 413:1 464:1 496:1 568:1 614:1 656:1 671:1 688:1 713:1 768:1 870:1 874:1 934:1 947:1 965:1 1010:1 1056:1 1079:1 1107:1 1214:1 1216:1 1219:1 1220:1 1221:1 1232:1 1235:1 1237:1 1241:1 1242:1 1243:1 1245:1 1246:1 1247:1 1248:2
-1 519:1 1244:1 1248:3
-1 519:1 1244:1 1248:3
-1 519:1 1244:1 1248:3
-1 464:1 934:1 965:1 1010:1 1056:1 1079:1 1107:1 1166:1 1216:1 1220:1 1228:1 1232:1 1241:1 1242:1 1246:1 1247:1 1248:2
-1 389:1 1107:1 1219:1 1232:1 1248:2
-1 144:1 389:1 464:1 496:1 713:1 934:1 947:1 965:1 1010:1 1056:1 1079:1 1107:1 1216:1 1219:1 1220:1 1232:1 1235:1 1237:1 1241:1 1242:1 1245:1 1246:1 1247:1 1248:2
-1 888:1 1107:1 1232:1 1248:2
-1 1010:1 1033:1 1107:1 1232:1 1246:1 1248:2
-1 389:1 934:1 1107:1 1219:1 1232:1 1242:1 1248:2
-1 389:2 464:1 698:1 934:1 965:1 1056:1 1079:1 1107:1 1216:1 1219:2 1220:1 1230:1 1232:1 1241:1 1242:1 1247:1 1248:3
-1 389:1 464:1 965:1 1107:1 1216:1 1219:1 1220:1 1232:1 1248:2
-1 519:1 1244:1 1248:4
-1 464:1 934:1 947:1 965:1 1010:1 1056:1 1079:1 1107:1 1166:1 1216:1 1220:1 1228:1 1232:1 1241:1 1242:1 1245:1 1246:1 1247:1 1248:2
-1 347:1 389:2 1107:1 1219:2 1232:1 1238:1 1248:3
-1 347:1 389:2 1107:1 1219:2 1232:1 1238:1 1248:3
-1 374:1 464:1 934:1 965:1 1056:1 1079:1 1107:1 1216:1 1220:1 1232:1 1241:1 1242:1 1247:1 1248:3
-1 180:1 1248:1
-1 347:1 464:1 698:1 934:2 947:3 965:2 1010:1 1056:1 1079:1 1107:4 1166:1 1216:1 1220:2 1228:1 1230:1 1232:4 1238:1 1241:1 1242:2 1245:3 1246:1 1247:1 1248:6
-1 307:1 341:1 389:1 409:1 449:1 485:1 570:1 650:1 676:1 738:1 846:1 966:1 987:1 1009:1 1072:1 1101:1 1219:1 1231:1 1248:2
-1 389:1 800:1 1107:1 1219:1 1232:1 1248:2
-1 947:1 1010:1 1107:1 1232:1 1245:1 1246:1 1248:1
-1 496:1 554:1 656:1 688:1 934:1 947:1 965:1 1010:1 1079:1 1107:1 1166:1 1220:1 1228:1 1232:1 1235:1 1242:1 1243:1 1245:1 1246:1 1247:1 1248:1
-1 317:1 464:1 496:1 698:1 934:1 947:1 965:1 1010:1 1056:1 1079:1 1107:1 1216:1 1220:1 1230:1 1232:1 1235:1 1241:1 1242:1 1245:1 1246:1 1247:1 1248:2
-1 934:1 965:1 1079:1 1107:1 1220:1 1232:1 1242:1 1247:1 1248:1
-1 496:1 934:1 947:1 965:1 1056:1 1107:1 1220:1 1232:1 1235:1 1241:1 1242:1 1245:1 1248:1
-1 519:1 1244:1 1248:3
-1 934:1 965:1 1056:1 1107:1 1220:1 1232:1 1241:1 1242:1 1248:2 1250:2
-1 1055:1 1107:1 1113:1 1135:1 1212:1 1232:1 1248:3 1250:1
-1 389:1 680:1 1107:1 1218:1 1219:1 1232:1 1248:1
-1 389:1 1107:1 1219:1 1232:1 1248:1
-1 245:1 389:1 934:1 1079:1 1107:1 1219:1 1232:1 1242:1 1247:1 1248:1
-1 965:1 1107:1 1166:1 1220:1 1228:1 1232:1 1248:5 1250:1
-1 1107:1 1232:1 1248:2
-1 307:1 341:1 389:1 409:1 449:1 570:1 609:1 612:1 650:1 676:1 713:1 732:1 738:1 935:1 966:1 987:1 1009:1 1072:1 1076:1 1101:1 1169:1 1219:1 1237:1 1248:1
-1 519:1 1244:1 1248:3
-1 718:1 934:1 947:1 965:1 979:1 1010:1 1107:1 1220:1 1232:1 1242:1 1245:1 1246:1 1248:1
-1 238:1 307:1 389:1 449:1 488:1 570:1 581:1 607:1 705:1 738:1 913:1 966:1 987:1 1219:1 1248:1
-1 146:1 238:1 245:1 307:1 389:1 449:1 570:1 738:1 966:1 987:1 1076:1 1219:1 1248:2
-1 519:1 1244:1 1248:3
-1 519:1 1244:1 1248:2
-1 779:1 871:1 915:1 1107:1 1232:1 1248:2
-1 317:1 380:1 464:1 698:1 934:1 947:1 965:1 1010:1 1056:1 1079:1 1107:1 1216:1 1220:1 1230:1 1232:1 1241:1 1242:1 1245:1 1246:1 1247:1 1248:2
-1 389:1 934:1 965:1 1079:1 1107:1 1219:1 1220:1 1232:1 1242:1 1247:1 1248:1
-1 203:1 389:1 434:1 496:1 584:1 819:1 895:1 934:1 943:1 947:1 965:1 1010:1 1079:1 1086:1 1107:1 1152:1 1166:1 1219:1 1220:1 1224:1 1225:1 1228:1 1232:1 1235:1 1240:1 1242:1 1245:1 1246:1 1247:1 1248:1
-1 389:1 464:1 519:1 870:1 947:1 965:1 1010:1 1107:1 1216:1 1219:1 1220:1 1232:1 1244:1 1245:1 1246:1 1248:4
-1 196:1 934:1 947:1 965:1 1010:1 1107:1 1220:1 1232:1 1242:1 1245:1 1246:1 1248:3
-1 382:1 947:1 1010:1 1107:1 1232:1 1245:1 1246:1 1248:2
-1 147:1 203:1 389:1 420:1 584:1 934:1 947:1 965:1 982:1 1010:1 1107:1 1219:1 1220:1 1225:1 1232:1 1233:1 1236:1 1242:1 1245:1 1246:1 1248:2
-1 389:1 584:1 895:1 965:1 1010:1 1107:1 1219:1 1220:1 1224:1 1232:1 1246:1 1248:2
-1 157:1 215:1 228:1 255:1 283:1 285:1 325:1 360:1 387:1 489:1 600:1 605:1 723:1 760:1 762:1 817:1 849:1 903:1 939:1 1107:1 1190:1 1232:1 1248:2 1250:427
-1 245:1 389:1 496:1 934:1 947:1 965:1 1079:1 1107:1 1219:1 1220:1 1232:1 1235:1 1242:1 1245:1 1247:1 1248:1 1250:66
-1 159:1 321:1 389:1 584:1 708:1 934:1 1107:1 1142:1 1219:1 1232:1 1242:1 1248:3
-1 389:1 464:1 698:1 934:1 965:1 983:1 1056:1 1107:1 1166:1 1216:1 1219:1 1220:1 1228:1 1230:1 1232:1 1241:1 1242:1 1248:2
-1 464:1 779:1 934:1 965:1 1056:1 1079:1 1107:1 1216:1 1220:1 1232:1 1241:1 1242:1 1247:1 1248:3
-1 389:1 633:1 801:1 934:1 947:1 965:1 995:1 1010:1 1015:1 1079:1 1107:1 1219:1 1220:1 1232:1 1242:1 1245:1 1246:1 1247:1 1248:2
-1 1092:1 1107:1 1232:1 1248:2
-1 519:1 636:1 733:1 934:1 947:1 965:1 1010:1 1107:1 1220:1 1232:1 1242:1 1244:1 1245:1 1246:1 1248:1
-1 317:1 464:1 496:1 656:1 698:1 934:1 947:1 965:1 1010:1 1056:1 1079:1 1107:1 1216:1 1220:1 1230:1 1232:1 1235:1 1241:1 1242:1 1243:1 1245:1 1246:1 1247:1 1248:1
-1 116:1 135:1 199:1 223:1 346:1 827:1 875:1 977:1 1107:1 1192:1 1232:1 1248:1
-1 519:1 1244:1 1248:3
-1 464:1 934:1 965:1 1010:1 1056:1 1079:1 1107:1 1166:1 1216:1 1220:1 1228:1 1232:1 1241:1 1242:1 1246:1 1247:1 1248:3
-1 389:1 464:1 496:1 947:1 965:1 1010:1 1079:1 1107:1 1125:1 1216:1 1219:1 1220:1 1232:1 1235:1 1245:1 1246:1 1247:1 1248:3
-1 464:1 934:2 947:2 965:2 1010:1 1056:1 1079:1 1107:3 1216:1 1220:2 1232:3 1241:1 1242:2 1245:2 1246:1 1247:1 1248:6
-1 389:1 464:1 496:1 698:1 934:1 965:1 1010:1 1056:1 1079:1 1107:1 1161:1 1216:1 1219:1 1220:1 1223:1 1230:1 1232:1 1235:1 1241:1 1242:1 1246:1 1247:1 1248:1
-1 519:1 1244:1 1248:2
-1 162:1 175:1 214:1 238:1 245:1 292:1 307:1 341:1 389:1 400:1 405:1 409:1 449:1 496:1 570:1 637:1 646:1 676:1 685:1 691:1 705:1 713:1 732:1 738:1 889:1 898:1 921:1 934:1 935:1 947:1 965:1 966:1 987:1 1009:1 1072:1 1076:1 1078:1 1079:1 1101:1 1107:1 1128:1 1130:1 1164:1 1174:1 1219:1 1220:1 1232:1 1235:1 1237:1 1242:1 1245:1 1247:1 1248:2
-1 389:1 774:1 934:1 947:1 965:1 1010:1 1056:1 1079:1 1107:1 1219:1 1220:1 1232:1 1241:1 1242:1 1245:1 1246:1 1247:1 1248:2
-1 389:1 464:1 934:1 1010:1 1079:1 1107:1 1216:1 1219:1 1232:1 1242:1 1246:1 1247:1 1248:1
-1 389:1 934:1 965:1 1010:1 1056:1 1107:1 1208:1 1219:1 1220:1 1232:1 1241:1 1242:1 1246:1 1248:1
-1 389:1 464:1 496:1 934:1 947:1 965:1 1010:1 1079:1 1107:1 1216:1 1219:1 1220:1 1232:1 1235:1 1242:1 1245:1 1246:1 1247:1 1248:2
-1 175:1 245:1 307:1 389:1 409:1 434:1 449:1 464:1 496:1 570:1 738:1 840:1 898:1 934:1 947:1 965:1 966:1 982:1 987:1 1010:1 1056:1 1079:1 1101:1 1107:1 1153:1 1216:1 1217:1 1219:1 1220:1 1227:1 1232:1 1233:1 1235:1 1240:1 1241:1 1242:1 1245:1 1246:1 1247:1 1248:2
-1 259:1 389:1 464:1 698:1 934:2 947:3 965:2 1010:2 1056:1 1079:2 1107:4 1166:1 1216:1 1219:1 1220:2 1222:1 1228:1 1230:1 1232:4 1241:1 1242:2 1245:3 1246:2 1247:2 1248:5
-1 259:1 317:1 464:1 496:1 656:1 671:1 698:1 870:1 934:1 947:1 965:1 1010:1 1056:1 1079:1 1107:1 1161:1 1214:1 1216:1 1220:1 1222:1 1223:1 1230:1 1232:1 1235:1 1241:1 1242:1 1243:1 1245:1 1246:1 1247:1 1248:1
-1 259:1 464:1 698:1 934:2 947:2 965:2 984:1 1010:1 1056:1 1079:1 1107:5 1166:1 1216:1 1220:2 1222:1 1228:1 1230:1 1232:5 1241:1 1242:2 1245:2 1246:1 1247:1 1248:6
-1 147:1 175:1 214:1 245:1 389:1 449:1 464:1 496:1 570:1 698:1 713:1 738:1 889:1 898:1 934:1 947:1 965:1 966:1 987:1 1010:1 1056:1 1079:1 1107:1 1161:1 1216:1 1219:1 1220:1 1223:1 1230:1 1232:1 1235:1 1236:1 1237:1 1241:1 1242:1 1245:1 1246:1 1247:1 1248:2
-1 389:1 934:1 965:1 1056:1 1079:1 1107:1 1219:1 1220:1 1232:1 1241:1 1242:1 1247:1 1248:1
-1 162:1 238:1 245:1 304:1 307:1 341:1 389:1 405:1 409:1 449:1 469:1 570:1 646:1 705:1 713:1 732:1 738:1 935:1 965:1 966:1 987:1 1009:1 1010:1 1056:1 1072:1 1076:1 1079:1 1128:1 1219:1 1220:1 1237:1 1241:1 1246:1 1247:1 1248:2
-1 162:1 175:1 238:1 292:1 307:1 389:1 400:1 405:1 449:1 492:1 496:1 570:1 609:1 676:1 691:1 713:1 732:1 738:1 898:1 921:1 934:1 935:1 947:1 965:1 966:1 987:1 1009:1 1010:1 1079:1 1101:1 1107:1 1130:1 1133:1 1153:1 1164:1 1166:1 1217:1 1219:1 1220:1 1228:1 1232:1 1235:1 1237:1 1242:1 1245:1 1246:1 1247:1 1248:2 1250:1
-1 263:1 389:1 934:1 965:1 1010:1 1079:1 1107:1 1219:1 1220:1 1232:1 1242:1 1246:1 1247:1 1248:1
-1 519:1 1244:1 1248:3
-1 147:1 164:1 175:1 245:1 268:1 405:1 409:1 449:1 515:1 570:1 607:1 623:1 646:1 676:1 705:1 713:1 727:1 732:1 738:1 898:1 913:1 934:1 935:1 947:1 965:1 966:1 979:1 987:1 1072:1 1107:1 1220:1 1232:1 1236:1 1237:1 1242:1 1245:1 1248:2
-1 389:2 530:1 619:1 790:1 1107:1 1219:2 1232:1 1248:2
-1 337:1 389:1 530:1 619:1 1107:1 1219:1 1232:1 1248:2
-1 337:1 389:1 530:1 619:1 790:1 1107:1 1219:1 1232:1 1248:2
-1 139:1 389:2 802:1 1107:1 1219:2 1232:1 1248:5
-1 389:1 464:1 934:1 965:1 1010:1 1056:1 1107:1 1161:1 1216:1 1219:1 1220:1 1223:1 1232:1 1241:1 1242:1 1246:1 1248:1
-1 246:1 389:2 482:1 533:1 560:1 751:1 872:1 1107:1 1123:1 1219:2 1232:1 1248:2 1250:347
-1 389:1 464:1 496:1 698:1 934:1 965:1 1010:1 1079:1 1107:1 1216:1 1219:1 1220:1 1230:1 1232:1 1235:1 1242:1 1246:1 1247:1 1248:1
-1 389:1 464:1 698:1 934:1 965:1 1010:1 1056:1 1079:1 1107:1 1161:1 1216:1 1219:1 1220:1 1223:1 1230:1 1232:1 1241:1 1242:1 1246:1 1247:1 1248:3
-1 464:1 934:2 947:1 965:2 1107:2 1216:1 1220:2 1232:2 1242:2 1245:1 1248:7
-1 389:1 965:1 1056:1 1107:1 1219:1 1220:1 1232:1 1241:1 1248:2
-1 389:1 496:1 519:1 965:1 1010:1 1079:1 1107:1 1219:1 1220:1 1232:1 1235:1 1244:1 1246:1 1247:1 1248:2
-1 249:1 389:1 464:1 979:1 1079:1 1107:1 1216:1 1219:1 1232:1 1247:1 1248:2
-1 180:1 1248:1
-1 464:1 671:1 698:1 934:1 947:1 965:1 1010:1 1056:1 1079:1 1107:1 1166:1 1214:1 1216:1 1220:1 1228:1 1230:1 1232:1 1241:1 1242:1 1245:1 1246:1 1247:1 1248:2
-1 389:1 674:1 888:1 1107:1 1219:1 1232:1 1248:2
-1 116:1 163:1 278:1 346:1 389:1 965:1 1056:1 1107:1 1219:1 1220:1 1232:1 1241:1 1248:2
-1 304:1 389:1 464:1 496:1 713:1 774:1 840:1 934:1 947:1 965:1 1010:1 1056:1 1079:1 1107:1 1166:1 1216:1 1219:1 1220:1 1227:1 1228:1 1232:1 1235:1 1237:1 1241:1 1242:1 1245:1 1246:1 1247:1 1248:2
-1 389:2 1107:1 1219:2 1232:1 1248:2
-1 116:1 135:1 199:1 223:1 346:1 827:1 875:1 977:1 997:1 1107:1 1167:1 1192:1 1232:1 1248:2
-1 965:1 1107:1 1220:1 1232:1 1248:2
-1 147:1 268:1 307:1 313:1 389:1 409:1 449:1 496:1 570:1 646:1 691:1 738:1 947:1 965:1 966:1 987:1 1010:1 1079:1 1101:1 1107:1 1161:1 1174:1 1219:1 1220:1 1223:1 1232:1 1235:1 1236:1 1245:1 1246:1 1247:1 1248:1
-1 464:1 870:1 947:1 965:1 1010:1 1056:1 1107:1 1166:1 1216:1 1220:1 1228:1 1232:1 1241:1 1245:1 1246:1 1248:2
-1 464:1 496:1 698:1 870:1 934:1 947:1 965:1 1010:1 1056:1 1079:1 1107:1 1216:1 1220:1 1230:1 1232:1 1235:1 1241:1 1242:1 1245:1 1246:1 1247:1 1248:3
-1 162:1 175:1 238:1 307:1 389:1 400:1 405:1 409:1 439:1 449:1 570:1 646:1 676:1 691:1 713:1 732:1 738:1 921:1 935:1 966:1 987:1 1076:1 1078:1 1101:1 1128:1 1219:1 1237:1 1248:2
-1 162:1 175:1 238:1 307:1 341:1 389:1 403:1 405:1 409:1 439:1 449:1 469:1 488:1 570:1 646:1 676:1 713:1 732:1 738:1 921:1 966:1 987:1 1009:1 1030:1 1076:1 1101:1 1128:1 1219:1 1237:1 1248:2
-1 464:1 698:1 934:1 965:1 1010:1 1056:1 1079:1 1107:1 1166:1 1216:1 1220:1 1228:1 1230:1 1232:1 1241:1 1242:1 1246:1 1247:1 1248:2
-1 519:1 1244:1 1248:3
-1 519:1 1244:1 1248:3
-1 519:1 1244:1 1248:3
-1 965:1 1056:1 1107:1 1220:1 1232:1 1241:1 1248:3
-1 965:1 1056:1 1079:1 1107:1 1220:1 1232:1 1241:1 1247:1 1248:2
-1 464:1 934:1 965:1 1010:1 1056:1 1079:1 1107:1 1166:1 1216:1 1220:1 1228:1 1232:1 1241:1 1242:1 1246:1 1247:1 1248:2
-1 464:1 934:1 965:1 1010:1 1056:1 1079:1 1107:1 1166:1 1216:1 1220:1 1228:1 1232:1 1241:1 1242:1 1246:1 1247:1 1248:3
-1 934:1 965:1 1010:1 1079:1 1107:1 1220:1 1232:1 1242:1 1246:1 1247:1 1248:3
-1 519:1 1244:1 1248:2
-1 934:1 1107:1 1232:1 1242:1 1248:1
-1 464:1 934:1 965:1 1056:1 1107:1 1166:1 1216:1 1220:1 1228:1 1232:1 1241:1 1242:1 1248:2
-1 464:1 934:1 965:1 1056:1 1107:1 1166:1 1216:1 1220:1 1228:1 1232:1 1241:1 1242:1 1248:2
-1 147:1 464:1 934:1 947:1 965:1 1010:1 1056:1 1079:1 1107:1 1166:1 1216:1 1220:1 1228:1 1232:1 1236:1 1241:1 1242:1 1245:1 1246:1 1247:1 1248:2
-1 464:1 934:1 965:1 1010:1 1056:1 1079:1 1107:1 1166:1 1216:1 1220:1 1228:1 1232:1 1241:1 1242:1 1246:1 1247:1 1248:2
